NAME: christofides_hard_n225_s0
TYPE: TSP
COMMENT: christofides_hard generated explicit tsp
DIMENSION: 225
EDGE_WEIGHT_TYPE: EXPLICIT
EDGE_WEIGHT_FORMAT: FULL_MATRIX
EDGE_WEIGHT_SECTION
0 30 7 5 4 21 3 2 15 24 36 2 4 18 5 36 9 34 18 33 1 36 21 25 11 21 29 21 29 17 13 28 30 29 19 27 16 3 17 16 5 30 15 29 3 32 10 8 7 22 13 5 15 2 7 26 11 24 25 20 38 13 34 28 4 1 14 10 1 5 14 23 31 4 39 2 7 34 11 30 32 20 10 24 5 17 2 12 13 4 38 1 14 13 26 11 12 27 26 19 7 9 21 34 1 28 19 35 9 29 36 27 2919 4873 4042 3781 3885 4896 4845 2606 2566 4369 4811 4424 2597 4705 2742 3427 3134 3909 2973 3526 4829 4166 3642 3176 3401 2513 3378 3640 2877 4920 2628 2730 4947 2829 3107 4884 3199 4724 3579 2847 3213 4184 4645 2933 3579 4360 3960 3426 2644 4735 2558 2635 4156 6 4648 4815 4487 4413 4708 4806 4320 3609 4816 4340 4865 4014 4607 4193 3908 3302 3382 2589 4322 3077 3775 4437 4414 2694 3521 3867 3234 4809 4474 3323 4020 4690 2551 4800 2638 3312 2851 3724 4856 3443 3593 4983 4415 3071 3398 4131 4905 4794 2533 4943 2638 2573 3282 3009 3708 3032 4773 4900 2984
14 0 28 37 11 33 34 2 8 31 35 36 3 29 39 17 24 30 31 39 21 12 30 19 35 36 6 4 16 26 12 31 31 14 35 14 31 12 15 37 38 25 6 24 8 23 5 26 10 19 1 29 32 2 19 5 35 18 17 35 33 39 33 12 2 25 21 5 39 11 23 9 23 9 1 26 27 27 33 36 23 1 5 14 26 34 30 30 31 38 11 8 29 8 36 26 2 27 26 22 37 13 35 6 22 37 27 15 18 28 29 19 4672 3608 4469 4739 3650 3976 4343 3700 4374 2845 4296 2901 4914 3096 2824 2562 4978 3960 2912 4887 3047 4991 3220 4501 3029 4280 4931 3223 3114 3428 2590 3630 3816 4017 3861 3871 3360 4169 4521 4313 3230 2694 2632 2780 4812 4536 3133 4815 4405 2772 2838 4736 4540 3507 3411 4218 3435 2915 4611 3115 2640 2651 3592 3089 4754 2636 4393 4887 3425 4098 4770 2984 3781 3055 4210 2920 4489 4004 3822 3847 2681 2727 3895 2591 3647 3662 4398 3749 3776 3315 2774 2775 4837 4501 3628 4162 2831 3567 4238 4067 4370 3874 4636 4200 2987 3518 4605 4314 4901 2894 2571 3351 2846
1 12 0 11 27 26 5 34 3 13 38 3 26 11 39 6 19 36 15 28 17 9 36 26 13 31 16 11 31 32 24 35 22 15 25 14 39 5 23 8 26 2 30 26 9 2 16 25 23 23 6 33 36 8 4 16 13 37 22 22 31 20 13 32 30 38 3 20 26 39 11 13 11 31 37 4 32 13 20 37 13 29 37 11 1 10 15 16 33 19 9 8 26 13 24 34 24 34 35 6 11 30 31 5 31 29 12 16 26 12 8 10 4725 4757 3733 3847 2950 4535 2525 3508 4785 3024 4460 3364 3006 2900 4495 3991 3382 3848 3791 3668 4183 4865 3739 4209 3820 4291 4975 3971 2644 6 4513 2723 3063 4188 3847 4275 3477 4918 3411 4382 4325 3372 4204 4065 2532 4828 3239 3867 4920 3216 3851 3062 4239 3197 2506 2655 3172 4659 3336 3597 2660 2876 4879 3339 3771 2679 3830 4894 4501 4447 3464 4347 3076 4544 4671 3580 3581 4147 4498 4906 3543 4128 3694 3570 4404 3056 3779 3215 4745 3361 4012 3817 3772 4337 4372 4990 4722 4295 2764 2645 4961 4263 4561 4495 3335 4145 3244 3287 3401 2525 3450 4191 4295
10 11 12 0 30 6 34 5 38 18 14 23 7 13 31 10 20 5 1 2 9 13 37 29 36 22 19 38 33 38 13 1 27 11 25 26 16 12 18 24 30 22 28 31 19 33 19 3 6 29 32 36 37 39 13 34 5 16 24 24 9 37 11 26 18 35 33 35 15 20 29 5 10 11 38 29 5 36 21 35 5 26 29 6 34 15 14 3 5 26 1 1 38 33 14 37 12 36 13 35 7 29 15 10 31 34 20 15 36 24 16 18 4038 4752 3976 3229 4917 2585 2795 4883 4167 2538 2539 3653 4218 2901 4119 4573 3902 4219 4883 2519 4291 3538 3329 3747 3450 4848 3290 4932 3649 3572 4812 4174 3753 3488 4563 4751 2766 4256 3331 4700 2941 3034 4351 2835 4529 2860 4737 4076 3346 4716 3976 3239 4760 3471 3762 4800 3721 3457 3941 2698 4987 3032 3850 4392 4558 4706 3840 4058 2643 2791 3403 4333 3482 3183 3084 4198 3251 2735 2667 4284 2890 4987 3113 4931 2853 3929 3056 2696 3401 4262 2827 3268 2882 3664 4145 2625 3649 3605 4197 4621 3585 3856 3213 4356 4533 4616 3751 3664 4754 3837 3950 4681 3195
3 3 14 32 0 3 36 8 13 27 25 8 5 18 19 2 32 26 9 7 32 14 14 17 10 3 19 33 30 17 14 18 12 38 15 39 8 21 8 20 2 6 18 12 8 1 35 3 12 22 20 38 20 3 14 22 26 26 19 39 25 24 19 9 36 10 39 3 27 3 35 36 33 12 31 4 16 24 23 1 14 39 27 37 1 1 21 13 7 35 12 19 12 34 30 2 37 38 22 27 19 34 13 17 26 9 21 38 16 25 15 33 2927 4426 3978 3117 4752 2746 3712 4585 3867 3728 4463 3356 3439 3723 4289 4045 3226 2740 3725 4424 3227 2643 3902 3619 2983 3712 4068 2625 4814 4591 4669 2869 3904 2730 3525 4133 3819 3255 4479 4929 4578 4892 4464 4668 2699 4019 2709 4357 4649 4664 3725 3439 3620 4646 3889 3740 2866 4559 3484 4884 4711 2646 3004 4002 3115 3321 3274 4416 4710 3411 3434 2964 4713 4010 2805 4674 3192 3099 2820 3426 4126 4346 4115 3078 3415 4288 4897 4166 4664 3579 4653 4756 3204 3056 3655 3708 3441 3525 4409 3339 3694 3090 3858 4949 4843 4910 2896 4678 4111 3806 3383 2801 4241
38 36 26 6 39 0 3 29 29 12 31 17 37 2 38 26 27 10 10 29 38 27 30 27 37 6 33 29 1 35 12 27 38 6 10 17 39 27 32 23 14 21 33 39 23 19 17 29 22 5 23 19 9 35 12 30 7 39 29 18 28 11 3 38 30 39 27 26 26 27 14 21 27 36 31 37 14 15 24 9 11 22 35 12 34 24 34 28 2 12 5 30 8 12 14 14 39 4 23 37 26 16 17 16 17 17 5 16 30 20 35 39 2620 3382 4958 3505 2854 4788 4782 3884 2983 4400 2767 3426 2681 4796 4980 4054 3910 4298 3810 3972 3897 3098 4471 4039 2744 4349 2675 3998 4600 3579 3458 4717 4044 4853 2735 3335 4686 2922 3100 3358 4381 2894 3668 3957 3693 4595 3624 2500 4064 4405 3690 3302 4142 2655 4395 4130 4018 4890 3166 4922 4493 4377 2775 2710 2729 4736 4137 3069 3734 3386 4811 3892 3182 4459 3396 3287 3385 3532 3690 2994 3196 2816 4085 3898 4078 4657 3365 3600 4808 2605 4820 3785 4795 3330 4258 4075 2784 4350 4351 3511 3597 4968 4870 3921 4415 2641 3192 4563 4066 4565 2711 4483 3212
34 22 18 28 29 34 0 16 24 24 38 16 3 28 8 12 21 18 10 23 13 37 9 23 1 1 26 5 13 32 35 15 15 17 26 17 35 13 12 5 36 11 22 26 12 13 19 28 39 11 34 25 8 9 36 29 9 27 37 13 33 26 17 29 36 13 25 37 7 15 24 23 30 24 23 17 14 17 28 30 5 22 21 18 20 6 38 30 11 30 31 8 21 29 12 30 12 29 27 14 20 31 9 9 11 2 9 6 5 9 27 5 3544 4273 4623 4651 4351 4011 4343 4842 4098 3956 4927 2749 4650 3107 4199 2680 2512 2996 3837 4992 3616 2778 4198 3668 3932 4251 3844 4148 4315 4547 3422 2559 3669 3364 3604 3710 3848 3039 4722 4791 4946 4398 17 4611 3575 4370 3289 4370 4925 3017 4956 3278 3573 3193 3167 3692 4754 4289 3171 3471 3010 4640 3267 4793 4643 4397 3522 4472 3124 4901 3871 2610 2844 4454 4050 4552 2822 2730 3468 2541 4630 4091 2605 2603 4502 13 4075 2755 4450 4146 3641 2785 4183 3718 2983 4339 2932 3164 3309 4766 4827 4365 4495 4077 3198 4193 4369 3252 4271 4720 3201 3922 2579
14 19 6 19 25 17 19 0 4 30 26 32 13 37 16 9 27 4 1 4 3 35 1 36 21 3 23 11 1 9 6 35 22 28 34 4 38 9 25 39 1 26 24 32 20 28 1 2 12 7 29 20 24 38 14 33 30 31 23 16 3 1 10 16 14 32 5 4 31 4 31 14 9 5 28 23 28 28 4 4 27 24 38 25 1 22 21 3 6 37 8 6 24 5 19 10 36 2 16 39 27 3 17 12 29 24 18 17 10 8 33 30 4068 3664 4313 3842 4605 4778 2659 3471 4484 3727 3093 8 3369 2536 2916 4098 2830 4589 4156 4051 3972 3771 3528 4479 4508 4352 4073 4941 2558 2653 3028 3564 4304 4748 2554 4563 4909 3910 3768 3647 2547 2813 4870 2628 3640 3098 4363 3737 3228 3226 3905 4543 3653 3546 4790 4338 2809 3809 2704 4919 4242 4237 4176 3526 4890 3383 4434 3976 4367 4200 3770 3377 4360 3336 3789 4799 2644 4980 4428 2963 4532 3673 2993 4868 4166 2889 4260 3548 2549 3193 4786 2968 4768 3404 4956 3356 3911 2652 4651 3228 4772 3614 4550 2686 3210 3899 4235 4162 2705 3290 2887 3449 4401
31 31 13 28 26 14 38 33 0 8 15 12 7 8 4 5 35 30 32 34 18 25 17 26 26 31 34 36 18 24 18 10 13 18 21 14 38 23 35 31 16 23 24 32 1 21 13 29 39 14 34 21 17 15 5 6 37 2 18 9 30 3 5 7 5 7 7 31 21 30 16 4 23 22 3 22 22 39 2 27 21 4 21 26 36 24 15 19 14 38 19 25 37 5 37 20 7 30 12 14 3 38 34 36 26 24 22 7 35 6 29 15 4693 2534 4816 3670 3770 2814 4347 4471 4804 2873 4547 4369 2961 4579 4943 4418 2752 2902 3157 4188 4130 3820 2679 3728 3706 4810 11 4585 4925 3448 2660 2711 4092 4866 2629 3681 3400 4456 2879 4667 4258 4569 4962 3535 4808 2732 3776 4044 4167 3926 3799 3423 3000 4692 2945 3587 3876 2919 3282 3546 4022 3544 2572 10 3389 4047 4080 3182 4979 4302 3096 3735 3964 3466 3405 4770 4201 3121 2711 2744 2775 4832 2980 4748 3331 4756 4420 2952 3413 4066 2829 2854 4810 3134 3126 4218 4445 3257 3723 3611 4788 3805 3610 3404 3666 3921 4897 2985 2946 4975 3953 2767 4502
32 2 28 10 18 2 24 4 6 0 25 39 1 12 2 35 30 9 18 9 17 26 38 7 31 8 10 6 38 1 8 11 20 26 12 4 2 13 36 35 38 26 11 34 15 31 19 22 4 10 4 8 7 24 23 26 18 16 20 11 28 6 14 12 4 24 29 36 9 34 23 39 29 24 30 19 32 30 12 25 32 37 35 18 22 38 19 6 7 5 8 6 13 27 6 32 23 4 32 26 6 28 21 32 25 10 17 3 36 23 23 33 2699 4486 2653 2803 3894 3498 3664 3183 3715 4944 4453 4031 2820 3981 4956 4360 2709 4394 4526 4108 5 2997 4692 3486 4360 4791 3191 4393 4098 3150 4600 4508 4364 2736 2799 3398 4192 3986 4049 4218 2929 2874 3404 2790 3763 4522 3904 4585 3534 4282 3838 2561 3907 3531 2939 2808 3867 2762 4250 3137 2597 4882 2795 2801 3119 2626 3331 4094 3294 4768 3235 4937 3516 3440 4731 3327 3423 4086 3829 3843 2688 4592 2833 4022 2927 4951 4415 2813 4777 3320 3700 3568 3733 2562 3391 3771 3122 4827 3602 3554 4351 4952 3164 3211 3562 3122 4788 4697 3461 3856 2832 3574 4859
16 29 32 8 16 15 3 11 3 26 0 8 21 26 10 20 28 19 24 31 34 23 18 20 9 13 11 29 35 5 13 6 37 30 27 3 36 38 3 6 35 22 31 14 25 19 5 17 37 30 16 32 4 38 12 5 25 37 20 27 32 9 3 5 39 10 20 7 4 22 1 6 37 11 13 31 31 31 5 3 35 36 18 15 5 7 11 14 12 29 13 33 32 4 29 14 37 23 37 4 32 30 5 19 10 10 38 37 29 22 16 6 3812 2562 4316 4298 3498 4047 2910 2710 4646 3310 3867 4939 3688 4848 4309 3060 3681 4454 4093 4104 4315 4710 3592 3039 4348 3972 4765 4895 3630 2850 3346 3385 2570 4031 3006 3564 2609 4598 4001 3126 3759 3160 4789 4325 4090 3588 3604 3740 4938 2809 2624 4604 4772 3040 2693 4100 3955 3336 2569 4760 3588 4656 2612 4157 3441 4049 4255 4382 4964 3734 3990 4605 3132 4014 4345 3180 2618 3553 3985 4553 4828 3528 4450 3946 3329 3854 2839 3167 2730 4945 4536 4463 4776 2512 4531 2869 3374 3219 3760 3218 3475 4694 4768 4013 4176 3643 4421 4306 3005 4626 3300 2538 4565
6 32 16 1 11 21 7 24 16 27 8 0 18 38 39 31 39 32 34 9 24 31 6 29 13 7 31 30 36 33 1 9 30 25 29 30 26 12 33 32 33 21 5 13 38 1 2 3 35 3 1 17 16 34 39 31 19 4 39 14 3 25 11 26 21 31 29 30 23 18 6 10 2 27 7 9 16 5 13 9 21 39 19 31 21 27 12 22 16 32 27 4 14 39 37 12 12 9 28 35 35 6 1 37 13 38 11 2 24 6 15 10 3919 4434 3501 4084 4837 3418 3961 4881 4391 3870 2771 4300 3062 3857 4332 3776 2844 3905 2785 2650 4599 3392 3183 4273 2732 3473 3732 3480 3830 3755 4077 4365 4751 4342 4169 4530 4717 4696 3015 3539 4598 3006 4264 4962 3338 3333 2832 3663 3366 4197 3900 3919 3726 4894 4984 3387 4224 3898 4086 3999 4440 3608 3586 4603 3374 4401 4458 3301 2648 2812 2793 4731 3445 3476 2595 2813 4521 2736 4970 2910 2558 3014 2502 3996 3089 4756 3417 3083 3972 4218 3858 4711 4735 4671 2975 4997 4753 2821 4224 2900 4659 4442 4763 3865 4980 4274 2723 4454 4437 2718 3730 3516 2520
1 25 12 18 29 11 11 32 7 20 21 13 0 1 29 4 28 27 14 19 14 33 11 17 36 14 12 19 29 1 9 12 19 24 24 15 14 10 19 2 8 26 22 4 2 22 2 38 25 23 39 16 32 36 26 16 3 26 22 28 18 32 9 19 31 13 21 24 35 15 7 28 17 38 30 30 7 8 18 12 34 34 24 31 2 11 23 33 38 31 37 5 21 22 37 32 14 28 31 32 15 36 28 8 3 9 9 3 15 13 25 28 3395 4784 2972 3980 4156 4372 2504 2789 2650 3299 3954 4877 3748 3034 4286 3446 3115 4890 3968 4371 3650 3826 2936 3985 2547 3042 3717 3510 4168 4002 2996 3492 3023 2622 2797 3842 4049 4548 4435 4355 4533 4712 4707 3401 4637 4973 4325 4705 3199 3204 3847 4689 3672 4295 2978 4298 4455 3926 4030 2999 3683 3578 3237 2554 3830 2568 4456 4545 3196 4760 3501 4791 3870 4418 2666 4459 2646 3060 10 2780 4536 3973 3681 3877 3050 3537 3236 4788 3906 4112 4722 3603 2508 4751 3095 3924 4394 2930 4552 4671 4636 3241 2657 4054 3825 2771 3844 4503 2629 2710 3786 3081 3948
7 29 5 17 7 24 21 26 6 34 29 14 8 0 15 21 11 17 30 4 21 2 31 36 22 38 26 9 28 14 24 9 17 21 13 20 9 3 15 14 3 37 11 14 30 17 28 7 1 29 37 6 26 2 36 22 10 32 30 6 16 6 28 14 17 10 39 2 38 23 12 19 29 36 11 5 11 20 23 15 10 20 10 6 38 6 17 9 36 18 32 22 26 18 21 22 4 4 17 33 3 21 24 5 14 23 39 18 6 35 7 26 4827 4899 3270 4027 3257 4063 3961 3714 3894 3411 3533 2756 4647 2924 4721 4589 3051 2853 3728 4983 2765 3749 3837 3239 3326 2712 2875 4477 4822 3406 4190 2548 4587 2901 4686 4036 4927 4936 3901 4812 3059 4816 4983 3323 4992 3448 2892 2611 3511 2538 4248 3054 3342 3821 2662 3276 3036 3779 4814 4562 3945 3546 2991 3204 3972 2588 3530 4398 4244 4531 4381 3377 3126 3333 3304 2849 3422 4452 4624 4824 2604 4200 2726 3525 3249 4302 3390 4536 3332 2901 3948 2707 4990 2738 4509 2819 3240 4140 4626 2584 2885 2966 4693 2874 4317 3797 4761 3416 3996 3993 4802 4775 4230
34 37 32 34 20 33 5 21 13 33 9 31 8 31 0 1 1 30 14 23 14 30 24 24 36 5 6 6 39 34 23 35 34 21 33 30 35 20 30 23 15 16 7 34 24 6 37 22 10 4 9 9 18 4 30 9 24 33 22 7 39 5 29 27 3 16 27 23 18 20 23 7 4 15 30 32 32 22 10 39 26 21 26 18 10 18 34 32 14 10 23 36 13 5 31 16 35 15 7 37 16 28 23 28 35 33 15 18 24 15 8 9 2795 4895 4953 3752 4087 2535 3777 3718 2778 4521 4763 4766 4433 2720 4764 2729 3521 4792 4088 3459 4529 2708 3247 3134 4422 2676 4567 2530 3029 4692 3574 10 4583 3822 3158 2695 3747 4252 4950 4080 3031 3572 4976 4897 4575 4199 3450 4353 4525 4258 3622 4500 4021 3285 3483 3118 4514 3869 2830 4301 3065 3800 4893 3405 3261 4327 3140 3217 2965 4577 3502 3419 4884 2847 4006 4740 3694 3866 3749 3618 3142 4534 2731 4140 3659 3247 3499 3486 4903 3500 3643 4416 4769 4028 4497 2696 4287 4976 3418 3945 4465 2560 2511 2642 4079 3650 3014 4134 2699 2712 4429 3042 4901
25 7 20 6 26 20 5 10 8 24 5 32 13 27 32 0 36 9 9 28 15 11 17 7 21 27 1 17 35 27 22 29 11 29 7 34 1 38 26 32 30 29 39 21 15 14 9 39 38 19 14 16 8 22 30 15 28 39 4 18 24 30 18 1 39 37 37 29 12 14 37 15 13 2 2 35 21 33 37 1 37 19 39 35 23 36 33 35 26 16 21 20 24 19 25 1 3 17 30 38 9 31 38 28 23 27 12 11 37 28 3 35 4251 2917 4773 2707 3840 2605 4297 3336 4465 3525 4124 3606 4711 3979 2634 4808 2961 4346 4716 2521 4356 3065 4372 3329 4617 12 4909 4620 3914 4614 3236 4571 4180 4019 2601 4168 4942 2820 4990 4083 4947 3066 4391 3509 4242 3427 3209 2802 4640 4564 3659 3000 2720 3297 4978 3140 3718 3422 4377 2957 3889 2664 2693 2903 3411 3707 3844 3633 4588 3044 4208 2658 3832 4950 4530 4861 3795 4696 2923 4269 4460 4437 3705 4712 4343 4090 2753 4538 3404 3352 3520 2753 2880 3752 3963 3736 2871 2861 4843 3573 4072 4190 4648 3710 3037 3434 4277 4670 3721 4630 3295 3296 2829
20 7 21 39 22 14 25 39 34 2 16 26 27 36 26 2 0 7 33 10 14 28 7 36 10 5 30 1 20 16 30 39 5 10 13 20 19 19 6 36 6 10 30 34 10 37 23 25 14 17 33 39 27 5 28 7 25 32 23 16 6 21 37 17 34 11 30 7 12 25 2 6 16 17 15 33 4 15 7 25 12 2 31 5 33 37 26 23 38 16 38 6 31 32 24 32 2 3 5 33 35 1 29 17 8 21 9 35 4 4 25 5 4961 3996 4109 2987 4003 3171 2765 2740 4365 4086 2849 4206 3435 2839 2576 4598 2907 4299 3101 4441 4440 3507 4079 4986 2613 4529 4562 3709 3636 3666 3722 3225 2913 3686 4800 2995 3043 3157 3972 3891 4766 4800 3782 3430 4329 4994 2641 3920 3975 8 4488 4234 4274 3641 3377 3692 4585 4215 4619 4954 3269 4730 3342 3665 3647 3194 4364 3600 3554 4094 4182 3886 2963 4134 3649 4935 4429 4905 4418 3774 3578 3518 3217 2769 3642 2541 3744 3785 3582 3048 4725 3491 2625 2519 3359 2658 3429 3954 4720 2866 3625 4807 3190 4709 3552 4835 4108 2569 4200 2839 4736 2859 4382
30 3 12 22 23 23 39 22 6 22 14 3 26 1 21 2 37 0 25 1 2 10 39 3 22 37 35 9 37 22 11 5 11 36 26 34 33 14 14 13 14 2 10 4 30 7 9 15 32 31 11 14 29 36 21 23 28 18 36 24 12 23 27 15 37 12 37 39 32 21 33 33 35 6 13 33 26 6 28 6 31 28 7 28 25 30 27 16 38 20 29 25 27 7 25 19 21 33 17 26 38 3 28 31 36 39 38 1 20 10 21 13 3706 2710 2646 2809 2596 4902 3111 4684 2934 4530 4977 2961 4558 2707 2755 3180 4492 3593 3425 3028 4502 4349 3953 4739 3549 4420 2816 2663 2975 3216 2825 4261 4165 2708 2593 3768 2980 4815 4664 2786 4605 3388 3049 3651 3808 3462 4075 4315 4050 3281 3505 3412 4211 2530 3026 3430 4909 3037 3715 3350 3188 3230 4368 3926 4898 4702 3396 3443 4240 2540 4974 4032 2902 4129 4915 3240 3581 3517 2555 4365 4567 3931 3617 2641 3023 4491 4484 4443 3294 3254 3643 4924 3427 3172 3299 3762 2565 4694 3598 3089 4888 3865 3699 3008 4067 2717 3025 3224 3248 3252 2962 3969 3993
23 29 5 20 31 24 24 10 13 9 19 8 35 32 28 15 37 33 0 14 30 26 15 11 16 29 36 37 20 10 7 31 38 13 22 14 11 38 23 19 35 3 29 30 33 6 37 17 24 28 22 16 31 14 22 34 14 32 32 39 9 24 17 38 6 36 23 3 18 17 19 16 27 37 4 7 24 32 20 9 6 4 16 24 25 29 11 22 10 12 29 27 1 17 28 23 18 2 23 27 22 36 21 22 10 27 25 19 29 30 33 14 4986 4431 4984 3655 3888 3107 4848 4433 4346 3784 4990 3575 3460 4211 3518 4715 3487 4980 3606 4203 4193 3077 4244 4971 2993 4620 3062 4504 4914 3990 2729 3273 4703 2871 3798 2586 3546 3505 2960 4231 3062 4398 3493 2688 3837 3117 4547 4135 3757 3732 3478 4612 3181 3121 3404 4502 3893 2564 2653 4238 3686 3075 2698 4794 3064 4505 3924 3429 4362 4934 4574 2772 3753 3244 3480 3792 3351 4307 3026 3500 4359 2734 3235 4429 4544 4516 3152 2874 3068 2833 2719 3711 2662 3483 3100 4864 4044 4361 3902 4241 4028 3217 2800 4847 2633 4114 2568 4835 3446 4582 3545 4394 3851
22 12 3 35 31 13 39 12 23 26 20 26 29 1 25 13 24 3 7 0 37 5 1 37 28 9 25 21 16 2 31 28 28 11 10 30 18 31 17 5 31 35 16 17 26 38 19 39 28 26 38 2 11 36 36 27 38 39 9 32 15 8 28 38 18 39 36 31 27 6 33 28 25 1 33 8 4 15 14 15 8 32 24 6 2 21 18 5 10 7 19 12 27 6 14 3 20 16 36 12 27 25 34 27 20 27 30 36 17 15 23 12 4380 4676 4677 4208 3047 3943 3193 4053 2880 4527 4870 4453 4315 3664 4602 3176 2623 3960 4543 3452 4535 4385 4497 4782 4124 3552 4571 4397 3103 4477 2700 4538 4870 3862 3217 3719 4251 3152 4447 3504 4249 4191 4085 4375 3946 4607 2547 4362 2951 3501 3188 3591 3292 4574 4693 2909 4217 3716 3436 3797 4266 4279 4840 2967 2513 3227 4342 3356 3448 4598 3932 4536 2713 4592 4411 3221 3769 3457 4303 3403 2855 3049 4821 4924 3301 4171 2538 4702 3993 4540 3676 2571 2657 4617 4191 4134 4502 3981 2678 4685 4980 4014 4010 3847 3224 3119 3783 2820 3981 4275 2815 2997 3172
18 10 8 37 36 24 20 7 12 23 37 25 9 37 8 14 38 38 33 6 0 2 8 39 26 14 2 32 39 15 6 6 16 15 34 15 38 25 7 2 21 31 29 15 39 6 9 26 28 21 8 1 28 39 27 3 8 34 32 5 30 34 1 12 30 20 5 3 7 1 13 30 35 26 20 24 35 15 34 30 26 26 6 35 35 36 6 29 24 38 14 34 22 15 11 18 2 38 32 12 10 10 30 1 32 39 2 11 13 21 3 11 4518 4864 2628 4503 4885 4281 4306 4421 4043 2834 4928 3618 4147 3189 2712 3510 3100 3583 2677 4409 4210 2989 2601 4861 4942 2991 4446 3405 2899 3068 3528 3440 4297 2741 3709 3663 2742 4538 4521 2867 3086 4625 3051 3571 4901 3407 4257 4977 3903 3210 4965 4940 2872 4232 2960 3704 4098 2544 3508 3426 2958 10 3919 3411 4253 2729 3855 3344 2619 3768 4474 3801 10 3163 4465 3205 2642 3889 3670 2554 2696 2652 3454 3288 2938 4146 4465 3362 3772 4412 4991 3738 4919 3358 4349 4470 2684 4206 4448 3774 4493 4480 4055 3545 4501 2881 4003 2981 4097 2661 3152 2582 4577
3 12 34 15 9 20 8 7 22 9 18 28 38 34 2 6 34 21 22 32 29 0 23 15 32 20 25 13 32 34 20 27 27 9 25 16 15 4 13 35 12 5 25 39 22 24 36 9 24 33 4 17 31 33 17 17 9 24 32 8 3 10 7 15 8 28 27 27 2 38 22 1 29 25 14 23 29 37 13 16 30 18 22 19 28 3 38 5 32 3 2 13 28 37 2 39 17 25 35 22 15 14 11 6 24 5 19 9 1 17 30 4 4797 4984 4319 3261 2992 3257 4571 3846 4701 4323 2944 3785 3214 2854 2745 4949 2915 3084 3173 2917 2867 2718 2725 2657 4450 4756 3063 3413 2574 3936 3375 2793 3807 4827 4472 2746 3160 4479 2865 3678 3780 2767 3559 3225 3032 3162 3513 3287 3849 4958 2687 3273 3772 2889 3361 2860 2737 3866 3809 4479 3364 3988 3803 4374 2986 4949 4524 3609 2752 14 4926 3466 4492 4278 4837 4876 4809 4631 3108 3413 2591 3224 3026 4644 3187 3247 4262 2952 4236 4661 4785 3874 3754 4055 4147 2968 4123 3037 3680 2830 3918 4145 3539 2661 4395 2642 4679 2959 3171 4146 3183 4779 4526
13 7 11 15 34 6 15 27 23 38 33 30 30 1 24 12 18 26 31 2 14 38 0 8 27 1 27 30 37 20 31 20 14 15 16 24 19 23 28 13 14 25 3 21 12 4 33 6 15 17 17 18 28 26 13 32 36 6 1 18 8 23 4 13 34 21 7 16 13 12 10 35 18 12 31 18 32 14 5 4 24 13 19 18 16 37 38 3 1 19 25 12 21 9 27 39 14 15 19 12 1 32 13 11 21 11 10 2 37 34 12 6 3458 3758 4562 3550 4814 3081 3701 4317 3174 3466 4036 4827 4731 3195 3237 3259 4241 2775 2981 4770 4139 4800 3100 4848 2708 3388 4377 4275 3807 2848 3882 2932 4416 4638 4756 3590 3240 4349 3810 3519 2735 3430 4347 4170 4550 4307 2640 3606 3528 3732 2595 4719 4954 2802 3754 2635 3653 3527 3153 3216 4943 4087 3583 3336 4703 4246 4677 3238 2733 4415 3261 4769 3743 2613 3558 3159 4182 4132 4671 2755 4732 4161 3273 3254 3924 4691 2925 3392 4031 4829 4440 3375 3676 3057 2570 4410 4449 4818 4547 3782 2761 3969 4048 3166 3461 4803 3341 4577 3452 2529 4875 2702 4567
24 1 5 21 11 4 3 16 13 25 17 5 38 9 29 17 1 17 21 2 31 22 16 0 18 20 29 26 39 38 11 12 35 32 10 10 20 35 37 19 8 18 24 20 10 36 27 10 12 16 29 30 17 19 7 14 25 15 5 36 37 13 26 28 4 6 15 30 25 30 35 11 22 12 7 26 18 18 10 21 21 32 18 7 4 27 17 3 24 33 11 4 4 24 2 9 7 34 33 1 14 20 29 36 19 39 33 10 38 7 3 24 4654 4816 10 4757 4267 2914 2734 4157 2715 2845 4140 3613 4634 3249 4837 4382 2744 4224 3670 3957 4349 2966 3544 4279 3453 4237 4104 3763 3348 4944 11 3925 4456 2982 4201 3691 4370 3902 2592 3004 4899 4609 3083 2505 4882 3229 4243 3100 4678 4254 4855 4589 4527 3608 3639 2745 4516 3015 3105 4912 2785 2727 3347 3530 4913 4653 3788 3856 3384 2618 3736 4319 3465 2995 4203 4703 3338 3195 4684 3851 3752 3994 12 4390 3582 2790 4080 4599 4624 3104 3417 3794 2550 4059 4134 4928 2605 3461 4279 3074 3101 4187 3271 2864 2590 4115 4739 2748 2641 3360 2651 3422 3301
14 35 35 7 28 5 29 8 4 14 18 34 5 2 8 23 7 19 4 3 29 22 21 12 0 7 36 24 19 21 33 34 11 6 19 16 2 17 27 3 29 35 5 38 3 1 38 6 21 20 12 28 34 17 8 19 12 29 17 19 12 2 21 1 6 28 31 31 3 24 22 5 29 12 32 36 19 18 3 13 32 13 23 5 16 39 38 33 32 16 21 21 24 36 17 23 8 1 25 28 30 10 34 30 37 2 11 3 34 29 12 38 4583 2637 4948 4910 2573 4934 4427 3997 13 3641 4128 3587 3091 3990 3268 4016 4277 3019 4867 4070 4885 2612 3254 3882 3461 4302 3717 2678 3702 2705 4876 4581 4892 4986 3617 3209 2619 4504 4894 4691 3167 3620 4290 4792 4491 3333 4935 4671 3338 2861 4361 3866 3799 3808 2702 4988 3034 2960 2842 3467 4081 4353 4967 3081 4057 2735 3602 3310 4942 4352 3243 4168 4758 2520 3647 3310 3330 4641 4614 3021 3404 4614 2709 4553 3410 2887 3731 3611 3114 4796 3722 3819 3560 3518 4967 4924 2575 4482 2990 4761 4999 4848 3434 2722 3210 3916 3290 4558 3781 3017 2916 3103 4150
27 36 10 25 22 14 17 36 21 19 39 18 14 34 2 25 17 34 18 29 13 5 25 10 19 0 2 32 18 12 14 6 22 23 1 17 32 35 30 5 5 12 7 37 38 36 32 7 25 24 27 29 1 25 34 13 24 23 39 14 32 22 8 34 7 33 9 21 20 10 33 39 27 31 34 3 28 38 24 17 34 39 27 13 17 19 2 1 2 26 22 10 39 10 8 13 11 16 8 38 24 16 20 25 30 16 28 29 10 29 35 10 4547 2751 2732 3771 2712 3159 2596 4241 3841 3505 3889 4267 4735 4324 2520 2878 4866 3245 2724 2879 4703 4637 2877 3050 4280 3767 3863 8 3959 2616 3932 3138 4203 4176 2894 4676 4945 4001 4804 3105 4777 4321 3418 3112 4327 4950 2822 2956 4725 4402 3355 4063 4665 2518 4615 2968 4795 2843 2688 4605 4083 4454 4749 3123 3146 4430 3752 3189 4215 3535 2860 3480 2737 3495 4591 4505 2942 2724 2815 4207 4743 3016 14 2719 4920 2811 3850 4277 2747 4628 4050 4199 4961 4426 3206 2895 3730 3532 3715 3349 3771 3084 2721 3784 3161 4772 4381 3462 4930 3375 3387 3186 3335
20 11 37 1 3 18 28 10 3 21 26 24 9 23 18 20 1 30 39 8 6 27 14 38 39 29 0 36 15 15 12 19 28 2 38 37 26 28 24 38 29 13 30 29 29 7 4 7 10 36 3 28 28 4 16 8 25 33 35 36 26 8 15 35 2 26 10 23 6 37 38 19 4 14 13 31 7 1 12 32 14 22 29 32 3 30 34 26 6 19 15 35 23 14 35 35 25 35 32 32 11 4 21 7 13 39 33 17 3 15 32 32 4397 2639 4328 3826 4596 4730 2806 2569 3826 4599 4584 3677 4567 3696 4649 4757 4931 3279 4132 3505 3412 3376 2778 4520 3258 3016 3289 3123 4759 4658 3110 3758 3864 3949 4203 3172 4127 4518 2600 4925 4775 4728 4415 3130 3524 3597 14 3762 2795 3184 4003 4880 3495 3932 3095 2707 2514 4523 2639 3187 4559 3821 3344 4497 4896 4235 4681 4004 4168 3679 4364 3513 8 2969 4208 4426 2752 3506 3498 3152 4267 4521 3585 4070 4323 3475 4803 3823 4042 3155 2843 2548 4011 4691 4356 2960 2522 3296 3958 3935 3017 3465 3157 13 4004 4482 3755 4732 3641 3808 3374 4170 4150
30 7 31 34 17 2 15 2 15 32 8 14 2 21 29 4 37 2 22 29 33 7 36 30 23 16 22 0 37 7 36 31 26 3 30 37 38 1 14 36 28 32 9 19 24 3 30 9 17 25 15 29 26 27 36 14 3 14 24 14 30 36 33 29 10 9 31 38 32 16 19 3 23 21 7 37 35 32 23 23 28 25 14 37 27 30 37 37 2 8 24 22 30 22 37 38 5 14 5 5 39 13 8 30 6 9 20 9 30 19 24 29 4185 3646 2502 2874 3439 4495 4810 4888 3070 3198 2752 3853 2735 2654 4207 3040 3489 3564 2775 4098 3106 3220 4736 3624 4909 4347 3668 4393 3872 4513 3373 4007 3534 3515 2643 4897 4438 2628 4336 4676 3446 4330 4043 4289 4916 3654 4048 4572 2683 3157 2745 3791 3110 3234 3032 3701 4154 4022 3032 3849 4480 3966 4772 3584 4584 4151 3434 2896 4817 4405 4313 4966 2508 4029 2662 4265 4003 3015 3498 4094 4964 2687 4125 4512 2544 2800 4723 2860 4246 2545 3342 4545 2951 3752 4345 4632 3025 2680 4041 4362 18 4619 4786 3084 4562 4415 3916 2846 3706 3303 2787 2785 4863
14 20 10 22 29 12 20 23 16 7 19 38 10 13 17 18 32 34 19 30 22 15 21 5 14 37 7 32 0 2 10 34 6 16 27 32 38 37 30 12 19 32 30 17 30 32 31 20 38 7 33 33 3 34 18 17 13 11 29 8 30 22 2 19 2 19 25 17 23 9 25 6 29 9 39 28 17 38 38 17 23 38 4 14 29 16 5 7 5 9 8 36 13 16 12 11 9 37 18 36 22 6 31 23 29 14 21 37 19 38 26 5 4295 3083 4143 3635 3481 2947 3094 3041 3293 3685 3675 3044 4487 4077 2952 3799 4046 4251 3417 4444 3926 3993 4922 4052 3114 3508 2748 2947 3702 3825 3960 4941 4659 3664 4858 3431 3645 3012 3515 4517 4297 2544 2905 2635 4218 3230 4393 3580 3958 4591 4373 2783 4493 2649 3188 3596 3254 4667 3830 4057 3953 3960 3817 3178 2800 2725 4697 3427 4040 3779 4152 3384 3918 2687 4750 2886 3078 3519 4575 4122 3183 4824 2719 2587 3354 4965 4318 3026 2986 2699 4312 2916 4712 2676 2987 4790 4047 4395 4990 3205 4179 2860 2754 3522 3825 2501 4587 4024 3788 2639 4991 3121 2544
28 4 7 36 8 10 1 10 17 24 5 33 30 1 8 18 9 35 7 28 37 35 5 35 33 19 24 33 37 0 36 39 21 21 13 39 18 12 4 11 26 14 11 38 3 17 4 27 25 31 36 4 4 33 12 36 14 35 20 12 20 23 27 17 5 9 9 9 16 12 6 2 32 36 28 24 4 20 35 13 4 37 30 38 7 31 33 25 39 21 10 18 15 14 7 38 5 26 23 17 33 38 29 16 20 3 17 31 28 33 3 10 4226 4175 4711 3661 2571 4891 3572 4731 2761 3957 2672 4480 3539 3674 2515 2798 4853 3816 3128 3391 3328 4589 2619 4941 2881 3792 3938 3214 2880 2651 4291 3893 4818 4113 4422 4974 4063 3991 3245 2610 3555 3585 3716 2835 3514 2582 2951 3458 2601 3448 3405 4095 3641 3213 4794 2649 3490 2615 3494 4931 4287 4313 2790 3025 4704 2517 3732 4719 4284 3643 4801 2675 3104 2695 3492 3793 2813 3333 3653 3675 3675 4441 3114 2825 4025 3304 2654 4327 4359 4230 4613 2743 2971 3917 3201 4389 4613 4547 4582 3932 4989 3873 3363 3965 3017 3987 3078 4522 3831 4271 4986 4119 4370
21 13 12 26 24 9 39 17 17 3 26 38 27 25 18 38 2 29 36 8 8 2 1 34 6 34 28 23 38 5 0 21 7 38 25 31 6 20 9 23 5 31 4 30 21 23 17 14 39 14 10 26 32 19 19 33 16 18 39 2 4 11 22 28 19 27 37 37 25 13 30 18 33 22 32 2 22 39 35 30 29 19 9 13 9 23 15 26 18 27 24 25 33 17 14 37 24 23 29 20 32 18 39 27 35 19 23 5 4 11 24 3 3357 3099 4660 4587 4547 3106 2728 2881 3564 4320 4320 3842 4025 4837 4327 3420 3377 2774 4767 3238 2543 4066 3304 4595 3563 2513 4771 3112 2662 4296 3739 3781 4117 3417 2912 2502 4507 3316 2940 3974 3976 3337 3013 2514 4072 4633 2911 4373 3583 2825 3823 3345 2640 3242 4987 4417 4902 3640 4533 4882 4199 4296 2571 3578 4777 4264 3459 3153 3557 3035 3990 2987 3731 3015 4172 4373 4633 2752 4335 4183 2780 3302 4580 2514 2627 2844 4263 3564 2968 3678 3457 3982 4819 3434 4640 2815 2915 3342 4909 4096 3161 3268 3041 4717 4903 2628 3887 3874 3852 4968 2896 4250 2843
24 27 8 31 37 28 34 38 16 12 2 19 5 32 4 38 2 18 11 15 20 31 6 21 22 22 10 36 14 19 25 0 8 15 19 25 37 7 21 16 6 39 10 8 9 11 27 39 6 27 25 34 13 11 3 24 16 20 12 4 15 35 31 32 34 14 16 34 16 3 29 22 39 39 2 24 4 39 30 29 16 21 22 7 18 11 25 13 12 4 27 17 19 11 38 13 23 27 3 24 15 6 29 7 13 15 22 1 5 4 19 18 18 3239 3375 4467 3260 4688 2817 3270 3984 4396 4280 2590 3211 2559 2976 2906 3799 4063 4657 4977 4148 2813 4702 4985 3748 4171 3066 4499 4843 4824 3802 4730 2708 4558 4852 2932 4687 3893 4271 3814 4300 4468 3984 2746 4277 2657 2662 4592 3129 3354 4168 2792 2730 3657 4094 3300 2678 4693 3658 4440 3634 4981 2859 4036 3706 3329 4712 3468 4013 2869 3347 4943 4562 2892 3745 2553 3765 2710 3052 3646 4755 3744 3718 3943 2886 4199 4649 3396 3285 2781 4497 2893 4053 4486 4799 4235 3591 2808 3487 3225 3591 4682 3420 4155 4105 16 4617 2837 3732 2656 3453 3073 10
33 37 26 24 10 6 19 11 14 36 32 38 32 22 15 29 15 27 35 30 26 6 11 33 22 10 34 26 38 2 13 27 0 10 20 22 19 25 8 2 25 10 30 8 28 15 19 20 21 24 17 21 28 13 5 4 33 34 16 25 1 16 32 23 15 34 25 22 8 10 27 35 17 26 2 24 28 20 13 6 27 22 35 9 24 19 21 17 11 17 7 22 8 4 35 18 38 35 13 10 24 13 13 3 29 1 24 38 32 30 24 22 2697 3897 3171 4602 2871 4066 3389 2819 3486 3711 3123 4541 4067 3244 3120 3429 4260 8 2664 3200 4540 2883 3837 4950 2730 3643 3985 3895 3966 4685 4786 3761 4130 4282 4930 4544 4555 2718 3079 2567 3830 4013 2908 2975 3856 4833 3356 2959 4667 2686 3603 2980 3335 3923 4484 4488 2710 4777 3441 4985 3144 4139 2881 3666 2610 3425 3908 4760 2774 3459 3513 4593 4000 3673 4147 2526 4618 4764 4348 3813 2563 3203 4507 3686 4264 3705 4659 3315 3678 3082 3899 3497 4567 2870 2995 3636 4035 3614 4026 4108 3228 4509 4924 3265 4999 4101 3647 3577 3016 3464 4014 4510 3206
9 29 8 17 21 30 26 22 2 21 27 30 20 22 14 39 33 1 18 12 3 12 27 3 26 14 22 11 39 39 8 37 4 0 27 19 15 4 9 14 20 36 20 21 8 20 12 27 14 11 5 9 25 36 9 19 13 37 15 10 9 36 7 32 3 18 33 28 10 7 8 12 5 37 27 20 36 34 2 21 3 7 31 6 10 32 23 22 36 25 15 30 16 12 34 8 18 32 13 17 23 8 13 13 20 39 2 35 2 18 9 37 3474 4033 4120 4767 3310 4066 4852 4450 3453 4945 4420 4963 3812 3707 2657 3402 4299 4541 3881 3311 3074 4726 3256 16 3774 3147 3086 3213 2662 4207 4713 3836 4759 4195 4107 3167 3013 3579 2922 4595 4684 3470 4933 4472 3308 3537 3459 3184 2744 4584 3629 4736 3143 2656 4462 4945 4598 4334 4039 3895 4807 4073 2882 3081 4323 4002 4761 4125 2963 3989 2759 3684 3857 3983 4216 2984 4807 4446 4294 3087 3723 2810 4013 3464 3650 3020 4922 2631 3753 4295 4551 3092 3995 2777 3323 3452 2830 3394 4841 3013 4329 3108 2531 3723 3306 4087 3993 3699 4338 4099 3670 4545 2932
10 8 3 34 29 1 16 1 3 37 16 24 5 27 25 32 7 14 26 25 19 13 4 36 6 35 31 23 35 30 8 25 27 22 0 33 5 22 9 8 22 37 1 12 7 30 27 27 4 22 28 16 19 7 13 35 21 2 22 27 34 17 21 5 30 8 16 36 19 33 6 9 14 5 24 11 19 28 10 13 22 14 5 13 13 3 34 35 21 13 16 4 14 13 7 17 28 23 32 4 28 19 14 3 22 9 2 17 38 21 3 15 4243 2855 3621 4601 2859 19 4733 3138 2699 4636 4622 3718 4644 4127 3408 2591 2957 4668 3289 3125 4492 4189 4965 3844 2955 3847 4808 2614 3128 3166 2855 4688 3684 4252 17 2593 3160 2512 4017 2852 2640 3580 3842 4419 4028 4289 4894 2874 3596 4846 4948 4114 3236 2505 4782 4140 4753 2543 2601 4928 4202 3838 4802 2653 4000 3241 4232 2916 3057 3269 3563 3281 4085 3446 3062 3524 4097 4009 3112 4629 3831 4129 2874 2538 4531 3704 4544 2633 4199 4897 4381 3300 2916 2882 3516 2518 4120 2880 3139 2857 3849 4269 4655 4000 3114 4198 4251 3582 3645 3411 2728 4883 4467
9 28 21 14 14 12 25 33 14 37 3 23 2 11 27 6 6 36 18 35 30 5 14 33 25 5 31 21 25 24 6 35 7 3 30 0 16 11 19 13 39 23 30 19 3 21 34 4 3 34 28 24 3 17 10 19 3 17 32 14 36 2 27 25 15 34 10 25 1 6 35 18 8 30 39 29 9 14 14 1 22 33 34 30 25 17 36 33 22 26 11 3 29 38 32 8 1 18 25 2 34 12 2 22 33 19 30 38 18 10 22 4 4321 2993 4122 4208 4402 2693 3211 3724 2954 4761 3477 4518 4975 3508 4739 2578 4056 4341 3469 4098 4528 3206 4573 4074 4426 4956 2839 2689 2606 4150 3394 4322 4721 3469 2941 3678 3370 3931 4045 4980 2550 3586 3262 4206 4429 2579 4363 3980 4343 4704 4181 4081 4785 4782 2691 2811 4813 3891 3284 4767 4134 3486 4669 4999 3619 2631 3708 3451 4894 2676 3562 4366 4292 7 3744 2652 3385 3439 3140 2839 4789 3337 4313 3900 4152 4838 4019 4337 3629 4224 4165 4362 4541 3969 3383 3517 2586 3903 3038 3206 3533 2761 4381 2902 3541 4505 4162 3945 4450 3026 4634 3449 3122
17 10 1 24 20 34 35 34 38 13 7 39 10 20 8 17 10 5 3 9 39 3 7 17 16 8 21 25 4 17 29 38 3 38 27 14 0 12 14 25 28 18 12 14 21 23 31 1 25 26 13 22 33 9 14 30 2 33 24 10 28 29 10 33 31 17 20 32 9 3 33 20 31 12 10 16 16 39 11 33 28 34 11 6 25 15 7 8 20 36 28 13 29 5 22 31 29 30 36 2 22 23 23 5 29 16 26 2 18 33 20 25 3657 2982 2589 4652 4637 3985 3691 3265 4448 4886 3797 3891 3801 4100 4885 3237 4187 2574 4998 4574 3474 4076 4744 3510 4583 4143 2688 2967 2863 3517 4932 2556 3777 3262 2960 4544 3959 2741 3612 3220 4553 4594 3726 2873 3287 2774 2635 3476 2863 3871 4475 4753 4187 3189 4432 4512 4498 3704 3405 2819 3929 3470 2590 4538 3615 3910 4934 3220 3385 4829 3009 4838 2676 2756 4678 3193 3980 4050 4655 2985 4063 4703 3142 2562 3419 4524 4451 4116 2836 2838 2989 4099 2969 4937 4090 3541 3516 4615 4013 4806 4335 3963 3389 4432 2903 3377 4177 3549 3752 3586 4183 3552 4303
10 5 12 9 1 35 7 13 36 6 22 29 15 16 36 32 17 36 37 31 29 34 17 4 21 30 12 18 27 34 2 4 23 14 32 1 17 0 28 8 8 2 28 18 39 37 25 29 35 14 29 20 1 26 27 4 15 38 2 35 23 30 8 10 23 20 12 24 30 15 10 36 34 8 11 5 28 17 25 3 16 27 13 19 25 35 23 36 19 14 29 19 36 39 20 24 25 35 26 10 21 16 13 5 10 17 24 27 12 3 7 10 3671 2650 3599 4852 2821 2525 3163 4445 2677 3589 4004 4525 3145 4111 4123 3743 3128 3912 3662 3602 3049 4868 4546 4815 4158 4616 3133 3717 3399 2953 4396 2888 4330 3920 4916 3629 4844 3758 4466 2714 4942 2674 4769 4646 4560 3417 3046 3246 3270 3136 3940 4007 4011 3635 3412 3585 4838 4682 3173 3378 2813 17 2883 3366 3738 3557 3579 2735 3370 4273 3623 3143 4812 4984 2533 3981 2812 4538 4089 10 4978 4210 3941 4804 2969 3400 4338 3405 4804 2990 4722 3513 4714 4138 4050 3253 2831 4236 3020 3760 4359 3076 4203 3913 3780 4942 4049 2633 3273 3264 3657 3443 4487
14 24 28 14 37 3 5 25 18 6 34 4 9 26 28 36 3 2 31 13 30 31 14 20 20 26 38 4 9 29 28 37 17 14 18 17 26 31 0 4 38 26 35 20 15 16 34 35 1 9 21 4 3 16 39 25 4 23 16 21 15 34 21 38 34 37 28 39 31 5 16 28 36 15 21 23 20 35 7 33 28 14 24 20 31 33 31 27 9 21 27 33 27 4 9 9 15 23 28 6 3 8 11 18 19 12 13 15 15 23 28 39 2634 4262 2796 3776 4115 3922 3585 2677 4311 4404 3112 4827 3345 3094 4073 2649 4399 2769 3882 3911 2522 4970 4486 3803 4063 3964 4820 4964 3723 2880 2518 4576 3352 3280 4966 3738 4333 4735 2975 3231 4404 3835 3086 3784 2928 2900 4334 4593 2698 4831 4368 4184 4740 4662 2546 4624 3003 4884 2877 2969 4182 4808 4196 3244 4397 3765 4047 3717 3035 4822 4188 4253 4395 4209 3994 3130 2591 2922 3398 2943 3813 3664 2662 4603 4367 3511 3319 4670 4185 4945 3055 4795 4797 4728 2851 4000 17 2971 3438 2528 4291 3931 3732 4777 3292 2995 4117 4646 3190 4453 3396 3852 3360
33 4 22 17 35 24 13 27 28 10 16 2 1 26 23 32 1 18 39 8 29 8 29 32 6 21 32 13 15 22 4 19 15 7 13 5 27 2 18 0 32 1 10 26 4 30 4 5 6 15 2 19 8 16 15 19 10 19 1 13 24 18 14 16 13 32 26 25 28 21 37 16 5 32 37 22 23 7 16 25 36 19 10 39 35 29 34 12 15 14 22 8 30 25 20 36 11 37 2 34 34 2 39 14 1 7 13 13 17 36 20 19 3381 4587 3841 4656 4928 3889 3581 2921 3866 2749 3483 4694 3463 3936 3900 2890 4351 4107 3295 3848 4543 2837 3040 3071 2683 2970 3218 3409 4540 4444 3489 2980 2643 3169 2931 2910 4437 2690 4640 4801 3612 3470 4281 4753 3083 2623 4980 3958 3431 2725 2575 3285 3531 4438 2754 2972 3919 3722 3804 3564 2822 2597 4671 2528 3873 3698 4429 3850 2994 4337 4140 4468 4119 9 4607 4243 4788 2738 3360 3126 2803 3980 4545 3141 4622 4791 3617 2845 4007 4676 3000 3270 2617 4987 3289 4545 2559 2919 4404 3174 4965 2517 3855 4827 3697 2803 4020 4847 2785 4219 4512 4834 2698
32 38 13 34 29 23 24 17 6 13 17 26 1 1 34 4 36 31 18 35 32 30 10 35 27 33 20 23 36 6 33 13 36 30 13 15 14 21 7 29 0 29 28 23 27 28 23 14 20 14 20 30 23 35 23 38 38 1 5 31 25 20 11 21 10 38 6 26 29 22 8 29 33 15 14 5 20 1 15 27 8 19 34 22 5 31 13 35 32 29 5 1 37 25 26 3 22 6 19 31 30 14 13 29 18 36 25 8 18 18 31 26 2594 3704 4856 4813 2673 2874 3520 3651 4299 2890 2574 2901 4346 2720 3346 8 3304 3528 3210 3405 4719 4584 3406 2815 4770 3319 3242 2857 3591 4167 4184 4062 2744 3565 4006 4893 3277 4845 3070 3605 4832 3904 4787 4966 2970 2876 4089 3925 3790 2892 2526 3420 4338 3933 3371 4113 2912 3264 4144 3723 3850 3293 3845 3590 4914 3843 3536 4052 4360 3665 4384 3794 2650 4962 4491 4004 3410 2841 2579 2910 3167 4093 3687 4621 2505 2845 2649 3324 4690 4873 4161 3916 2901 4630 3805 4332 4047 4996 2733 3613 2614 3281 4150 2679 4789 3374 4351 3589 4601 4424 4522 4421 4459
33 17 35 12 30 7 22 9 10 27 29 19 19 21 35 3 9 17 35 26 13 21 39 38 13 34 18 2 25 22 24 23 39 12 31 9 30 13 26 31 17 0 4 14 15 14 7 3 28 2 36 25 2 37 36 36 20 25 27 6 15 8 2 19 12 29 18 27 33 22 32 13 2 2 25 16 33 11 29 14 23 36 38 33 12 19 16 2 27 13 11 13 22 12 27 27 39 38 36 25 9 28 32 26 14 31 32 1 8 22 33 26 4549 4958 4142 2975 2557 3716 2751 2568 3753 3695 4229 4932 2624 4830 2889 2936 2521 3388 2873 3480 2821 4671 4880 3690 2597 4950 4128 3249 4424 3242 3385 3453 4366 2854 4844 3565 4799 3805 4455 3294 4381 3033 3035 3031 4839 4944 4911 3845 4589 2509 3982 3848 3725 2965 4068 4361 3467 3373 3944 3107 4437 3279 3681 2758 4822 4650 3423 4857 2667 4940 3686 2561 4544 3675 2711 2861 3921 3408 3997 4039 3471 2808 4821 3021 2890 3570 2627 2595 2859 3397 3227 3336 4501 2854 4318 3833 3021 4707 3000 3960 4365 3574 4900 2952 4433 3364 4257 2688 3374 2781 4010 3481 3096
31 3 10 37 27 9 37 23 32 11 31 21 4 11 7 33 37 35 15 5 2 21 25 16 31 13 15 22 31 9 36 22 11 11 35 17 12 2 39 36 35 39 0 17 5 36 13 18 21 14 28 34 26 24 29 2 30 35 24 39 1 5 1 32 31 16 34 3 37 12 8 10 10 38 13 3 24 17 30 17 11 26 8 21 22 35 2 3 9 12 2 9 35 22 38 33 39 29 6 11 33 9 24 28 10 7 28 28 29 31 6 29 3949 2860 4040 4948 3253 4789 3394 4245 4575 2989 4616 4012 4647 3007 4631 4012 3120 3801 2536 3689 4005 4892 3960 3429 4846 3414 4812 2722 4390 3859 4313 2883 4798 3414 4460 4295 4356 3804 2762 4211 3292 3683 4417 3224 3132 3059 4593 4505 2886 3318 3338 3404 2957 3993 3552 2992 3398 2825 3951 3156 3381 2852 4109 4312 4044 2575 4083 2601 4744 3314 2615 2652 3761 4934 3226 4306 4171 2860 4332 3824 4220 2683 4527 4461 3765 3755 3750 3329 3448 3485 3942 3029 3320 3092 4881 3221 4825 3981 3177 4982 12 4019 4531 3354 4590 2773 4178 3654 2696 2606 3334 3391 4412
8 12 12 38 22 39 28 30 5 7 29 8 31 6 20 33 10 21 23 36 29 11 21 1 38 34 3 32 31 26 8 16 26 14 3 3 30 28 18 29 25 12 8 0 27 9 3 26 35 31 24 8 5 10 1 3 17 34 39 8 6 36 10 35 12 1 37 21 28 24 18 36 9 24 37 39 19 23 2 16 35 37 25 6 36 35 21 33 2 33 14 37 4 17 8 25 39 27 13 14 33 10 20 24 36 18 25 17 30 26 19 35 4405 4436 4428 3878 2893 3465 3674 3851 2578 3637 3825 4818 3909 4530 2913 4989 2789 3412 2971 4244 2949 2906 3440 4347 4580 2919 3913 3867 3146 3628 4644 2961 4093 4966 2687 3979 3161 4773 3717 2914 4371 4820 4579 2814 3452 4917 3241 4441 3774 2534 2879 3601 3239 4984 3669 4908 3530 3148 2814 3723 4702 3300 3883 4511 4993 4841 3524 2755 3823 3001 4622 3015 2834 4955 3625 4936 3674 4501 3927 4865 3313 3199 4304 3282 3364 3092 3086 3341 3398 4592 2926 2727 4295 3700 3339 4579 3979 3612 3909 4614 3239 3769 3091 3844 2670 4924 2588 2765 3172 4633 3495 2550 3292
20 38 16 27 19 4 19 9 12 36 17 22 34 8 28 31 9 1 19 29 15 32 34 31 27 26 19 23 26 5 37 12 8 9 21 34 29 19 13 26 9 33 18 15 0 32 37 10 23 22 36 38 15 22 4 32 20 16 31 22 6 1 10 10 14 14 10 7 24 17 4 35 30 9 5 1 36 5 23 10 32 37 13 15 5 30 29 2 32 2 19 30 26 30 30 9 30 16 10 32 14 3 19 30 2 29 9 35 39 9 34 4 3138 3027 4245 4160 2507 3887 3631 2649 4273 2998 3728 4196 4639 2595 3165 4403 2579 4375 3908 4876 3103 4079 4481 4062 4077 3724 2834 2871 3468 4008 3472 3809 4285 4780 4595 3017 4669 4106 2870 8 4946 3786 4455 3635 4662 2981 2571 3367 4305 3785 4798 2599 4208 3806 4085 2931 3305 4818 4914 4121 2660 3141 3022 3242 4977 3241 2929 4878 4800 4504 4080 2559 15 3154 2808 3771 3435 3007 3323 3393 2890 4904 3756 3919 4903 2512 3884 3849 4742 4741 4007 3497 2836 3120 4204 4928 4365 4578 3286 2760 4563 4617 4031 4606 4029 3240 4338 4535 19 4344 3971 4042 3327
3 23 36 39 4 28 29 28 15 6 29 32 9 26 22 16 37 33 39 10 38 10 29 33 20 34 10 23 8 6 24 17 14 1 27 34 5 11 38 10 16 5 1 31 37 0 8 31 32 36 25 32 4 33 19 31 39 30 19 35 8 27 28 36 31 38 20 37 6 34 34 32 11 23 6 5 38 36 2 34 15 38 11 39 36 13 39 33 19 24 9 23 4 20 21 37 14 1 14 13 13 37 17 17 20 23 26 38 8 36 17 39 6 3896 2501 19 3891 3854 2852 3024 4111 4391 4967 3334 3711 2747 3008 4819 3677 4229 4094 3069 2755 2650 4607 4476 3371 2643 3940 4174 3593 2740 3146 3638 3598 2781 3255 3566 4349 4859 3599 3473 3953 4920 2735 3404 4696 4190 2864 4372 4430 3641 4593 4963 4327 4666 4095 2992 3407 3616 3769 2867 4886 2670 4846 4286 4052 3574 4137 4721 4815 4078 4215 4388 3753 4405 4987 4571 4878 3475 4312 2711 2854 3893 3353 3889 3406 2631 4311 2655 3340 3210 2888 4974 2976 4028 3526 4525 2963 3359 4496 4542 3223 4454 3534 7 4305 4647 2864 4025 2557 3397 2997 3547 3229
29 37 37 35 19 24 26 24 10 15 34 15 13 8 8 37 21 30 21 14 24 24 15 3 39 28 31 15 11 29 32 30 38 34 36 22 14 38 6 18 5 25 3 26 22 12 0 28 29 1 12 39 28 33 1 35 11 6 21 34 18 32 39 24 7 29 13 23 19 39 21 16 14 28 4 16 13 17 29 2 17 38 23 27 28 2 29 35 26 38 22 19 11 27 10 20 17 22 22 24 37 34 34 11 27 18 8 39 25 25 23 2 2908 2707 4637 3791 3567 4896 2988 4231 3738 3393 3961 3342 4021 3018 2922 4056 4479 4864 4133 3867 3261 3073 4137 3407 4574 4403 4335 4817 2689 4435 2688 4191 4496 4427 3358 2735 4631 3393 3217 3864 4715 3672 3318 3218 2798 4350 3615 4159 2928 4360 3227 4370 15 4077 4376 4625 4276 4573 3257 4894 3568 4739 2562 4136 4132 4252 3030 4208 3670 4959 4674 2978 3979 4426 11 3751 4285 3067 4199 4272 3053 3701 4011 4121 2956 3375 4313 4311 3130 3607 3421 3685 4567 3865 3849 4025 3952 3167 4719 3495 2645 3731 3060 4175 4712 3351 4518 3948 4634 3152 4793 4904 3458
35 10 34 33 37 13 15 18 22 8 22 19 35 37 2 33 13 11 18 33 36 38 34 3 4 6 33 12 30 10 6 29 22 23 35 29 9 9 12 38 39 20 36 32 29 2 24 0 7 2 28 4 21 10 7 32 31 16 9 38 2 6 21 29 1 20 36 34 38 24 15 5 6 5 19 7 21 14 17 34 33 30 9 17 17 34 29 22 22 32 28 14 14 5 3 36 33 28 5 25 19 5 23 22 6 34 19 37 14 19 8 35 4786 3555 3041 4819 2837 4962 6 4504 3630 3060 4547 3008 3164 2813 3567 4707 4101 2644 4394 4717 4206 2946 3064 3999 3871 4752 3347 4237 3783 3747 2504 4607 3252 3631 3896 4985 3005 4244 4678 3175 2547 4455 4695 4063 3648 3754 3724 4331 3928 4631 4667 3877 4687 4671 3282 2646 2527 4444 4139 2741 2876 3830 3729 4262 2539 3555 4874 3867 3752 4943 4582 4191 3197 2649 4224 3838 3112 4441 4802 3602 3595 3973 4379 3102 2874 4545 2902 2760 2819 3325 2554 4217 2781 3067 4604 4107 4591 2925 3434 3453 4983 3137 4051 4665 3333 4368 4380 3033 3991 3406 2584 2818 4635
26 13 6 16 29 34 27 15 25 25 35 21 34 7 9 33 35 22 5 34 3 13 25 24 4 32 6 16 30 22 30 6 1 5 7 4 10 13 20 7 17 37 7 5 17 20 2 7 0 20 4 33 9 1 35 7 2 17 32 1 3 38 4 13 4 27 12 4 32 16 1 30 5 29 18 11 23 20 23 33 20 8 11 39 10 12 32 33 10 8 11 20 32 25 21 19 36 38 22 31 21 3 5 11 13 28 21 20 1 8 3 36 4838 3151 2691 2649 4155 3735 3138 3773 4748 3343 4251 4132 2951 2685 4106 4775 4160 2825 3850 3291 2760 3805 3283 4474 3825 2607 4213 4513 4950 2582 3472 3394 2729 4964 3413 4589 2552 3066 3174 2624 4295 2900 3966 2976 3375 2728 4502 2938 2542 2987 4687 4584 4498 4124 2676 3429 4415 3490 4072 4978 3546 3408 2634 3767 2661 4335 4915 4018 3946 4727 4627 3809 3106 3003 3475 3222 3309 3044 3112 2835 2945 2634 4688 4977 2735 4177 4034 3277 4242 3881 3341 2731 3936 4457 2822 4166 4790 3785 4231 3565 2872 3885 4711 4632 4827 3362 4053 4730 3453 3363 3488 2649 4830
32 34 3 37 38 37 17 28 18 20 10 35 27 4 24 21 7 26 37 7 4 4 22 2 38 3 22 12 12 21 23 2 12 26 31 2 35 19 17 23 9 21 24 37 22 38 16 14 15 0 17 27 24 38 38 17 1 17 22 11 9 20 7 23 18 4 36 22 33 2 11 25 2 4 39 31 30 6 23 16 22 13 22 8 19 21 24 29 24 38 7 8 17 28 20 21 7 2 24 7 8 21 10 18 32 30 38 13 25 27 5 20 2918 3938 4396 3284 3961 2631 4069 2940 3314 3617 4771 3948 4713 4393 3097 4990 4926 2793 3658 3620 4865 3307 4859 3433 3667 3790 3687 3485 4299 3887 3847 3750 4629 4485 4314 3993 3996 4664 4809 3987 3252 4161 3931 4301 4348 4595 3989 3740 4376 4284 3075 3727 3445 4345 3159 3202 3236 4260 4100 4395 2964 3558 2752 2600 3034 3469 2651 2699 4144 3180 3187 3190 4687 3833 3217 4084 4025 4470 3918 4258 3768 4867 4071 3195 4357 3027 3567 3690 4930 3106 3327 4503 2646 4403 3626 4784 4244 3103 2753 3151 3715 19 2675 4545 4001 4157 2906 4228 2873 4767 4550 2586 3044
15 23 18 3 14 32 8 36 21 14 33 32 2 32 21 9 16 29 8 37 22 31 31 10 26 1 25 11 30 37 38 6 39 17 18 17 33 29 21 27 6 33 18 30 16 31 21 34 8 37 0 4 25 22 24 27 35 24 38 13 3 13 6 11 11 29 7 4 33 31 14 30 16 18 4 16 14 10 22 37 5 17 2 1 29 16 14 38 32 35 32 39 33 14 16 30 4 6 21 9 2 11 11 12 26 30 19 30 23 36 4 1 3690 3618 3918 4487 4899 4716 3288 8 4942 3213 4808 4034 3507 4907 4385 4970 2578 4954 4229 3051 2931 3932 2643 2939 4319 2946 3982 3834 4392 4669 4849 4786 2968 4299 2981 4517 4235 2962 4754 3635 3670 3410 3678 3655 4375 3385 3641 2509 3791 2696 4323 3508 4389 4230 3015 2748 3226 2737 4295 2899 3146 4397 3589 3377 3973 2993 3764 3444 3821 2904 2610 3372 4927 4905 3065 3232 2958 3154 2816 3440 3855 3414 2624 3314 2686 3840 4387 2510 4041 3251 3267 4629 2727 4051 4287 4511 2602 4711 3354 4491 3694 4712 3370 2943 3427 4114 2793 2706 3292 4145 4980 4935 4184
11 7 34 37 36 21 28 4 3 28 36 38 18 27 23 8 15 31 26 16 29 36 20 2 18 35 9 30 1 34 12 34 17 1 2 7 3 20 14 21 22 13 26 24 10 19 25 7 36 25 29 0 1 4 28 38 35 32 16 25 18 18 33 15 17 15 5 39 18 18 15 14 23 20 18 34 33 1 22 9 19 16 9 22 38 6 36 37 7 33 23 32 1 24 26 2 15 5 8 16 27 24 30 29 3 29 22 30 10 6 15 12 2654 4588 3136 3928 2790 3225 4892 3712 3765 4690 4092 2683 3778 2587 4393 3233 2663 4453 2797 2506 4394 4738 4540 4285 3500 4757 3277 4140 4060 4596 3458 4094 4024 4939 3919 4828 4165 4636 4675 4245 4145 4697 4210 4308 2553 2732 3573 2915 4999 4930 4789 3532 3647 3967 4980 3678 4237 3865 3744 2748 3291 3208 4381 3605 4448 3782 3523 4343 4930 4234 3152 3213 4558 3094 3685 3411 4385 4955 2996 2840 3111 3220 2657 4629 3297 4190 3719 4329 3866 3597 2720 2858 4090 3269 3226 3123 4472 3351 4796 3569 4462 4458 2667 4507 3756 3818 4133 2962 3260 3537 4537 4054 4746
26 36 7 25 11 19 14 19 35 20 3 11 32 33 3 27 7 4 4 6 15 9 13 12 26 13 25 6 24 16 25 32 31 16 39 35 3 34 37 13 23 14 15 39 10 30 18 28 1 34 32 20 0 15 8 28 15 21 16 37 8 18 9 27 38 33 25 34 26 27 5 35 13 34 22 27 6 3 17 4 25 25 32 8 25 20 5 16 12 27 19 29 10 5 4 22 1 19 20 26 24 13 6 3 36 37 7 10 27 20 21 21 4038 4082 2512 3200 2859 4170 3507 4105 3548 3552 3692 4511 4438 3652 3941 4828 3245 2688 4928 4024 4912 4893 4339 3369 3013 2545 2944 4251 4205 3636 2941 3231 3172 4122 2894 3418 4209 4877 3499 2946 3643 4421 2728 2650 3696 4554 3813 4872 4528 4111 4659 3669 3481 4737 3444 4404 2514 3909 2618 3550 3383 4388 2880 3500 3703 2578 3114 3225 4280 2652 3234 4756 4230 4542 3381 4481 4059 3907 3125 4666 2599 2822 3548 4248 4854 4252 4152 2676 3623 3481 3774 3015 3963 4610 4501 3052 4913 2862 2918 4706 4467 4643 3363 4199 3402 4920 4413 3503 4921 2786 4227 4814 2647
14 17 10 13 24 19 36 12 16 30 24 37 28 30 6 7 21 25 25 3 34 12 23 9 30 35 8 18 13 27 18 13 13 19 1 19 14 25 21 2 38 19 31 31 37 34 2 27 5 11 6 10 33 0 36 7 29 33 34 5 20 1 8 16 26 18 21 7 1 34 14 12 4 24 37 13 10 7 37 3 8 1 22 36 36 16 13 35 38 26 28 15 32 26 16 19 13 21 3 25 20 30 33 12 33 11 39 5 7 32 8 18 3810 3909 3593 3767 4394 3957 2815 2774 3667 2846 3776 3215 4492 2904 3001 4619 3564 3818 4226 2872 3008 4340 3197 4158 2554 2763 4577 2948 3563 4337 3871 4412 4403 2651 4236 4647 4351 2903 2754 2745 2780 3288 4263 3190 2592 3357 3505 3418 2910 4629 4347 3824 4444 2664 3452 4887 2960 3008 4031 2580 4517 4352 4792 4809 3192 3577 4276 4105 3055 4213 4430 4598 4058 4831 4862 2571 3863 3431 4811 3155 3072 3248 4888 3877 3551 4971 3248 2523 4303 3706 3370 3620 3536 4277 3525 4903 4186 4629 4551 2588 2582 4898 2878 4360 4338 4897 2591 4425 4015 2547 3637 2768 3938
6 33 18 21 37 3 27 13 17 6 8 2 15 7 19 21 34 16 21 2 5 29 27 4 20 24 19 36 6 2 37 22 9 10 39 34 30 23 35 13 20 20 26 21 24 18 4 37 11 8 31 21 16 10 0 2 2 9 15 10 30 11 7 35 18 34 15 33 7 11 13 11 11 24 21 33 29 4 24 7 5 18 18 16 33 3 30 27 4 8 16 23 39 27 35 28 27 39 30 39 2 34 38 10 14 26 5 37 22 39 15 29 4494 2686 4656 3649 4052 3318 2551 2741 2520 4161 3651 3306 4562 3564 3720 3930 2900 3946 3186 4044 3992 3801 3356 4158 3704 3211 3084 2626 4385 4939 3709 8 3382 2517 8 3511 4603 4887 3255 3705 2739 4282 3303 4387 3636 3697 4601 2608 3944 3476 3390 9 3962 4374 3968 4689 4322 4096 2709 3286 2629 3347 4631 2782 2555 3318 4278 3030 2613 4711 3118 3029 3924 3845 4426 14 3868 3002 3036 4844 16 2625 2856 3005 3413 4438 4209 2698 3478 2504 4125 2935 2946 4531 4594 3402 3931 2680 4047 4105 4220 4151 2776 4320 4706 2541 3528 4263 3140 3957 3025 2584 2950
22 39 6 13 26 22 38 18 38 20 30 10 37 25 27 1 20 16 32 38 9 12 1 3 6 24 1 35 6 1 38 4 36 26 18 17 30 6 9 22 30 23 7 36 21 10 15 12 9 32 33 26 28 32 1 0 31 26 30 17 18 13 1 2 19 3 30 25 12 23 27 29 18 21 2 38 30 33 27 4 17 9 32 16 15 16 17 11 27 22 11 9 21 6 7 2 38 25 10 7 22 36 33 17 5 2 16 12 13 23 15 4 2954 4116 4922 3995 2505 3050 3896 4910 3173 3028 2920 3085 3361 4938 4350 4904 3006 2707 3987 3531 3960 3243 3819 3616 4642 4920 2784 3988 3224 4893 4343 3489 4611 4701 4605 3939 4380 2560 3055 2985 15 2778 3253 2742 4539 2632 4966 4726 4782 3268 3500 4517 2604 3145 4015 2947 3686 3430 4756 2753 4615 4982 4069 4945 4378 4585 2554 2649 3305 3751 3095 4796 3996 3411 4138 2705 3399 2850 3987 2569 2824 3237 2924 2545 2653 4549 3760 4566 3450 3807 4473 3025 4645 4275 3011 2731 4092 4395 4440 4322 3139 4051 3713 3535 3778 2567 4765 4809 3948 4785 3404 3864 4665
36 21 10 15 17 10 6 21 16 1 24 32 17 2 21 35 33 27 24 22 1 36 23 37 35 39 34 19 29 25 27 5 18 31 9 9 30 2 2 1 13 9 36 39 2 16 36 29 8 28 36 3 8 17 21 10 0 9 9 36 2 7 27 4 2 39 11 26 7 6 4 5 12 27 29 38 14 38 5 31 15 21 31 15 16 30 19 6 6 23 12 1 11 5 3 18 14 38 39 18 31 15 25 8 23 23 4 18 14 36 17 4 4180 3564 3442 3174 3657 4807 4098 4347 3575 3992 3674 4884 2615 2538 4419 2620 3996 17 4899 4399 2559 2607 4148 3553 4795 2983 2788 3782 2695 2978 4289 2889 2747 4085 2597 3197 4886 4961 3567 4839 2640 3508 3982 2642 3046 4273 4327 4220 2658 2641 3635 4312 4460 3305 3026 2506 3761 3014 4905 4445 4347 3339 4661 4865 4516 3950 2648 2649 2886 3123 2747 2568 3841 3687 4353 4838 4662 3720 4673 3667 4742 4699 3531 2907 4814 2972 3478 4740 4239 3130 4928 3627 2547 3781 2724 2649 4066 4402 3856 3977 2583 4833 4926 3535 4576 3844 3779 3956 3136 4710 4394 4331 4563
11 19 8 25 20 6 2 5 37 30 27 28 18 12 36 31 2 27 23 14 18 30 38 27 39 14 35 20 7 29 13 15 37 38 33 31 11 12 17 4 14 38 17 12 23 25 5 17 7 25 38 39 19 16 31 13 6 0 36 3 7 33 27 36 18 16 4 6 13 23 4 21 4 8 38 6 9 31 4 2 7 38 38 20 29 28 7 26 7 7 32 2 5 39 31 10 17 26 29 32 17 2 4 23 32 38 35 35 27 9 5 25 2806 3383 2915 3288 4365 2811 2585 4425 4351 4964 4145 4664 4453 3304 3424 3148 3607 4911 3913 4224 2679 3724 2701 2832 2574 2957 4705 4020 4476 3101 2745 2563 2937 2920 2518 4907 4375 4355 4501 3951 4179 4659 2663 2846 2898 4780 2517 3692 4217 4673 2602 3627 4376 4916 4284 2705 3225 4388 3848 3575 3911 3096 3808 3642 3114 3040 2833 4941 2643 3415 2917 2508 2708 3871 3541 3215 4522 4565 4094 4042 3300 4566 3092 4368 10 4558 4054 3242 3680 4784 3195 3022 4969 3034 4822 3736 4412 3396 3033 3693 3983 3470 4015 3054 2632 4932 3075 3847 4517 4847 4836 2606 3500
23 25 19 38 27 15 4 19 13 6 22 32 13 15 32 13 6 36 3 12 28 30 7 13 11 23 9 21 21 17 22 26 4 9 12 31 6 32 22 10 15 34 25 33 38 17 32 28 14 13 29 18 11 33 31 34 37 39 0 13 27 10 38 38 12 30 20 7 31 8 33 38 8 18 35 1 26 10 9 22 30 32 8 11 4 38 32 24 3 16 39 38 35 29 3 39 1 29 13 5 17 2 21 36 28 37 39 24 22 6 6 29 4134 4920 3174 2588 3209 3854 2951 3486 4218 3514 4696 3042 4909 4942 4204 2885 2538 2793 3433 4657 4265 2829 3299 3564 4507 3507 3813 4151 4250 2697 2777 3756 3630 2904 4437 4927 3051 4214 4280 4803 4378 4946 4170 2618 4370 4414 4883 2653 4417 3276 4421 3029 4481 4804 3539 3510 4686 3810 4168 3005 4541 2578 3243 3342 3281 2864 3558 4842 3817 3504 2910 12 4224 2591 3183 4223 4602 3332 3959 3234 3201 2929 4037 4537 3216 3187 3955 3901 3190 4597 4508 3615 2698 10 4911 3692 4568 3792 3488 4314 3802 4249 3981 3756 3188 4575 2731 4354 4970 3498 2987 2916 3614
13 14 14 17 16 19 25 25 2 23 1 21 28 31 8 19 29 3 25 28 2 7 30 26 11 22 8 31 33 4 2 31 33 18 25 21 38 14 19 39 15 24 30 18 32 32 17 13 16 32 30 1 31 38 10 23 25 7 32 0 34 19 22 17 13 1 1 2 39 32 38 20 35 28 21 15 37 18 39 27 24 12 7 3 12 3 18 2 35 28 36 38 13 19 32 16 5 5 21 28 16 13 8 36 16 28 9 26 21 6 31 32 4544 3892 3610 4555 3687 2503 3654 3477 4064 3956 3464 3165 3373 4041 4655 4340 4336 4484 3615 3937 3343 3222 2731 3454 3743 12 4586 4119 4887 4716 3991 3761 3237 3026 4870 3862 4539 2645 3957 4721 4002 4160 4544 3064 4305 4249 2831 3873 3354 4967 4184 3929 3949 4638 2566 3363 2903 2730 4898 3589 3236 3344 2974 2591 12 4963 2718 3110 3784 2518 4964 3841 4625 3537 4542 3628 4367 4020 4971 3313 4946 4229 4660 3436 3234 4773 4423 4708 2822 2712 4658 3287 4091 4086 4833 2893 4088 2783 3222 4646 4390 4466 2999 3413 4644 2813 3366 3915 3644 4628 2584 3439 3469
27 23 28 3 32 19 20 38 15 35 1 15 35 21 32 10 17 3 5 28 26 30 20 6 7 35 9 17 38 8 26 19 31 17 12 15 26 22 16 11 7 29 34 31 19 8 12 17 31 6 5 32 5 34 1 3 10 4 25 36 0 20 22 15 20 22 36 24 18 23 36 25 25 25 34 2 25 17 24 34 32 29 2 39 22 3 32 15 28 7 12 37 31 17 29 34 4 36 21 9 30 6 6 32 14 5 24 23 5 7 22 5 2602 3403 4979 3079 4413 4448 4758 2585 4238 2768 3383 2961 2825 4598 3926 3073 3534 3709 4754 2526 4312 3498 4379 3017 4445 4123 4845 4182 3782 2688 4426 2702 4688 3383 3095 4416 2875 3017 4343 3971 4875 4248 4046 3198 4283 4089 2698 3683 3670 4518 3454 2759 4598 2918 3345 3661 3436 3789 3618 3081 3117 4206 3978 4587 4686 3155 2753 2808 4502 4930 2606 2996 4924 3183 2948 3468 4803 3889 4211 4471 4119 3658 3797 4579 3652 3374 4820 4862 3772 3509 3352 4084 4339 4864 3259 4048 4912 2709 2726 3122 4784 3187 4865 2599 3744 4923 3109 3813 4751 4677 2929 3744 4519
14 38 15 17 36 19 3 11 9 30 39 21 6 18 30 1 15 20 30 11 2 10 19 18 37 24 4 25 11 39 24 24 17 14 2 7 27 15 20 6 39 21 11 25 29 4 6 21 36 35 30 31 33 20 32 14 26 1 1 3 2 0 21 30 25 32 14 34 35 27 6 23 28 14 28 2 11 24 38 2 28 26 25 13 6 19 38 2 33 7 22 21 30 19 5 35 24 9 1 23 34 20 37 33 24 9 7 30 27 20 26 21 3135 4223 4950 4438 2824 3360 2657 4353 3813 4028 3769 4410 3426 3888 4265 3694 4144 2766 2650 3711 3922 2807 3622 2815 4772 3558 4962 2683 2636 4660 4635 2559 4336 3853 2847 3403 3995 3106 4810 4096 3540 3867 4739 4249 2676 2848 4301 4583 3156 3050 4678 4967 4475 3836 4715 2934 3608 3483 4701 4491 3682 3580 4976 3203 4812 3073 4030 2915 3495 4882 4256 3582 3315 4451 4494 4368 4848 3568 3118 4248 3553 4128 4473 4994 4970 3532 4608 4544 3443 4140 3241 3534 3316 4715 3692 3597 4787 4104 2521 3921 3412 3874 3425 4594 3310 2998 2757 4820 3014 2593 18 3521 4395
6 5 24 16 18 1 8 24 1 23 19 8 35 35 36 33 10 18 5 34 39 36 33 8 36 11 18 37 14 20 13 7 24 32 12 9 7 2 19 30 32 14 31 24 25 25 34 26 29 9 38 21 37 5 39 7 19 2 39 38 9 36 0 26 19 15 39 25 28 37 22 7 31 37 16 4 3 27 5 11 36 6 24 5 16 6 13 6 34 36 2 38 10 25 7 20 19 9 37 3 29 4 6 12 16 39 29 23 3 17 7 36 4539 2574 2739 2568 4242 4349 3203 2642 3529 4239 2871 3964 4399 4949 4429 4521 2709 4119 17 4447 3269 3412 4645 2836 2745 4403 3999 4613 3321 4648 4988 3916 4315 2731 4481 3288 4842 4236 3991 3712 4112 4148 3326 3928 4238 3753 4365 3853 3450 4280 4768 4937 4247 3356 4124 2726 2559 4847 4967 3113 4898 3282 4376 3587 4867 4021 4539 2669 4529 2704 2956 4343 4880 3822 3549 4776 4762 4964 4112 4066 2528 4115 2581 4660 4276 4487 2960 4655 2764 2670 3972 3177 3847 3632 2726 4288 3096 3170 3992 3195 4300 3811 4795 4875 4247 2760 3203 2701 4252 3077 3313 3696 4067
19 24 39 10 19 29 17 8 34 24 15 33 18 9 38 12 31 37 36 34 18 38 7 25 18 34 33 1 16 24 3 18 2 15 1 1 15 39 37 23 8 15 32 37 19 20 3 32 4 37 38 28 8 16 36 34 27 11 26 15 9 2 18 0 14 35 17 19 7 8 27 29 8 29 38 31 6 18 32 34 8 13 11 22 38 3 3 26 26 11 25 29 38 34 37 10 10 7 22 39 26 16 9 22 34 38 19 6 8 6 2 19 2940 2701 2984 3553 3653 4208 2632 3965 4786 4055 4889 3320 4929 3697 3758 3249 4667 3085 4926 4874 4822 3504 4140 4223 3512 4255 4381 4942 2783 3302 3657 4896 3488 4073 4762 2593 3459 2879 3590 3007 2800 4941 4034 4097 4613 4483 3774 4537 4954 2642 2820 3238 3803 2822 3220 4698 2517 4529 4569 2509 4501 2600 3627 4158 2641 2504 4501 4990 3902 2693 4526 2597 4796 3091 3518 4351 3927 3715 2841 4012 4912 2853 2688 4053 4854 2526 2794 4382 3909 4822 3970 2673 3891 4962 3919 3469 3361 2923 4168 3019 2839 3853 3830 3961 3069 3116 4651 3749 3198 3370 4815 4441 4496
12 2 34 12 12 39 30 17 7 19 33 25 13 7 18 11 9 23 15 35 35 29 37 5 3 29 20 7 29 6 16 32 33 8 21 19 28 22 27 32 11 9 8 30 2 27 28 38 5 29 3 23 33 12 39 33 39 6 31 5 4 29 16 34 0 24 1 21 7 25 31 12 3 19 16 36 29 17 10 32 37 12 20 9 31 32 35 14 3 39 6 18 23 34 25 18 2 2 13 9 23 2 19 7 4 22 23 18 29 5 6 31 4952 4077 3600 2706 3452 3367 4117 4344 2910 3257 3013 3132 3121 3930 3429 4249 2569 4704 4016 3056 4083 2589 4159 4249 2548 4805 4399 2587 4822 3932 4568 3675 3964 3433 4883 2519 3735 3347 3067 4301 4220 2643 4330 4983 3463 4479 4891 2768 3890 2996 3581 4235 4797 3465 4078 4210 3980 4063 4638 4955 2608 4652 4790 4774 4911 4109 2691 4141 4700 2794 4087 4996 3847 3426 3583 4383 3896 2516 2821 3891 3470 3538 3729 4566 3490 4155 4814 4072 2948 4859 3850 4130 4293 3962 2642 3771 3496 4832 3850 3157 2629 4334 3284 3349 3504 3308 3084 3430 4181 4037 3644 2831 4594
11 27 4 31 36 12 19 32 17 6 28 28 5 1 21 13 38 4 30 29 28 25 13 18 15 39 32 34 20 24 5 35 37 9 12 29 32 11 29 14 39 19 26 21 33 31 20 33 6 18 23 28 21 33 28 34 22 31 12 7 13 19 26 37 32 0 8 24 25 3 34 6 24 34 24 15 10 34 21 29 28 11 38 2 38 38 36 1 5 30 14 33 17 25 37 3 2 26 13 26 27 6 13 8 17 8 16 38 8 15 23 23 18 4945 3584 3541 3848 3846 2994 2784 4620 2911 4327 4302 4032 3865 4436 4398 4646 4902 4959 4140 3587 3485 3384 2657 4319 2883 2761 4601 2594 2547 2795 2828 2961 3176 4260 3152 3135 4684 3579 2707 2725 4333 3521 4997 4575 4008 4999 3214 4312 4683 3029 2532 4086 4579 3767 3062 3058 3926 3519 4163 3814 2978 4267 3125 3029 4927 4886 4399 2814 4403 3186 4050 4998 4111 4685 2920 3844 3089 4665 3993 4705 3183 4545 2729 4790 4456 4982 4925 2824 3151 3277 4416 4859 2728 4530 2945 3692 3653 4798 4687 3454 3291 2577 4518 3534 3912 4715 4488 3690 4251 2600 3078 4291
5 21 20 18 10 6 8 35 32 22 34 32 15 27 8 38 28 24 5 17 12 35 12 15 7 16 24 38 34 26 35 28 33 6 4 28 26 6 4 24 2 22 6 16 7 5 3 16 3 6 31 34 24 37 19 9 7 11 8 32 1 23 17 23 13 1 0 1 24 22 4 37 15 20 35 2 9 8 28 37 23 32 1 9 11 30 20 11 23 3 17 34 13 26 27 21 39 24 39 10 21 14 15 32 22 30 12 30 8 24 30 23 3222 4116 4650 3133 2738 2752 4620 3867 3869 4767 4859 2793 4444 4568 3853 3245 3406 4768 3595 4860 4189 2771 2906 4594 4579 4214 3634 2630 3167 4511 3852 4227 3491 2961 4570 3476 4468 3997 3577 3090 4726 3127 2556 4812 4890 2943 2604 3351 3003 4839 3963 9 3450 2732 4719 4737 3026 4690 2719 2669 3181 3058 3105 4430 3573 4827 4080 2509 3388 4540 3222 3220 4577 4473 4816 4894 4803 4434 2768 3490 4340 4528 2616 3144 3447 3422 2667 3540 4168 3190 2794 4039 3349 3441 4867 3115 3969 2987 3899 2560 3076 3645 3004 3234 2865 2839 3378 3281 3416 2702 2974 3094 3295
14 27 1 25 38 16 29 14 11 18 35 10 28 19 12 34 20 34 29 25 19 11 9 26 33 32 24 20 23 14 5 24 32 2 37 14 5 20 23 39 37 33 15 23 4 32 26 20 4 10 39 15 29 20 19 37 31 20 13 7 32 25 12 35 32 10 1 0 18 9 9 2 27 26 32 30 2 33 3 19 29 12 4 3 5 21 1 1 12 21 22 33 35 7 33 19 13 28 37 20 12 11 25 19 14 28 39 32 20 19 6 28 2698 11 2500 3085 4462 2670 4368 3931 3780 3808 2943 2858 3073 3750 2667 3451 4839 2883 3449 2722 3608 4945 4085 4290 4209 2957 4467 3920 4289 3163 2927 4835 4107 2760 3085 3703 4891 3812 4797 4179 4904 4251 3316 3944 3233 3313 3121 2640 4786 3506 3267 3615 4483 2523 3340 3908 4159 3711 4749 3119 4941 2683 2976 3454 3763 4349 2627 2991 4547 3557 4143 2908 2838 2760 4136 3494 4033 4301 3882 3806 4806 3647 3664 3701 3311 4764 3474 3002 2987 4106 3060 3183 4571 3724 3841 4428 3058 3913 3620 3061 3310 4802 4169 2685 3962 4504 3319 4509 3149 3254 4638 4890 4741
27 8 16 3 27 17 37 1 34 9 9 39 33 15 1 28 9 32 5 23 9 24 28 2 10 13 3 27 3 10 34 30 3 17 39 13 35 25 31 38 37 23 33 31 18 30 6 28 2 31 27 3 31 31 34 1 4 30 26 10 8 13 22 29 25 34 27 33 0 22 21 21 26 11 27 11 17 18 36 6 31 38 3 7 13 28 7 18 7 30 30 1 21 6 3 21 29 26 30 35 21 8 6 31 2 10 9 26 33 8 29 20 4937 4491 2547 2777 3450 3943 2699 3852 2656 4780 3580 3481 3281 3690 4391 3209 2883 3601 3091 3497 2958 3881 3747 4368 3481 3472 3482 4482 4819 3410 4802 2659 3463 3570 3001 4745 4923 4372 18 4298 4875 2629 3138 4035 4227 2595 3271 2838 3878 4670 3557 3553 3280 3142 4459 4933 3758 3569 4646 2767 4019 4590 3459 3045 3327 4402 2597 4357 3988 2864 4579 4020 4484 4649 3453 3753 3988 3949 3167 4013 4987 4085 3476 4531 4670 3645 4239 4347 4724 4442 4892 4750 4195 4335 4056 4929 3268 3611 4623 2857 3277 3889 4125 4302 4480 3369 3012 3907 4814 2587 2530 2796 3136
22 1 11 6 11 9 25 11 7 38 35 31 16 17 16 3 32 28 14 37 20 21 4 34 7 32 20 23 39 3 23 31 2 30 22 3 1 27 35 28 10 32 24 17 26 18 31 17 34 4 32 18 21 3 16 34 39 31 34 19 34 2 30 21 28 31 15 15 32 0 19 15 10 24 12 28 36 24 27 39 27 34 32 39 2 11 12 16 31 4 7 8 16 13 9 34 9 13 1 4 8 14 24 32 26 11 7 26 8 18 21 11 2991 2759 2633 4166 9 3272 2940 4268 3504 4984 3983 3054 2955 2592 2655 3372 4721 4184 3838 3895 4653 4056 4836 4443 2802 3609 4034 4253 3600 3566 4456 2944 2601 2588 2806 3852 3348 3203 4468 4010 4237 4392 3558 3354 4831 2656 4037 4117 2505 2647 4406 2554 3607 3022 2572 3299 2876 2553 4646 4026 4889 3831 2679 4953 4388 4877 2718 3182 4976 4780 3881 4458 2610 2779 2598 3631 3265 4877 4059 3810 3529 3303 4534 3566 4610 3599 4405 4639 3965 3265 4111 2639 3972 3876 3315 4200 4909 3989 3346 3533 4353 2842 3853 4887 2918 3038 2842 4733 4452 2833 4238 4806 3657
6 26 32 5 39 29 6 4 12 26 32 36 33 28 21 3 18 7 37 13 11 2 27 9 13 22 20 16 25 16 24 2 31 19 39 39 13 18 21 14 3 23 1 7 37 15 16 13 18 37 26 13 21 25 15 9 6 19 10 23 15 35 18 20 39 1 15 27 17 13 0 37 10 25 30 18 5 34 29 29 9 8 13 13 14 5 8 7 10 31 4 19 4 38 29 32 2 18 34 4 38 13 25 29 34 15 37 36 6 1 4 33 4432 2646 3740 4283 4240 4639 4808 4883 3857 4973 4050 3436 2628 4545 2942 3288 2524 2531 2614 4627 3522 4040 2629 4054 3809 4783 2878 4965 4988 4544 4103 3730 3675 2564 3117 4190 4168 2533 3878 4381 2590 4469 3760 3559 3622 4041 3397 4432 3669 4232 4295 4481 4038 4393 2702 3560 2794 4907 2690 4320 4894 4264 3051 4100 3629 3907 4352 3628 4083 4023 4785 3871 4875 4666 4835 4951 3704 3597 3326 9 3096 4316 3440 4600 3032 2846 3708 3965 3016 4727 3643 4214 3167 4029 17 2927 2533 4095 3516 3546 4250 3325 4930 3730 3733 2853 3201 2695 3242 2762 2882 2589 4550
1 23 33 30 16 7 16 29 24 29 22 1 13 32 33 16 32 17 35 24 8 28 21 30 10 38 33 35 19 37 16 37 25 26 5 28 32 31 15 36 27 20 11 2 25 4 6 19 37 30 5 17 26 12 19 19 1 22 38 20 35 30 11 38 10 13 32 1 9 18 7 0 22 32 15 27 30 39 28 14 21 14 25 5 32 35 34 12 37 33 20 15 6 4 14 13 18 34 2 13 10 8 15 20 34 35 25 34 12 17 18 24 4752 4085 4829 4005 3544 4011 3568 2895 2686 4200 2998 4976 2926 4797 2506 4413 4768 3617 2954 3095 2643 4094 2746 3548 4713 2674 2750 3251 2835 3753 3573 4746 4581 3889 4346 2915 3393 4871 4535 4782 4136 4133 3365 3299 17 2895 4867 4427 4638 4178 3719 4806 4975 3180 3902 3590 3988 3736 3992 2753 4196 3773 4420 2736 4899 4627 3514 2880 4006 4228 4535 3465 3951 3402 2520 4370 4829 4998 2872 4525 3425 4864 3839 4180 4878 4267 3394 3184 4333 3087 3059 3608 4188 3075 2835 4405 2790 3038 4706 19 3028 3318 4267 2705 4094 3128 4539 3157 4023 3605 4117 4317 3172
12 27 11 33 25 2 23 28 10 3 24 29 22 7 20 37 38 9 27 12 6 16 19 29 19 3 33 20 4 18 24 34 22 34 10 29 32 37 30 6 7 1 10 24 11 3 9 4 31 3 32 5 15 6 39 12 33 3 2 12 3 2 16 34 5 29 5 4 2 14 17 31 0 5 10 14 4 7 33 8 25 32 25 10 24 5 32 11 23 10 24 8 39 22 22 31 28 21 11 32 9 18 23 3 35 39 17 27 31 36 25 25 2521 4919 4040 4921 2814 3845 4034 4758 3906 4232 4162 4813 4616 3094 4758 3767 4048 4419 2621 3117 4501 3106 3512 4087 3539 2863 2566 4629 2665 4146 4515 3444 3236 2835 3587 3674 2606 3918 4596 2782 4919 4297 3044 2560 4669 3267 2842 4930 3946 3916 3211 2653 4832 4830 3662 2910 4258 2650 3610 3279 3356 3070 4799 4738 3819 4742 2729 3615 2622 4329 3624 4576 4317 3304 3041 4476 4288 4388 2642 2678 3866 4607 4921 3623 4094 2963 2511 3301 3771 4580 4127 3602 2879 4646 3084 3200 3387 4706 2903 3350 4988 3288 4362 3771 3123 4426 3144 3790 4671 4230 4950 3048 4884
21 35 16 9 21 18 18 21 12 6 39 21 11 11 21 3 10 17 4 11 34 8 21 21 23 3 13 38 28 20 10 4 25 37 16 22 36 11 8 24 23 23 26 28 31 26 17 37 33 3 16 30 37 23 32 34 25 8 21 11 25 9 24 17 35 19 12 4 23 12 25 23 7 0 8 17 31 37 25 32 5 19 11 2 19 1 21 18 14 9 22 28 31 7 17 16 18 10 11 21 3 6 22 35 34 35 27 21 10 37 38 37 2556 3833 3280 4754 4149 4674 3356 2801 3408 3740 3516 4883 4055 3871 4213 3780 3812 4070 4381 3041 2810 4636 3258 4818 4147 2894 4706 4862 4946 2766 2904 4190 3732 3255 3805 3490 2711 3890 4107 3626 3019 3004 3405 4077 4154 2872 4044 3351 3372 3555 3386 3117 2722 4898 3110 4647 3486 3112 2645 2951 3305 3753 3185 3276 2991 4734 3140 3154 2750 4828 4649 4658 3008 17 2978 4435 2962 4163 3192 4423 2761 4718 3578 3097 18 3364 4385 4502 3494 4149 3549 4471 4184 4882 3596 3759 4442 3922 3186 4294 4853 4985 3937 3123 3553 3114 4116 4755 3057 2732 3977 3289 2538
22 14 29 14 22 38 32 24 17 34 3 15 9 9 29 1 39 32 14 37 14 36 18 33 5 3 33 12 32 35 5 10 25 15 35 12 34 6 32 16 6 2 39 33 38 35 10 39 4 15 1 35 33 8 24 4 21 31 8 32 19 23 33 9 35 36 31 27 34 22 29 27 39 28 0 10 4 24 33 10 12 11 4 21 2 25 33 9 33 32 31 29 33 5 16 1 1 38 39 33 18 18 15 11 33 20 12 26 35 21 33 5 4680 3045 3494 2928 4920 2617 4691 4140 3972 4915 3875 4196 4168 3032 2801 4871 2788 3561 4881 4316 2779 4874 3267 2916 3939 3019 3517 3300 3993 4344 2848 4031 3739 2880 3534 2928 2951 4623 4470 4729 3250 4327 3837 2905 3713 3097 4454 3744 2987 3500 2949 3954 3601 4413 3756 3543 2543 3269 4453 3638 4436 3294 4941 4405 3077 3494 4185 2930 2924 3178 4063 3976 4116 3255 4428 3084 3713 2905 4078 4779 3005 2561 4669 4347 4238 4759 2896 2509 3222 4791 4515 4904 3369 4757 4588 4358 3753 4198 3941 4735 2535 2645 3441 4146 3266 2818 4888 2983 3406 2981 4752 3388 2994
23 17 17 39 17 25 23 6 25 4 5 7 36 7 15 32 14 28 25 33 18 7 8 31 10 38 2 8 1 32 10 7 31 29 30 20 29 30 32 37 39 2 34 21 5 14 15 23 34 14 32 11 31 1 21 21 34 32 4 15 27 37 25 19 29 14 22 32 6 9 38 12 25 39 13 0 23 1 9 1 39 11 29 23 24 34 21 18 15 26 19 23 8 11 11 17 1 33 24 30 1 27 36 1 18 38 9 8 3 19 11 35 4464 3326 4241 4349 2518 4253 3467 3605 4800 4143 4677 3352 9 3556 4190 4310 3440 3133 4570 4628 3020 3566 3357 4027 2736 3609 4204 3556 3125 4745 4076 3560 2863 4172 4273 4815 3171 4634 2718 4114 2703 4627 3796 3549 4601 3720 3748 4695 2671 3348 3885 2889 2533 4650 4246 4637 4128 2793 2867 3408 3952 3588 4101 3399 3445 3274 3432 3628 2790 2655 3635 3225 3522 2810 8 3879 3525 4968 4707 4007 4075 4074 4441 3709 4252 2852 2926 2752 3246 4930 3348 4494 4721 2972 4561 2987 2883 3086 4724 3384 2953 3639 3309 3977 2587 15 4341 4586 3132 2867 3961 3326 3670
23 31 10 7 16 24 11 31 11 16 26 29 20 35 23 7 1 4 4 9 10 1 29 37 26 17 3 28 32 16 30 20 23 2 9 13 21 32 31 8 28 5 8 11 33 32 22 10 14 13 22 2 22 34 30 21 23 33 28 11 30 14 1 38 37 37 6 7 28 26 38 21 22 4 26 7 0 27 19 28 31 21 11 11 32 28 36 24 25 28 24 23 8 36 24 35 23 7 19 3 38 14 10 6 35 39 16 20 39 15 26 12 3709 4940 2673 2971 3341 3714 2624 4661 3915 3257 2963 3949 4131 4305 4655 3562 3193 3391 4288 3337 2719 3964 4341 3874 3222 2827 2918 3407 4704 3909 3973 2765 3491 4683 3867 3434 3554 4702 3694 2945 4860 3149 4294 3989 2912 4324 2743 3069 4622 2910 4347 3938 5 4577 4146 3722 3631 3367 2662 3650 3842 4036 4973 3841 4150 3987 3155 4195 2903 2843 3521 4672 4391 2890 2768 3188 3982 4581 2996 4214 4562 4075 2788 2521 4473 4813 3325 3777 4831 4779 4112 4360 3361 2651 3123 3196 2824 4540 4091 3668 2829 3512 4401 4344 4955 3229 2789 4808 3916 4777 4594 2883 4348
28 39 25 34 20 38 38 15 10 27 22 37 29 26 6 18 28 27 5 29 10 32 21 9 21 19 18 21 36 11 30 10 5 1 31 16 13 21 31 33 5 25 12 11 16 38 26 15 23 5 2 32 17 32 13 23 5 39 1 21 15 22 24 14 12 4 18 11 13 34 2 27 16 39 7 6 25 0 39 21 20 30 32 35 6 22 36 9 1 4 28 26 14 24 12 27 31 15 28 11 12 16 5 22 24 12 4 28 39 32 2 32 3735 3942 3939 4403 3549 4557 4673 4540 4916 2702 7 4448 4122 4204 2560 3083 2581 3856 2500 4645 2587 3989 19 3532 3375 4309 4686 3113 4122 4872 3535 4094 4750 4054 3600 3122 3203 3623 3041 4473 3305 4504 3878 2816 4735 4554 2825 3470 3360 2991 3193 2658 4356 3728 4474 2691 3655 4388 3989 2925 3275 3256 3894 4659 4109 3183 3485 4545 4963 4255 4459 4053 2761 3512 3472 4319 3579 4619 4507 2610 3855 3686 3501 3032 2640 3170 4666 4933 4068 3339 3510 3650 4358 3457 4743 4338 4534 3318 3681 4986 3982 4201 3733 3794 3774 2854 4403 4995 4642 2699 4975 3670 3513
9 35 28 17 36 17 8 33 31 27 13 12 2 25 4 24 22 32 32 7 38 26 32 20 24 5 6 17 12 39 20 34 20 3 20 39 30 25 19 13 19 1 39 35 8 24 14 15 5 28 34 23 9 34 3 14 2 28 12 1 7 1 30 18 13 16 3 34 38 14 3 13 4 19 2 23 5 24 0 14 32 13 7 11 32 30 38 33 16 39 29 1 37 37 36 34 6 35 17 19 12 6 21 37 32 22 26 13 32 11 9 30 3008 4184 3121 4701 4757 3233 3872 2782 3365 4949 4353 3259 2548 3999 3106 4030 2679 3132 3401 4104 2609 3438 4933 3961 3505 3897 4036 3953 4503 3997 3948 3639 4241 3902 4117 3487 3636 4000 3407 4801 3300 3099 3383 3147 3153 4768 2906 3428 4100 4027 3217 4129 3884 4320 2525 4253 3795 3143 4594 3966 3304 3743 3677 4727 3340 3981 4410 3590 4762 2888 18 4694 3662 2761 4040 4003 4024 2919 3835 3145 4628 3872 3695 2561 2546 4681 4775 3880 4640 3489 4584 4973 3613 4640 4833 4716 3654 3530 4438 3989 2656 4364 3625 3426 4996 4140 2975 3209 4855 4502 2922 3762 4591
2 27 5 33 22 22 15 27 10 16 7 29 12 35 24 28 25 13 34 13 35 19 15 30 33 16 37 32 2 25 35 10 31 35 6 21 37 21 12 20 15 12 12 16 15 4 10 16 13 3 4 18 11 4 4 6 19 28 28 30 8 5 36 1 25 31 20 7 23 35 37 16 18 6 16 17 12 18 31 0 14 22 28 32 14 32 2 36 34 25 16 29 18 38 28 3 30 26 34 22 4 35 25 4 1 34 1 38 16 39 11 35 3217 4529 3851 3352 3747 3348 3777 3055 3679 2619 3699 4699 4002 3523 3108 4523 3639 8 2995 2818 2878 2801 4811 3667 4657 3408 4932 4614 3157 3148 4059 3592 4338 2558 2578 2779 4794 3124 2974 2613 3673 4582 4239 3831 3066 4604 3716 2807 4526 4519 4912 4125 4469 3360 3908 4212 4781 3133 4370 3614 2714 4611 4714 3734 2936 2615 3601 2968 3285 3873 3882 3622 3259 4012 2722 3209 3921 2617 2921 4394 2511 4161 2660 2985 3254 4127 4708 4639 2636 4903 3158 3136 4161 2913 3415 3492 3259 4796 4236 2773 3732 3518 3682 3402 2798 4457 4338 4016 3984 3719 2781 3126 2504
18 28 38 31 35 6 24 3 17 39 31 32 37 10 10 2 2 16 39 6 10 19 23 7 31 9 20 36 29 31 34 9 35 22 24 27 25 8 19 37 29 20 12 37 5 25 30 10 29 24 30 37 23 37 6 20 9 25 22 14 17 25 24 31 26 23 18 18 3 7 13 35 37 14 38 4 33 4 1 35 0 4 32 26 23 36 22 23 10 39 24 35 8 15 37 24 37 17 4 10 1 22 23 8 12 34 36 20 7 25 31 13 3022 3572 4790 3648 4822 3258 4328 2733 4258 3103 2711 3367 4720 4775 4095 3324 2749 4160 3024 3064 2918 4140 3198 3484 2602 3596 2634 3112 4652 4660 4570 8 3254 2650 3989 3666 3489 4643 4651 3121 4615 4459 3712 3939 4683 3404 4680 4403 3545 3435 4080 2698 3681 3983 4927 3560 4007 3570 4305 3367 4775 4526 3278 3922 4305 4020 4091 4319 3302 3894 3167 3687 3620 3953 3062 4103 3245 4929 4040 4282 4052 4494 2913 3801 3004 4286 4704 3998 3742 4585 3822 2586 3709 3381 3684 2545 4687 4881 4917 3371 3366 2941 3646 2505 4756 2573 4901 3890 3705 3475 4411 2534 4779
7 39 9 27 23 14 17 16 30 9 1 39 37 6 12 11 36 31 24 34 20 20 3 5 1 12 15 26 31 22 18 10 19 25 25 17 1 16 7 27 20 10 30 30 8 38 32 21 34 36 37 15 14 26 33 31 39 24 3 38 7 20 36 3 18 12 5 2 9 31 2 36 12 35 33 3 28 2 9 26 32 0 2 18 5 13 9 23 30 2 38 29 21 31 32 24 16 25 37 27 10 22 14 31 18 14 1 29 16 10 35 9 4438 4779 3676 2611 3635 2586 3966 4548 3747 2676 3893 3855 2945 3009 2752 4545 3953 4780 3948 4575 4559 3230 3238 4536 4456 4906 3482 2811 2806 2950 4503 3371 2783 3323 3221 3392 3505 4161 2950 4520 3572 4213 4071 3384 3117 3972 3500 4751 3306 3504 3861 3887 3577 4670 2981 3402 3706 3313 4318 4100 2815 4075 3645 4425 3444 3274 3173 2692 3235 3038 2562 4758 3158 3067 4323 3557 2800 4889 2700 3654 4760 4891 2696 3744 2717 4463 2536 3520 4346 2786 3314 4731 2777 4507 2583 3501 4389 2830 4528 4592 2577 4952 3015 4930 3599 3999 4642 2909 2674 2963 4713 2897 2786
12 4 14 28 7 20 27 26 32 12 9 10 7 21 24 11 24 26 6 5 3 28 15 25 10 33 23 39 17 12 1 22 17 15 24 25 12 18 30 6 25 17 36 36 35 15 19 8 12 37 10 6 2 15 21 18 9 17 12 31 14 14 33 10 39 3 8 3 35 16 35 18 35 21 21 34 28 18 19 30 10 33 0 11 5 22 11 7 22 27 22 13 38 8 32 22 8 25 16 16 3 13 21 33 34 11 23 34 13 15 9 17 2719 2659 3046 4016 4783 2731 3649 3727 4505 4298 2619 3936 3130 3772 4902 4859 2796 2618 2802 4838 4642 4297 2763 3165 2672 4175 4476 4861 4214 3215 3864 3770 4674 2821 3684 3281 3321 4058 3014 4189 3250 4231 4769 4216 2812 4754 4599 3819 2733 2725 3596 3374 4669 3082 3825 4589 2849 2532 4511 4511 9 3946 3520 4784 3108 4427 3563 2924 3570 3313 3444 4867 4892 4682 4620 4483 4866 3463 3660 2990 4018 4555 4048 3426 3552 4233 4273 3437 4361 4531 4100 3001 3324 3606 3490 2868 2766 3863 4092 3122 4183 3929 3212 4766 3949 3741 3489 4990 2866 4822 3612 3102 3611
15 36 15 10 5 37 39 12 23 6 17 14 24 19 26 12 16 5 9 14 30 4 34 13 15 33 11 14 31 18 1 2 20 29 29 39 39 14 36 6 5 6 38 16 38 10 2 17 18 5 20 35 8 18 10 39 14 15 5 26 3 23 10 2 4 8 23 24 12 19 27 3 21 18 11 13 33 3 34 10 28 15 34 0 10 12 10 29 38 27 5 34 33 13 8 25 15 19 14 31 36 34 38 5 12 28 35 14 33 3 33 38 4368 4165 3465 3211 2951 2897 4510 4496 3842 3704 3606 4857 4137 4968 3619 3512 3547 4703 4953 3361 4624 4514 4327 4738 19 4814 4125 4386 4695 3593 4599 4204 4880 3063 4897 4113 4191 2538 4755 4685 3343 4651 3947 3513 3087 4163 3955 2818 2583 3584 4859 4681 15 3624 2944 4860 3115 3638 3989 2730 4101 3199 4354 4535 3840 3358 4928 4940 4535 2740 4238 4569 3532 3413 2876 3218 4183 3958 3691 3319 4882 3694 2779 3934 4730 3561 4841 4438 4793 4475 3085 2548 3570 2557 4687 3100 3960 3573 4107 4101 4030 2526 4425 3768 3192 2758 3467 3359 3051 3827 3734 3694 4418
29 18 25 39 34 21 28 29 25 15 8 21 19 25 37 39 14 25 3 23 6 10 39 22 18 2 9 20 37 11 26 2 3 32 36 4 2 12 39 13 27 36 15 28 31 27 22 29 31 25 9 37 22 28 24 36 33 21 23 35 12 30 20 34 37 34 21 11 24 34 32 23 6 17 24 4 14 26 18 25 20 6 22 3 0 4 28 3 36 35 2 34 20 16 35 30 37 32 31 10 3 16 31 20 18 9 31 12 2 34 5 19 4605 4718 4876 4896 3973 4951 4344 4044 4766 3224 3338 3313 3785 3399 4796 3774 4548 4191 3607 3028 4104 4851 3813 4536 4777 3810 3446 2633 2592 3773 4083 2713 4685 4315 4973 4011 3237 3019 4905 3738 4092 3096 2890 4622 4069 4240 3902 2659 3692 4659 3843 3101 4034 4411 3953 2737 2878 4558 4805 4174 3414 2946 4031 4958 2619 3894 4231 3479 2739 3027 3729 4525 2967 4964 2777 3961 9 2671 3841 4115 4932 4918 4913 4514 4606 2662 2875 3602 2958 4850 2704 2698 2508 4085 2668 4529 4743 4231 3733 2924 3594 4082 4178 4143 3306 4704 3983 4153 4662 4011 4480 4560 2856
21 3 22 5 21 3 9 7 23 35 18 15 19 21 1 9 14 11 36 27 10 3 21 9 6 33 16 5 12 4 33 13 16 8 28 23 17 10 1 15 4 25 6 26 1 3 25 5 8 6 38 26 14 16 5 4 33 38 31 23 17 18 18 4 20 38 28 31 28 9 33 28 38 31 33 6 32 18 26 1 32 2 25 6 15 0 1 30 9 15 14 7 5 37 22 12 19 23 36 8 23 14 23 25 29 17 20 27 1 37 6 10 3835 4607 2801 4330 3372 2608 3557 2755 3801 2746 4994 2599 4600 3887 2514 3009 4236 3056 4317 2515 4838 3711 4517 3303 4361 4172 3942 3868 2715 3452 4549 3045 3297 4649 2779 4050 3712 2868 3292 2603 4936 3590 4814 4985 3663 4891 3356 3252 4249 2866 4064 4356 2663 3735 3903 4879 3086 3839 4580 2897 3593 4125 3197 4562 4159 2629 2995 3600 4574 3987 4776 3587 2770 4815 4011 3838 3265 4451 3372 3457 2786 3509 3884 3568 4769 3995 3580 3157 4371 3396 4332 3331 3667 4516 3900 3090 4323 3500 2699 3144 4992 4239 2588 4254 4082 3262 4630 4992 2722 4155 3310 2796 2907
24 14 9 1 34 26 31 2 14 13 26 12 8 11 28 3 7 6 15 22 34 38 9 3 15 18 3 31 6 12 20 16 31 10 35 20 36 5 30 6 30 38 33 34 25 11 5 20 1 24 7 5 25 29 10 6 24 3 34 26 11 22 13 8 14 20 31 23 13 31 30 6 26 4 9 11 3 6 11 14 27 30 8 35 10 22 0 6 33 36 21 3 11 15 36 24 3 24 35 16 13 29 12 23 26 39 33 31 14 24 38 12 4555 3658 3636 4322 4602 3948 4942 4580 3281 4016 4105 2719 4998 4023 3287 4888 2514 3718 2575 2707 4681 3337 4136 4366 3998 2573 3618 3418 4535 4754 3067 3087 3250 3127 4265 4385 2751 3678 4264 4632 3943 3887 4780 3552 3622 3453 4701 4664 3835 4225 3518 4341 4007 3007 2762 4703 3201 4230 3410 3845 3239 3292 3254 4175 4116 4179 3875 3104 4033 2592 2910 4442 4767 2515 4430 4679 2923 4676 4642 4398 4044 4875 4586 3464 3120 3465 4788 3637 3994 4626 3811 2514 3348 4349 3809 8 3547 3121 4089 4481 2886 2834 4631 2783 4576 3053 4765 2514 4181 2917 4026 3876 4317
25 16 2 2 36 22 19 19 23 7 32 16 16 36 2 33 2 6 20 35 18 1 32 13 23 26 30 4 28 37 6 32 35 2 27 21 11 10 20 11 14 2 2 18 12 6 18 24 19 4 15 35 33 39 37 23 39 22 14 8 22 22 6 18 17 18 19 2 33 16 39 32 14 22 12 31 5 7 37 28 16 23 33 14 5 37 33 0 17 16 25 13 6 35 8 4 25 22 31 28 3 22 32 27 3 25 12 8 3 37 34 31 3758 2525 4337 3913 3911 3358 3601 4486 3409 4113 4292 4393 3198 3317 4311 4270 3743 3671 3165 3124 3453 2655 3354 3903 4386 4355 2822 3396 3020 4520 4692 2630 4766 3985 4534 3707 4868 3963 3180 3945 4995 4928 3860 4474 3369 4955 4113 4251 4491 3785 3409 3037 3546 4651 3533 4188 2571 3968 3978 3134 3286 4885 3032 3551 3448 3131 4220 2616 3494 4705 3010 4832 4309 4475 3022 2985 3916 3274 4252 3086 2568 4966 2638 4449 4365 3833 4082 2602 2978 4197 3995 3049 3318 2722 4626 3470 3730 3964 3435 4638 2684 4621 3924 4136 3539 2829 2690 3509 4959 4488 3735 4012 4595
10 21 12 2 37 15 7 17 13 25 25 19 9 12 30 36 27 14 32 9 26 15 8 2 13 24 5 3 31 22 36 38 38 9 37 10 22 11 24 37 30 14 29 37 18 35 29 20 23 11 7 6 28 13 33 38 24 14 16 11 8 5 39 23 20 6 8 37 36 25 33 10 32 22 3 15 37 31 10 38 39 12 36 26 2 18 4 4 0 2 29 5 39 2 20 2 3 22 28 30 11 33 3 11 30 1 21 7 29 15 30 3 3060 3128 3759 4172 3610 3168 2820 4323 2951 4687 3234 3671 2702 3289 3679 3515 4735 2946 4643 4010 2638 3457 4188 4194 3134 3598 2521 3154 2791 4949 3753 3207 3786 4265 4292 4386 4786 2752 4639 2776 2906 4043 3212 3036 2671 3379 4753 4410 2837 2667 4245 4184 4413 3501 4726 2801 3788 4001 4145 4701 4945 3681 2966 4098 3429 2886 3851 3152 4577 3920 3013 3371 3937 3658 3716 3075 4782 3718 4936 4679 4891 4092 4695 4882 2567 4029 3927 4321 2737 4935 3751 3330 2648 4096 4498 3955 3624 3371 3946 4294 2851 3768 4136 3835 4736 3265 4171 4737 3839 4362 3104 4604 4310
9 20 28 14 22 9 38 17 38 29 37 9 2 17 36 23 31 37 31 18 30 4 2 25 6 39 27 7 13 4 27 19 18 13 5 16 34 26 10 29 29 36 3 11 16 24 22 5 37 32 34 32 28 2 37 16 21 35 14 4 38 4 12 28 5 36 5 6 18 10 18 32 18 13 35 6 32 26 20 32 27 28 25 32 36 17 7 21 26 0 33 17 7 33 3 28 9 5 15 5 16 11 11 37 24 38 36 17 12 23 36 18 4836 3322 2626 4872 4931 4374 2804 3008 2843 2877 2886 4391 4081 4064 3124 4889 3005 3943 4623 3602 3713 3992 2530 3793 2915 4688 2626 2839 4003 4157 3569 4324 3923 3739 4532 4161 2762 3209 4545 2809 2801 3482 4772 2896 2730 4154 3102 3771 4816 3463 3453 2610 4824 4489 2909 3759 2616 2986 3409 4248 3262 2993 4891 4447 3184 4161 3866 4642 4430 3967 3543 2691 4132 3751 4505 2609 3668 4430 2899 4404 3515 3760 3695 4618 2770 4414 4666 3054 4050 2713 2555 3746 4316 3006 4395 3451 3894 3742 2649 3278 4324 3151 2864 3280 4427 4064 2611 3174 4229 2730 4253 2942 4567
12 16 25 4 2 39 7 4 4 35 18 33 18 24 23 38 39 11 17 18 8 18 39 37 13 17 13 5 11 30 17 23 15 8 6 33 20 38 16 4 13 7 26 12 31 10 18 13 33 15 16 39 10 18 37 4 15 11 5 34 33 21 14 4 8 8 37 9 17 34 8 23 31 9 39 24 27 8 15 12 11 22 23 28 34 21 3 25 35 10 0 16 13 1 16 11 24 12 11 21 19 4 12 14 11 21 33 5 26 27 21 32 4468 4029 3756 2802 2568 4070 3469 4365 4496 4187 3877 3059 4050 3366 2509 2513 3542 4732 4692 2947 2994 4041 4450 2652 2600 3989 4505 4839 4654 3210 2923 3100 2749 2743 4526 3761 4161 3453 4594 2719 3480 4796 4016 4430 3603 3776 4982 3730 2915 4568 3652 4618 2624 4253 4966 3278 2521 2663 4560 4030 3603 4178 3360 4758 4027 4737 3053 3835 4576 3686 2946 3941 4198 4780 3632 4534 4927 4704 4152 4073 3067 3144 4737 4338 3692 3146 4324 4134 3320 2607 3217 3888 4597 4978 4212 3805 3806 3239 3598 3625 4010 3293 4355 4269 4194 2505 4250 4992 3007 4714 3440 3423 2972
8 11 21 21 17 13 16 36 34 21 35 20 13 39 8 38 32 13 12 20 31 11 38 28 35 12 29 3 25 13 35 1 35 14 13 12 27 33 13 3 26 15 25 20 17 28 25 18 32 27 32 29 16 18 38 33 32 13 13 37 5 3 23 35 38 33 12 26 27 9 10 7 18 4 29 22 26 31 15 12 11 29 11 4 9 34 9 33 10 16 9 0 8 3 14 11 30 5 17 1 13 11 5 1 35 16 32 39 14 32 23 13 2782 3917 3498 4048 3904 4045 3622 4063 2639 3381 3726 4828 3608 3809 4464 3703 4111 2735 3008 2910 3846 3127 4832 4884 3255 4249 3459 3492 3233 3117 3021 4898 3741 2668 4323 2873 3741 4158 3454 2934 4875 2944 4782 7 4448 4281 4007 4710 2509 2960 3148 2939 3952 3242 4015 3918 2653 4306 3826 4828 2853 3165 3462 4401 4013 4852 2771 3955 4159 2829 4492 4124 2994 2970 3215 4486 4682 4337 2948 4501 3085 4884 2769 2518 3718 4776 3607 4834 4501 3885 2524 4071 3572 4182 2836 4142 2811 4118 4210 3760 4690 4619 3415 3020 3623 3256 3241 4841 3467 4493 3147 3203 4855
5 36 19 34 19 23 15 17 36 6 11 10 31 14 16 33 6 38 9 37 19 38 35 27 31 18 25 15 13 20 3 22 29 36 14 25 7 10 5 38 13 20 35 31 25 21 23 31 35 37 11 33 22 29 8 2 8 29 17 7 25 32 34 11 6 4 33 10 6 23 11 22 8 35 27 19 26 30 26 39 36 29 14 30 15 22 31 26 36 22 18 34 0 30 24 17 30 29 15 32 23 34 19 20 30 16 8 28 7 31 35 21 3385 3561 4193 3379 4029 3090 4360 2569 4090 3779 3017 4227 2530 3148 3082 4631 3114 3591 4640 4073 3549 3654 2802 2970 4310 3151 4157 3946 3075 3906 3073 3549 3718 2980 2559 2918 4428 3383 3133 2780 3555 4364 4600 4868 4283 3685 4084 4799 3299 2937 2801 4596 3390 2990 4778 4718 2645 2953 3734 4252 4036 3562 3762 3230 2795 2610 3510 3444 3642 3544 3913 3006 2977 4509 4695 2992 2866 3701 4405 2871 3337 4771 3241 3449 4752 4166 3775 2958 2859 3390 2962 4764 2692 4508 5 2517 2537 2883 4553 13 3925 2657 3254 2866 2748 4921 3451 3516 4003 4876 3999 3618 4238
24 29 21 32 12 2 32 20 23 9 39 2 15 19 35 31 39 25 27 35 9 6 30 14 15 31 1 37 32 20 36 14 9 25 35 15 36 22 5 23 7 26 29 29 34 33 25 19 35 29 14 14 14 7 17 26 36 11 5 32 35 25 12 23 22 28 13 5 28 23 35 11 22 35 13 29 13 4 36 22 6 16 25 21 17 37 32 23 8 8 9 2 13 0 8 3 38 5 38 39 21 27 34 4 6 39 5 35 3 1 7 3 3708 4323 3874 4908 4612 3602 2703 4758 3924 3555 3995 3822 3723 4544 4271 3919 4274 4868 4281 3592 2877 3236 3495 4966 3134 4493 3146 3698 4691 3257 3709 3976 4115 3866 2820 3757 4255 4967 2919 4835 3130 3618 3031 3431 3061 3278 2541 4544 2881 2549 4528 2720 2982 3634 2720 4420 3566 4599 4858 4869 3910 2829 4475 4833 4130 3030 4054 3070 4541 4136 4778 4754 2813 4599 2583 2675 4542 4706 4927 3412 3510 2916 3001 3068 3188 3368 3036 2970 4401 3488 3638 3760 3888 2557 4808 2701 4758 3569 4359 4955 4929 3984 3018 2881 4761 2895 3224 3685 2942 3273 2537 4947 3143
7 13 27 25 11 21 18 37 38 17 38 19 32 8 38 22 20 38 26 34 22 36 5 14 23 14 3 36 26 36 30 6 36 4 21 19 37 1 38 5 5 14 24 16 9 6 14 9 7 4 18 28 5 10 8 33 16 36 32 16 1 36 31 3 29 35 15 15 23 24 8 25 15 38 1 25 21 32 37 23 24 6 1 26 31 37 33 7 25 19 2 24 17 2 0 10 19 5 17 26 12 7 18 37 38 8 6 24 37 14 34 18 3907 4487 3014 4679 4221 4973 3743 3047 4874 3619 4251 4519 3214 3502 2642 3535 3996 3555 4365 4471 3035 3259 4835 3616 2990 4115 4313 4261 2510 3002 4708 3935 4999 2665 3600 4397 3402 3208 4304 4323 3079 3819 4298 3187 3534 3453 3266 3867 4852 3094 3513 3757 4817 3831 4684 3098 9 2782 2568 3875 2550 3728 4089 3232 4618 4871 2703 4249 4200 3465 3607 3881 4243 3025 2670 4092 3036 4838 4798 4569 3853 2728 4206 2564 3419 2802 4326 4626 4277 3532 4716 4013 4946 4639 2587 3878 2621 2985 4303 3688 2988 4894 3673 4151 4256 4132 2826 3567 2564 4113 4843 3719 4678
32 12 7 30 5 34 8 37 20 32 28 7 28 21 31 8 9 37 11 24 25 24 31 37 20 35 34 37 17 4 34 21 4 27 3 36 29 7 23 5 9 30 23 6 28 6 2 31 35 12 8 27 10 6 32 1 8 1 24 35 24 24 25 16 34 7 2 31 28 28 1 20 15 37 34 31 32 36 19 30 1 32 34 13 8 12 24 16 35 18 36 26 4 35 16 0 23 1 32 14 27 11 28 22 5 25 12 31 19 8 37 5 3159 3655 2893 3513 4093 4427 2602 4329 2592 2970 3409 3213 3296 4693 2793 3521 4424 3398 2843 4442 3746 3746 4400 4267 3220 4533 4034 4773 4771 2846 3787 4970 4187 3805 3652 4663 3986 2856 4526 3052 4650 4695 2749 4629 2575 4335 3144 2680 4197 2536 2555 3067 3615 4905 3758 4748 3790 3566 2559 3528 3324 4385 2666 3522 3483 4044 4859 2639 2725 3360 3965 4577 4842 4109 2547 2533 3176 4715 4868 3461 3922 3313 3708 3135 2504 4588 4646 4941 3245 3382 3846 4082 4655 4581 4650 3944 4229 2553 2541 2595 3895 3084 3888 3184 3357 4566 2894 4760 2797 2905 3365 2544 2508
26 11 8 11 37 5 6 3 28 19 11 16 39 8 8 33 12 15 2 36 35 22 38 7 39 31 34 27 32 29 30 29 30 39 7 2 18 26 29 36 20 20 1 36 23 15 1 17 22 7 4 4 5 10 30 25 10 16 15 35 25 32 35 18 34 32 1 10 24 19 19 9 18 17 7 37 25 5 30 28 33 26 9 3 10 38 13 28 20 31 15 31 11 26 5 15 0 27 7 18 28 14 8 33 31 13 35 39 4 17 9 10 2743 3113 3735 3890 4478 3407 4123 3936 4985 3082 3888 2989 3308 3180 4701 4818 2647 4966 4174 4274 2856 2695 4926 3304 4273 3395 2690 2886 3735 3651 4633 3886 3358 2957 3583 3734 3777 3546 3922 3199 3813 3090 3251 4144 2618 3457 3317 4801 4437 3611 3466 3642 4775 4831 4963 2818 4987 3931 4652 4556 4040 4066 4713 4283 2599 3892 2533 4291 3935 4855 3460 2971 3416 4280 4519 4874 4361 4114 3897 3374 3600 2537 4549 2636 4795 3393 4420 4444 2533 4193 4732 2532 3287 4119 3841 4860 2694 3154 3583 3347 3958 2882 4102 2731 2541 2764 4936 2903 3600 3489 4838 3612 2771
31 14 16 31 4 37 17 35 15 26 1 24 21 14 10 11 7 4 35 20 16 27 18 7 5 13 9 14 25 38 15 20 26 10 14 24 12 29 23 20 27 3 15 36 18 26 30 23 5 34 9 6 15 3 3 4 31 15 7 8 6 18 13 24 28 24 37 33 27 33 9 9 35 16 27 12 16 8 25 19 11 32 16 8 4 23 11 8 9 28 39 29 9 18 27 1 20 0 3 12 23 35 1 34 33 30 5 11 14 22 32 20 4465 2634 12 4327 4211 2611 2901 3628 3283 3200 2981 3859 4209 3658 3881 2653 2918 3153 4875 2932 3476 3893 3609 3003 4833 4277 4141 4228 4345 3889 4695 3234 3798 2509 3815 4159 3967 4278 4878 3478 2974 3428 4501 4519 4198 3759 14 3569 3053 3108 4195 3599 3658 3043 3516 4255 3914 4227 3903 4285 3072 4703 3053 3857 3526 4894 3896 4042 3522 3802 4249 3688 3100 4235 4335 4199 2731 3968 4327 4133 4527 3763 3978 3378 3844 4324 3160 4882 2969 4884 4849 2712 3847 4269 4150 2533 3051 4112 2702 4856 4664 3432 3718 3290 4813 2566 4880 3408 3218 2709 4665 2906 3433
13 25 21 7 7 6 30 36 31 32 13 7 18 25 34 4 4 26 30 33 16 32 14 2 31 12 1 25 12 8 24 6 21 27 2 1 22 39 35 3 26 20 11 25 10 29 18 10 25 4 28 1 2 14 35 7 21 35 3 20 34 8 32 16 24 18 11 18 37 25 4 27 2 31 17 34 35 15 23 19 18 18 1 3 27 28 28 16 26 16 18 36 2 1 31 8 19 26 0 2 1 9 3 4 30 1 16 33 24 28 31 20 3486 2529 4711 4271 3211 2757 3614 2735 2899 2836 4257 4208 3621 4379 4324 2528 3405 4004 3306 4845 4923 7 3482 4752 3631 4372 3445 4917 3871 2551 4270 3058 2801 4177 3512 2569 3851 4077 4292 3727 3235 4824 2776 2529 4165 2829 4160 3933 3121 3943 4954 4859 4187 4594 2937 4091 4080 4855 3705 4650 4539 4326 3969 4408 4642 2910 4948 3145 3572 3503 4435 3966 3602 4498 4615 4813 3555 4478 3581 2769 3470 4382 4871 3113 3771 3859 4209 2961 4501 4203 4985 4954 2507 3011 3889 4936 4090 3824 3559 3197 3150 4119 2551 4559 3532 4490 4046 3469 3031 3492 4006 3481 3320
35 20 37 31 8 31 6 21 39 26 8 32 4 8 37 15 21 11 3 12 24 29 32 37 30 16 25 18 21 9 27 17 3 15 25 21 35 27 20 9 31 21 36 9 19 14 33 9 27 2 3 5 39 3 3 10 35 28 13 23 7 36 22 23 14 20 7 26 26 24 1 12 20 8 32 13 23 24 27 32 23 6 37 26 25 25 1 1 35 8 23 22 17 28 1 28 26 19 29 0 5 32 22 34 7 37 23 22 3 12 7 12 2818 3830 3516 3615 4296 4415 4393 4546 2523 3734 4114 2925 3680 2964 2848 2774 2703 4681 4684 4302 3543 4047 2988 3153 4989 3181 4683 3026 4163 4434 4157 3417 3543 4164 4876 4780 4389 3268 6 3380 4032 3109 3928 2660 3169 3007 3017 2919 2668 2548 4276 2530 4871 2904 2779 2752 2918 4724 3904 4610 2846 4185 4556 3687 2957 4058 3714 3351 4608 3835 3055 2617 3686 4321 3347 3209 2773 4955 2715 4437 3413 3948 3890 2870 2516 3511 4420 3397 3989 2673 4349 4625 4662 3400 4900 4150 3057 4710 4953 4206 4938 3274 3446 3276 3998 3918 4285 4618 3649 3441 4474 3412 4771
18 33 4 20 7 39 35 20 2 20 35 38 6 30 29 39 14 35 9 39 38 20 9 13 20 2 28 23 2 21 30 34 5 3 31 26 37 27 18 19 1 25 3 12 17 23 2 39 29 21 33 33 18 7 5 18 4 22 14 8 1 21 19 26 1 1 28 31 37 21 20 7 18 2 9 27 39 3 29 12 32 20 30 21 30 4 34 9 1 32 39 17 4 7 35 9 28 24 34 30 0 17 23 30 10 5 28 21 20 1 38 2 2815 3756 4787 3909 2543 2807 3119 4194 3757 2995 3327 3967 2837 3240 3229 3220 3672 3924 4181 2982 4309 4264 4416 4733 4772 3978 3674 3365 2570 3225 2751 3795 4266 3466 4506 4102 4971 3023 2849 3919 4274 3674 2680 2918 3270 11 2851 3097 3251 2956 3574 3590 4812 2787 3555 3667 4898 4066 4953 2808 3116 4126 3011 2605 2558 4554 3827 3860 4299 3569 3894 3216 2932 3131 3488 4032 3093 4109 3351 2712 4920 4280 4655 2571 4810 4062 2666 4056 4982 3752 3417 2788 2539 3185 4892 2983 4992 3142 3655 3665 4839 3433 2511 4048 2628 4511 4125 2810 4391 4453 3313 4415 2762
21 16 19 14 31 24 27 32 10 4 11 13 4 11 2 8 9 30 2 34 33 16 1 3 12 15 32 35 24 31 13 4 27 30 22 21 20 34 21 34 15 7 36 28 18 25 23 29 32 2 10 39 27 25 38 37 34 9 21 4 3 35 14 3 33 1 29 30 24 17 37 37 37 19 9 16 31 10 10 2 23 12 18 10 39 38 29 39 5 24 38 14 3 18 23 8 2 19 5 38 37 0 13 14 34 35 9 28 36 38 8 5 4073 3397 4083 2718 3671 4226 4242 2960 2738 3866 4656 4583 2606 2517 4157 4069 3713 4946 3892 3945 3861 4124 2696 3082 3877 3477 3508 4797 2935 2546 4648 3580 4124 4154 3614 3647 2987 4753 4084 3128 4426 4610 3658 4128 2749 4841 3546 2802 3730 3364 4590 4598 3589 2677 3817 3057 2513 4970 3985 3818 3020 3518 2521 4071 4671 4894 3520 4770 3870 3088 4370 4842 3817 2784 4073 4978 2660 3233 4403 4919 4904 3767 3747 4352 4886 2826 2997 3603 3825 3405 4907 2850 4792 3547 3181 3929 3973 3229 3511 2885 4502 2623 3021 2506 3728 2757 4580 3203 4738 4633 4842 3693 4178
27 19 34 23 15 3 1 37 8 12 21 2 2 17 28 38 2 17 10 15 14 21 34 30 35 17 13 7 19 1 18 18 16 8 13 15 24 16 39 17 16 11 25 4 39 5 10 9 37 35 3 14 15 7 11 30 7 4 18 24 32 1 19 18 5 36 32 32 6 27 30 38 38 2 25 32 12 18 11 26 16 32 32 2 29 5 38 9 12 33 6 9 21 10 38 24 29 27 10 18 23 3 0 18 22 14 18 35 17 30 24 3 3488 2862 4210 3778 3449 4159 4142 3828 3794 3933 2773 2712 3755 3667 4418 4002 3096 2856 4607 4590 3777 4419 4678 4144 2825 4687 3033 4970 3529 4694 4805 2725 3178 3147 3081 4330 4387 3819 2905 4335 2553 3563 3241 4087 3920 4132 3148 4109 3606 4175 4395 3010 4952 3695 4008 3380 2511 3805 3434 16 3208 4378 3633 3490 4520 3902 3824 3493 4742 3753 3957 4251 4189 4280 4481 6 4922 4296 3679 4979 4730 4604 2890 3698 4030 4385 3678 3830 4657 4935 2712 3594 4469 2960 4130 4259 4650 3140 3432 2665 3882 4230 2871 2752 2821 3971 2627 3407 4445 4234 2682 2743 2664
30 19 16 25 39 15 33 10 26 25 34 20 37 30 33 24 12 11 10 30 26 10 26 17 15 23 25 23 30 6 19 21 34 19 11 24 30 2 15 29 39 36 1 38 6 2 18 3 24 24 10 14 31 7 37 24 1 22 39 11 30 18 35 30 38 37 29 36 24 35 4 19 5 6 1 21 3 28 6 9 31 38 26 21 11 16 39 39 25 11 9 35 35 14 3 25 2 10 18 37 3 20 25 0 27 17 23 32 17 15 17 5 3131 4256 3826 3151 4731 3379 4828 3343 4868 2781 4737 3560 3866 2836 4439 3894 3317 4406 4387 4193 3172 4714 4439 4631 3379 3029 3267 4449 3021 3805 4343 4720 2924 4020 4389 2939 4521 3736 4277 4952 2831 2540 3724 3350 4419 3967 3233 3852 3651 2988 4340 4085 3959 4897 4751 4769 3870 4183 3220 4167 4166 4664 3206 2985 3893 4250 4222 3942 2931 3832 3550 4375 3390 2986 4288 2919 3686 2909 3522 4518 4062 3368 4197 3544 4257 4257 4764 3392 4113 3525 2556 2901 3727 3424 3619 3413 4195 4362 4716 2934 3856 3948 2884 4315 2580 4324 2614 3625 4116 3711 3576 3164 2554
30 31 1 37 26 30 9 24 27 5 29 10 9 27 26 37 14 13 9 3 30 36 25 8 29 6 2 5 20 28 21 30 8 1 13 26 12 9 10 31 30 1 27 31 3 15 18 1 31 5 26 36 19 18 36 30 27 37 18 11 35 31 12 27 23 17 15 1 35 39 1 13 20 24 21 20 37 9 8 34 15 29 35 19 19 16 27 33 8 33 22 27 20 39 35 31 36 37 8 33 38 14 35 24 0 3 35 1 17 20 33 2 3929 3321 3879 3400 4873 4678 4313 4017 3413 4299 4215 2853 4976 4998 3197 2529 3121 4643 3340 4935 4230 4748 3734 4594 3129 3186 2595 4460 2513 2937 4994 4939 2594 2709 3008 4743 3333 3606 3299 3904 4265 4753 4887 3881 4626 2505 4714 4155 2947 3278 3200 4291 4050 3003 4011 3705 4875 3917 4608 4277 2520 3133 3621 3082 4035 3651 4314 4680 4875 2541 2900 4177 4497 2525 3910 3246 3054 4015 3308 3108 2835 4536 4470 2513 2660 3990 4467 4917 4539 3970 3131 4729 2698 3759 3073 4054 4917 3216 2641 4295 3380 4863 4647 3271 2556 3056 3340 4928 2787 2802 4655 3250 2841
17 14 1 6 12 39 28 22 30 1 22 29 34 20 4 18 2 35 26 21 15 34 39 17 2 7 18 27 4 27 35 27 2 16 20 29 2 15 24 27 27 2 2 8 21 35 15 16 11 33 12 19 33 10 3 28 17 8 22 31 31 24 24 17 8 17 28 4 30 7 1 23 18 9 31 30 9 32 4 30 39 3 2 21 5 10 31 5 19 10 26 37 10 39 29 14 25 21 9 31 8 22 24 21 33 0 3 11 6 33 13 9 2642 3531 4923 4076 3278 2800 3576 3721 4228 3818 4160 2956 2806 3353 3183 4193 3339 4395 4283 4442 3176 4682 3549 4731 4121 4333 2676 4761 4161 3295 2884 3853 3719 4352 2592 4230 3920 4257 3109 2745 2943 2570 3607 13 4043 4889 2751 2757 4815 3396 2884 3589 2759 2587 3731 4150 4353 3290 4780 3392 3814 2837 3738 3778 2789 2694 2895 3412 2624 2744 4892 3552 3759 4978 4086 2682 3163 2696 4277 2900 4289 3710 3876 3989 4940 4638 3441 4174 4371 4608 3034 3318 3338 3292 4424 3404 3770 3202 4943 2960 4960 3475 4969 4932 4331 4356 4242 3317 4796 2541 4933 4917 2877
4 6 22 29 36 15 24 4 7 6 35 35 33 34 21 6 5 16 24 14 2 32 19 12 27 7 2 17 33 11 31 25 37 2 27 26 35 38 31 1 27 24 15 21 27 34 11 32 13 30 22 7 35 22 12 26 18 9 30 6 11 11 1 13 27 3 7 37 19 2 29 5 37 30 34 13 27 3 22 18 2 28 6 36 34 21 27 20 28 24 7 9 38 20 31 2 16 6 7 37 4 23 26 3 13 12 0 6 31 2 28 27 4293 3896 3687 4765 3142 4320 3973 3430 2844 10 4948 2872 4207 2867 4249 4861 4389 3337 4481 4002 2562 2526 3351 3142 2543 4246 3363 3880 3055 4763 3311 4502 9 3160 2934 3167 3251 2640 4275 3493 3477 3419 3834 2910 4294 3241 4684 3499 3091 4811 3889 4430 2537 4848 3185 4345 3540 4494 2602 3943 3121 4058 2593 4847 4801 3565 4981 4744 4697 2890 3068 4223 3781 3092 4688 3680 4023 3902 2691 3647 3828 3957 2796 4031 4036 4367 3594 4238 2637 3287 2984 2509 4113 3487 2734 4756 4057 2761 3995 4734 4562 3165 2554 3255 3980 3666 3339 3685 3326 3755 3797 4455 4862
20 13 17 21 37 8 23 9 27 31 34 23 4 10 25 11 19 32 25 11 39 26 29 1 17 14 4 30 27 24 32 1 39 26 17 15 33 11 38 28 27 12 34 7 24 12 17 25 6 30 15 36 36 35 11 4 17 13 34 34 30 31 10 2 5 10 15 17 2 10 16 38 34 15 8 23 35 39 32 31 1 1 31 8 32 33 38 19 5 38 26 25 31 10 23 19 2 31 38 13 4 31 8 34 17 21 5 0 27 2 36 7 4668 3576 4817 4168 4979 3216 3614 3723 4838 2804 4090 2689 4039 3929 3681 3966 4414 3606 4572 3707 4976 4735 3754 2502 3842 3256 3944 4245 4609 3134 4820 3606 4165 4141 2581 4965 2853 4550 4477 3953 3180 4323 4181 3387 3332 4487 3050 4563 3646 2604 3065 4142 3338 2763 2677 4256 4087 3119 2523 2903 3886 4332 3190 4951 4668 3214 3837 4690 3693 4224 3221 3330 3028 4370 2897 3457 3428 2631 4465 2757 3466 2506 2805 4077 3970 3567 4060 3607 2983 4541 4960 4064 4758 4520 4541 3399 3510 4324 4802 3844 3955 3736 4513 3077 4571 2591 3121 3007 3299 3035 3208 3134 2922
8 12 2 14 39 36 2 17 13 19 31 18 35 29 31 1 20 39 29 10 5 32 20 16 37 39 25 17 10 19 22 23 33 11 38 13 29 30 24 7 3 34 3 10 21 35 7 25 9 37 38 17 7 9 37 15 22 5 25 4 6 9 27 5 1 33 20 1 12 9 5 14 38 23 14 5 15 10 35 27 19 17 14 23 16 19 27 15 25 28 7 28 2 29 19 39 4 23 31 32 39 19 30 11 11 38 15 36 0 7 5 15 4692 3516 4240 4371 4065 4480 4712 4444 3138 2987 4948 3542 3838 4434 3510 3038 3532 4136 4056 3228 3918 4198 3963 3210 2887 3649 4934 2764 3020 3663 2925 3372 4190 4658 3853 2866 3627 3712 3612 2594 4705 4444 3887 2749 3951 4988 2577 3774 4540 3331 2665 3481 2665 4570 4038 2548 4209 3515 3040 4700 4911 2665 4338 4214 2848 4959 4153 4774 3262 3573 3206 4540 3947 2686 3584 3200 4916 3538 3769 2831 3084 3728 4345 3161 4982 2813 2865 3934 3155 4088 3838 4916 3280 2621 4845 4915 3609 4918 3231 4463 2942 3592 3564 4290 3078 4566 2632 4293 4572 3879 3228 4032 3208
20 30 30 4 25 3 36 13 8 37 20 22 11 35 20 27 15 1 26 6 7 22 3 12 6 35 31 20 39 23 6 6 12 30 8 3 12 34 28 17 25 17 33 15 8 18 20 37 14 38 32 15 1 11 25 13 35 37 16 15 31 34 20 29 9 22 6 27 23 1 2 26 14 14 2 27 3 27 36 38 22 38 30 31 31 34 14 9 4 39 10 4 21 31 38 28 9 19 32 16 22 33 31 19 16 8 21 3 37 0 19 34 3956 3302 3478 3311 3885 2502 3786 4674 3109 2921 2907 3723 3004 3462 3810 3723 2593 3006 3514 3091 3622 4732 4230 3004 4943 4400 4391 4997 3999 4133 3752 4958 3667 3892 4740 3378 2583 4737 3409 4446 2857 4910 2847 4514 4758 3009 4280 2549 3896 4150 2564 4120 3350 4530 4915 3047 3302 2923 3392 4259 4463 4910 3040 3072 2997 3008 3714 3766 3283 3342 3249 4743 3589 4979 2892 2684 3822 3019 3589 4513 4176 3627 3733 3736 2889 4967 3742 4107 3535 3085 2807 3612 4859 3691 3775 4302 3563 4034 3182 4163 3280 2967 2721 4219 2728 3339 3877 4516 3299 2866 2644 2567 4891
26 1 1 12 6 28 10 6 13 33 10 32 23 33 11 27 38 12 9 20 32 19 22 27 32 39 9 2 36 36 13 1 32 39 12 36 4 4 36 5 6 13 6 20 34 15 26 35 39 35 1 9 15 32 17 7 23 20 22 26 35 20 24 1 22 7 13 35 36 7 30 33 33 31 35 36 32 16 30 22 9 8 13 11 36 18 35 19 21 34 33 7 32 7 29 11 37 22 22 22 24 12 9 29 3 15 35 33 12 24 0 1 3427 4785 4626 4470 2817 4594 3623 2615 2752 3113 3390 4084 4108 2525 4614 3687 4992 4782 4647 2908 4798 4298 4720 7 2612 2939 2707 2749 3098 3509 3990 4324 3750 3782 3623 3502 3165 2903 4767 3433 2609 4078 3256 3238 4004 3501 3084 2988 4563 4984 3864 3910 3564 3534 3719 3755 3951 4765 4766 4507 2753 3786 3766 6 3380 2880 3363 4262 4205 4211 2526 4232 4228 4517 2595 3964 3389 2503 4486 2600 4157 4163 10 4148 4107 4897 4448 4990 4340 3406 2520 4165 2625 3648 2824 3593 4519 4506 4436 3675 3904 2641 3528 3319 3908 2763 3088 4624 3500 4006 2836 3195 2668
8 17 39 21 34 19 21 18 6 14 6 35 18 25 9 17 24 30 37 30 31 17 4 10 28 37 8 3 30 30 38 2 6 16 36 25 6 11 36 19 22 7 15 1 13 25 26 4 38 29 18 4 27 18 32 27 11 12 7 15 10 1 11 39 23 6 31 27 16 4 18 10 15 24 39 17 5 7 8 2 7 34 34 31 17 1 10 37 14 38 3 7 38 23 5 4 22 11 9 26 38 11 15 20 2 36 34 2 19 27 21 0 2730 3235 4032 3175 4462 2612 3743 4244 4467 3866 4581 2753 2894 3868 3210 4458 4207 3779 3924 4054 2945 3052 3740 3263 4561 3913 3447 4132 3813 4971 3759 4378 4308 3566 2789 5 4280 14 3581 3956 3906 4045 3954 3986 4549 4408 3077 4546 3255 4866 3042 4827 2523 13 3380 4252 3683 4194 3226 3513 3777 3317 2669 3748 17 3090 4729 4393 4095 4785 4738 3805 3287 4115 3404 4984 4712 2554 3629 4332 2821 4629 4521 3361 3253 4491 2877 3457 3422 2942 4529 2645 3984 4223 4703 4635 2809 4772 3352 4122 3500 4200 4880 3535 3529 2572 3530 3824 3736 2903 4806 3021 2942
2919 4672 4725 4038 2927 2620 3544 4068 4693 2699 3812 3919 3395 4827 2795 4251 4961 3706 4986 4380 4518 4797 3458 4654 4583 4547 4397 4185 4295 4226 3357 18 2697 3474 4243 4321 3657 3671 2634 3381 2594 4549 3949 4405 3138 6 2908 4786 4838 2918 3690 2654 4038 3810 4494 2954 4180 2806 4134 4544 2602 3135 4539 2940 4952 18 3222 2698 4937 2991 4432 4752 2521 2556 4680 4464 3709 3735 3008 3217 3022 4438 2719 4368 4605 3835 4555 3758 3060 4836 4468 2782 3385 3708 3907 3159 2743 4465 3486 2818 2815 4073 3488 3131 3929 2642 4293 4668 4692 3956 3427 2730 0 2 14 6 13 35 34 33 25 27 39 23 4 30 24 25 29 5 9 1 17 33 24 13 36 7 24 8 6 14 10 22 14 37 11 16 3 24 31 7 36 22 14 12 36 38 30 18 27 34 11 10 5 4 26 6 11 1 4 12 6 13 28 31 21 30 12 30 20 21 36 32 16 18 37 27 4 1 34 10 7 16 2 29 21 39 13 22 10 39 15 3 23 25 20 4 28 37 21 39 12 16 22 24 26 10 4 8 13 17 10 28 18
4873 3608 4757 4752 4426 3382 4273 3664 2534 4486 2562 4434 4784 4899 4895 2917 3996 2710 4431 4676 4864 4984 3758 4816 2637 2751 2639 3646 3083 4175 3099 3239 3897 4033 2855 2993 2982 2650 4262 4587 3704 4958 2860 4436 3027 3896 2707 3555 3151 3938 3618 4588 4082 3909 2686 4116 3564 3383 4920 3892 3403 4223 2574 2701 4077 4945 4116 11 4491 2759 2646 4085 4919 3833 3045 3326 4940 3942 4184 4529 3572 4779 2659 4165 4718 4607 3658 2525 3128 3322 4029 3917 3561 4323 4487 3655 3113 2634 2529 3830 3756 3397 2862 4256 3321 3531 3896 3576 3516 3302 4785 3235 36 0 35 9 38 19 19 12 22 37 2 32 11 28 36 27 38 25 25 14 19 15 25 35 2 8 29 18 15 18 26 32 3 26 17 3 33 8 13 1 1 10 38 16 34 9 26 19 29 10 3 4 5 4 17 10 29 7 39 13 28 28 29 28 18 11 28 35 21 20 23 37 38 5 6 14 24 10 5 15 9 13 28 20 36 21 20 10 32 26 31 30 1 35 38 11 1 12 16 5 19 12 18 13 2 27 12 28 39 8 8 24 13
4042 4469 3733 3976 3978 4958 4623 4313 4816 2653 4316 3501 2972 3270 4953 4773 4109 2646 4984 4677 2628 4319 4562 10 4948 2732 4328 2502 4143 4711 4660 3375 3171 4120 3621 4122 2589 3599 2796 3841 4856 4142 4040 4428 4245 2501 4637 3041 2691 4396 3918 3136 2512 3593 4656 4922 3442 2915 3174 3610 4979 4950 2739 2984 3600 3584 4650 2500 2547 2633 3740 4829 4040 3280 3494 4241 2673 3939 3121 3851 4790 3676 3046 3465 4876 2801 3636 4337 3759 2626 3756 3498 4193 3874 3014 2893 3735 12 4711 3516 4787 4083 4210 3826 3879 4923 3687 4817 4240 3478 4626 4032 39 30 0 38 18 2 30 26 22 8 23 11 30 16 27 35 12 15 34 4 38 5 7 17 17 29 9 15 19 18 33 3 1 26 18 4 24 5 36 19 25 2 30 11 7 12 17 32 27 33 13 25 18 34 1 28 35 33 19 39 39 4 3 8 6 25 23 5 2 24 2 31 37 14 32 38 26 24 23 2 7 21 14 35 4 16 6 12 1 24 26 22 30 31 9 18 4 33 35 27 11 6 12 6 11 25 11 12 12 28 5 4 25
3781 4739 3847 3229 3117 3505 4651 3842 3670 2803 4298 4084 3980 4027 3752 2707 2987 2809 3655 4208 4503 3261 3550 4757 4910 3771 3826 2874 3635 3661 4587 4467 4602 4767 4601 4208 4652 4852 3776 4656 4813 2975 4948 3878 4160 19 3791 4819 2649 3284 4487 3928 3200 3767 3649 3995 3174 3288 2588 4555 3079 4438 2568 3553 2706 3541 3133 3085 2777 4166 4283 4005 4921 4754 2928 4349 2971 4403 4701 3352 3648 2611 4016 3211 4896 4330 4322 3913 4172 4872 2802 4048 3379 4908 4679 3513 3890 4327 4271 3615 3909 2718 3778 3151 3400 4076 4765 4168 4371 3311 4470 3175 15 18 2 0 25 8 23 19 6 29 10 38 5 34 25 30 6 5 18 17 37 27 38 20 8 10 30 11 39 17 22 23 4 14 36 17 23 8 19 28 7 29 7 8 24 9 13 30 30 35 24 34 31 21 16 30 13 35 2 22 6 26 1 37 8 19 23 13 35 18 20 1 32 6 21 35 19 38 35 18 19 26 16 15 38 22 8 18 36 30 28 9 16 36 39 27 19 27 15 23 16 39 9 2 1 9 15 9 18 28 24 28 17
3885 3650 2950 4917 4752 2854 4351 4605 3770 3894 3498 4837 4156 3257 4087 3840 4003 2596 3888 3047 4885 2992 4814 4267 2573 2712 4596 3439 3481 2571 4547 3260 2871 3310 2859 4402 4637 2821 4115 4928 2673 2557 3253 2893 2507 3891 3567 2837 4155 3961 4899 2790 2859 4394 4052 2505 3657 4365 3209 3687 4413 2824 4242 3653 3452 3848 2738 4462 3450 9 4240 3544 2814 4149 4920 2518 3341 3549 4757 3747 4822 3635 4783 2951 3973 3372 4602 3911 3610 4931 2568 3904 4029 4612 4221 4093 4478 4211 3211 4296 2543 3671 3449 4731 4873 3278 3142 4979 4065 3885 2817 4462 9 35 34 10 0 37 36 29 35 18 28 17 15 10 1 37 13 12 24 38 8 5 34 26 16 24 19 31 25 33 13 15 5 37 33 13 11 2 36 39 31 3 18 8 15 36 17 36 9 35 39 34 38 17 11 23 34 13 34 23 32 16 37 21 5 11 9 5 10 27 26 3 1 14 4 23 28 34 22 15 37 27 34 18 29 23 18 4 14 21 18 28 19 7 11 15 8 19 1 25 19 16 17 21 26 13 21 28 17 25 28 25 10
4896 3976 4535 2585 2746 4788 4011 4778 2814 3498 4047 3418 4372 4063 2535 2605 3171 4902 3107 3943 4281 3257 3081 2914 4934 3159 4730 4495 2947 4891 3106 4688 4066 4066 19 2693 3985 2525 3922 3889 2874 3716 4789 3465 3887 3854 4896 4962 3735 2631 4716 3225 4170 3957 3318 3050 4807 2811 3854 2503 4448 3360 4349 4208 3367 3846 2752 2670 3943 3272 4639 4011 3845 4674 2617 4253 3714 4557 3233 3348 3258 2586 2731 2897 4951 2608 3948 3358 3168 4374 4070 4045 3090 3602 4973 4427 3407 2611 2757 4415 2807 4226 4159 3379 4678 2800 4320 3216 4480 2502 4594 2612 7 16 8 38 3 0 15 31 2 39 2 35 5 34 33 23 33 33 16 20 25 7 17 25 23 1 10 20 7 22 11 37 1 20 30 8 14 4 7 27 3 16 37 30 15 27 26 24 19 24 25 13 23 4 31 8 32 9 2 24 11 13 12 8 32 19 28 8 17 1 37 27 12 1 11 39 8 25 34 9 18 36 39 10 21 21 4 4 4 31 34 26 17 39 39 28 7 22 1 38 15 17 30 7 27 1 23 23 15 24 38 25 28
4845 4343 2525 2795 3712 4782 4343 2659 4347 3664 2910 3961 2504 3961 3777 4297 2765 3111 4848 3193 4306 4571 3701 2734 4427 2596 2806 4810 3094 3572 2728 2817 3389 4852 4733 3211 3691 3163 3585 3581 3520 2751 3394 3674 3631 2852 2988 6 3138 4069 3288 4892 3507 2815 2551 3896 4098 2585 2951 3654 4758 2657 3203 2632 4117 2994 4620 4368 2699 2940 4808 3568 4034 3356 4691 3467 2624 4673 3872 3777 4328 3966 3649 4510 4344 3557 4942 3601 2820 2804 3469 3622 4360 2703 3743 2602 4123 2901 3614 4393 3119 4242 4142 4828 4313 3576 3973 3614 4712 3786 3623 3743 4 34 39 35 3 1 0 23 35 4 20 4 1 33 20 16 7 2 1 18 5 7 33 35 10 24 1 30 15 5 19 17 35 19 27 13 20 28 33 28 25 21 39 30 22 11 5 21 35 25 33 12 9 19 36 28 38 32 7 19 31 26 1 18 9 16 9 19 14 12 31 12 16 18 9 20 19 12 9 21 28 11 6 15 16 5 36 17 4 19 35 35 16 29 33 3 39 33 31 22 30 18 22 33 35 8 14 33 5 10 20 27 1
2606 3700 3508 4883 4585 3884 4842 3471 4471 3183 2710 4881 2789 3714 3718 3336 2740 4684 4433 4053 4421 3846 4317 4157 3997 4241 2569 4888 3041 4731 2881 3270 2819 4450 3138 3724 3265 4445 2677 2921 3651 2568 4245 3851 2649 3024 4231 4504 3773 2940 8 3712 4105 2774 2741 4910 4347 4425 3486 3477 2585 4353 2642 3965 4344 2784 3867 3931 3852 4268 4883 2895 4758 2801 4140 3605 4661 4540 2782 3055 2733 4548 3727 4496 4044 2755 4580 4486 4323 3008 4365 4063 2569 4758 3047 4329 3936 3628 2735 4546 4194 2960 3828 3343 4017 3721 3430 3723 4444 4674 2615 4244 5 26 5 34 9 26 7 0 10 26 11 12 13 26 30 36 35 24 6 13 1 38 32 6 10 26 2 30 16 35 23 2 19 27 12 38 5 14 34 25 23 15 1 30 12 32 13 18 31 3 26 17 8 38 22 13 34 20 6 32 19 35 29 22 26 24 14 30 35 5 35 33 17 34 1 1 8 26 28 9 34 15 8 26 3 1 19 34 34 5 27 23 15 20 33 4 9 12 35 32 35 29 12 16 15 32 38 19 3 30 7 15 27
2566 4374 4785 4167 3867 2983 4098 4484 4804 3715 4646 4391 2650 3894 2778 4465 4365 2934 4346 2880 4043 4701 3174 2715 13 3841 3826 3070 3293 2761 3564 3984 3486 3453 2699 2954 4448 2677 4311 3866 4299 3753 4575 2578 4273 4111 3738 3630 4748 3314 4942 3765 3548 3667 2520 3173 3575 4351 4218 4064 4238 3813 3529 4786 2910 4620 3869 3780 2656 3504 3857 2686 3906 3408 3972 4800 3915 4916 3365 3679 4258 3747 4505 3842 4766 3801 3281 3409 2951 2843 4496 2639 4090 3924 4874 2592 4985 3283 2899 2523 3757 2738 3794 4868 3413 4228 2844 4838 3138 3109 2752 4467 28 25 18 19 1 38 4 12 0 31 1 39 20 16 16 30 39 30 14 27 13 8 37 11 38 31 30 37 19 38 24 13 26 25 22 13 29 26 27 6 34 18 12 9 29 17 29 20 6 37 18 33 24 22 9 38 35 27 19 23 1 17 39 1 2 15 39 5 22 9 16 19 24 9 7 3 17 23 5 31 19 10 29 6 20 8 25 10 32 3 8 17 6 25 1 21 10 34 35 16 19 36 36 22 23 4 2 25 25 9 5 9 3
4369 2845 3024 2538 3728 4400 3956 3727 2873 4944 3310 3870 3299 3411 4521 3525 4086 4530 3784 4527 2834 4323 3466 2845 3641 3505 4599 3198 3685 3957 4320 4396 3711 4945 4636 4761 4886 3589 4404 2749 2890 3695 2989 3637 2998 4391 3393 3060 3343 3617 3213 4690 3552 2846 4161 3028 3992 4964 3514 3956 2768 4028 4239 4055 3257 2911 4767 3808 4780 4984 4973 4200 4232 3740 4915 4143 3257 2702 4949 2619 3103 2676 4298 3704 3224 2746 4016 4113 4687 2877 4187 3381 3779 3555 3619 2970 3082 3200 2836 3734 2995 3866 3933 2781 4299 3818 10 2804 2987 2921 3113 3866 37 16 7 9 7 15 34 31 39 0 5 5 24 1 6 22 30 8 19 29 25 38 28 35 28 27 24 35 17 22 34 4 6 19 30 27 12 36 1 26 32 7 7 36 14 2 22 5 23 34 9 19 8 25 18 22 18 16 25 7 36 2 1 8 34 22 28 4 20 15 33 20 7 34 31 4 30 33 7 14 25 35 33 24 1 27 23 32 26 22 6 32 37 36 14 4 22 4 12 15 26 10 3 28 25 7 17 6 38 7 29 23 4
4811 4296 4460 2539 4463 2767 4927 3093 4547 4453 3867 2771 3954 3533 4763 4124 2849 4977 4990 4870 4928 2944 4036 4140 4128 3889 4584 2752 3675 2672 4320 4280 3123 4420 4622 3477 3797 4004 3112 3483 2574 4229 4616 3825 3728 4967 3961 4547 4251 4771 4808 4092 3692 3776 3651 2920 3674 4145 4696 3464 3383 3769 2871 4889 3013 4327 4859 2943 3580 3983 4050 2998 4162 3516 3875 4677 2963 7 4353 3699 2711 3893 2619 3606 3338 4994 4105 4292 3234 2886 3877 3726 3017 3995 4251 3409 3888 2981 4257 4114 3327 4656 2773 4737 4215 4160 4948 4090 4948 2907 3390 4581 18 4 37 23 14 6 30 14 11 14 0 5 19 20 8 18 15 3 6 3 13 34 2 10 35 26 7 38 30 25 7 14 27 5 38 14 14 18 37 14 5 37 3 30 8 25 28 32 2 18 28 17 7 15 10 25 26 3 38 24 1 3 21 39 21 7 4 30 29 9 33 5 12 9 36 20 28 3 17 21 38 26 7 29 22 35 11 39 30 30 27 5 25 30 13 34 35 22 20 37 27 2 24 27 33 23 11 32 32 8 36 39 10
4424 2901 3364 3653 3356 3426 2749 8 4369 4031 4939 4300 4877 2756 4766 3606 4206 2961 3575 4453 3618 3785 4827 3613 3587 4267 3677 3853 3044 4480 3842 2590 4541 4963 3718 4518 3891 4525 4827 4694 2901 4932 4012 4818 4196 3334 3342 3008 4132 3948 4034 2683 4511 3215 3306 3085 4884 4664 3042 3165 2961 4410 3964 3320 3132 4302 2793 2858 3481 3054 3436 4976 4813 4883 4196 3352 3949 4448 3259 4699 3367 3855 3936 4857 3313 2599 2719 4393 3671 4391 3059 4828 4227 3822 4519 3213 2989 3859 4208 2925 3967 4583 2712 3560 2853 2956 2872 2689 3542 3723 4084 2753 22 1 14 19 21 32 7 33 13 15 8 0 1 3 28 7 21 38 2 13 37 10 33 1 26 16 19 25 21 35 6 21 23 1 21 1 14 31 8 22 29 37 10 2 33 38 29 26 14 22 8 13 18 10 5 29 15 10 28 2 26 32 1 11 38 6 26 36 27 38 39 19 1 33 34 5 10 35 4 29 19 19 19 2 33 10 3 19 12 35 2 24 21 25 8 25 10 22 26 36 31 16 12 10 7 18 2 16 35 19 16 24 4
2597 4914 3006 4218 3439 2681 4650 3369 2961 2820 3688 3062 3748 4647 4433 4711 3435 4558 3460 4315 4147 3214 4731 4634 3091 4735 4567 2735 4487 3539 4025 3211 4067 3812 4644 4975 3801 3145 3345 3463 4346 2624 4647 3909 4639 3711 4021 3164 2951 4713 3507 3778 4438 4492 4562 3361 2615 4453 4909 3373 2825 3426 4399 4929 3121 4032 4444 3073 3281 2955 2628 2926 4616 4055 4168 9 4131 4122 2548 4002 4720 2945 3130 4137 3785 4600 4998 3198 2702 4081 4050 3608 2530 3723 3214 3296 3308 4209 3621 3680 2837 2606 3755 3866 4976 2806 4207 4039 3838 3004 4108 2894 30 14 39 6 32 18 35 21 22 24 7 27 0 37 5 34 3 34 22 29 35 38 17 30 28 20 30 16 18 29 39 30 7 11 17 9 11 34 10 22 25 14 14 8 15 30 19 25 35 6 10 2 26 25 25 15 39 29 19 16 35 38 28 23 29 21 24 24 36 38 20 10 18 21 27 24 12 21 13 29 37 33 19 5 29 18 28 18 18 17 28 30 13 25 7 23 15 22 37 32 33 19 35 33 36 36 17 6 7 22 13 17 9
4705 3096 2900 2901 3723 4796 3107 2536 4579 3981 4848 3857 3034 2924 2720 3979 2839 2707 4211 3664 3189 2854 3195 3249 3990 4324 3696 2654 4077 3674 4837 2559 3244 3707 4127 3508 4100 4111 3094 3936 2720 4830 3007 4530 2595 2747 3018 2813 2685 4393 4907 2587 3652 2904 3564 4938 2538 3304 4942 4041 4598 3888 4949 3697 3930 3865 4568 3750 3690 2592 4545 4797 3094 3871 3032 3556 4305 4204 3999 3523 4775 3009 3772 4968 3399 3887 4023 3317 3289 4064 3366 3809 3148 4544 3502 4693 3180 3658 4379 2964 3240 2517 3667 2836 4998 3353 2867 3929 4434 3462 2525 3868 8 37 26 30 31 1 36 38 36 38 12 32 6 0 38 31 3 14 29 20 31 19 6 38 7 37 1 9 17 28 11 9 28 15 19 11 5 5 36 12 20 15 6 27 35 36 1 28 2 22 3 10 33 28 33 23 26 39 7 23 35 14 16 8 32 22 17 8 32 26 8 26 13 16 17 20 13 5 19 8 29 21 28 6 11 39 24 20 29 3 30 9 9 23 11 28 4 18 17 25 39 33 25 27 18 25 34 16 12 5 21 38 11
2742 2824 4495 4119 4289 4980 4199 2916 4943 4956 4309 4332 4286 4721 4764 2634 2576 2755 3518 4602 2712 2745 3237 4837 3268 2520 4649 4207 2952 2515 4327 2976 3120 2657 3408 4739 4885 4123 4073 3900 3346 2889 4631 2913 3165 3008 2922 3567 4106 3097 4385 4393 3941 3001 3720 4350 4419 3424 4204 4655 3926 4265 4429 3758 3429 4436 3853 2667 4391 2655 2942 2506 4758 4213 2801 4190 4655 2560 3106 3108 4095 2752 4902 3619 4796 2514 3287 4311 3679 3124 2509 4464 3082 4271 2642 2793 4701 3881 4324 2848 3229 4157 4418 4439 3197 3183 4249 3681 3510 3810 4614 3210 7 26 18 15 37 30 4 6 39 38 31 33 19 28 0 24 20 22 25 36 2 34 37 16 12 34 31 5 36 36 30 24 13 37 37 30 13 23 22 38 30 23 5 17 28 1 33 6 3 37 8 26 24 16 29 35 1 19 21 2 1 8 25 20 10 4 4 26 14 8 12 26 21 14 5 19 39 28 10 13 30 13 10 35 1 32 34 7 32 6 11 16 29 20 22 9 11 14 36 27 29 2 23 36 9 30 2 9 24 38 14 23 11
3427 2562 3991 4573 4045 4054 2680 4098 4418 4360 3060 3776 3446 4589 2729 4808 4598 3180 4715 3176 3510 4949 3259 4382 4016 2878 4757 3040 3799 2798 3420 2906 3429 3402 2591 2578 3237 3743 2649 2890 8 2936 4012 4989 4403 4819 4056 4707 4775 4990 4970 3233 4828 4619 3930 4904 2620 3148 2885 4340 3073 3694 4521 3249 4249 4398 3245 3451 3209 3372 3288 4413 3767 3780 4871 4310 3562 3083 4030 4523 3324 4545 4859 3512 3774 3009 4888 4270 3515 4889 2513 3703 4631 3919 3535 3521 4818 2653 2528 2774 3220 4069 4002 3894 2529 4193 4861 3966 3038 3723 3687 4458 34 12 8 24 27 26 13 30 20 1 22 29 36 38 31 0 16 13 36 7 37 2 25 29 34 2 9 37 24 8 2 36 27 18 6 20 1 20 22 2 25 35 12 27 36 5 8 39 17 29 20 26 31 31 29 9 22 18 16 20 24 6 34 27 1 15 8 28 4 35 35 9 38 35 36 30 4 24 31 5 30 7 25 7 12 39 26 3 22 19 30 31 16 33 1 21 36 21 18 1 21 14 31 4 16 38 35 16 10 3 19 7 21
3134 4978 3382 3902 3226 3910 2512 2830 2752 2709 3681 2844 3115 3051 3521 2961 2907 4492 3487 2623 3100 2915 4241 2744 4277 4866 4931 3489 4046 4853 3377 3799 4260 4299 2957 4056 4187 3128 4399 4351 3304 2521 3120 2789 2579 3677 4479 4101 4160 4926 2578 2663 3245 3564 2900 3006 3996 3607 2538 4336 3534 4144 2709 4667 2569 4646 3406 4839 2883 4721 2524 4768 4048 3812 2788 3440 3193 2581 2679 3639 2749 3953 2796 3547 4548 4236 2514 3743 4735 3005 3542 4111 3114 4274 3996 4424 2647 2918 3405 2703 3672 3713 3096 3317 3121 3339 4389 4414 3532 2593 4992 4207 38 18 2 16 35 5 21 32 4 5 29 21 18 10 17 4 0 18 13 32 23 7 13 39 34 14 21 33 36 37 28 25 9 27 29 20 31 12 1 24 1 37 2 12 8 7 38 7 11 17 25 16 7 9 31 16 36 35 12 29 22 7 4 30 3 16 23 2 32 21 24 12 33 30 23 3 36 20 14 7 33 38 14 15 2 36 5 11 16 37 1 20 5 27 21 38 35 33 35 34 12 12 17 13 7 26 2 1 1 18 22 12 10
3909 3960 3848 4219 2740 4298 2996 4589 2902 4394 4454 3905 4890 2853 4792 4346 4299 3593 4980 3960 3583 3084 2775 4224 3019 3245 3279 3564 4251 3816 2774 4063 8 4541 4668 4341 2574 3912 2769 4107 3528 3388 3801 3412 4375 4229 4864 2644 2825 2793 4954 4453 2688 3818 3946 2707 17 4911 2793 4484 3709 2766 4119 3085 4704 4902 4768 2883 3601 4184 2531 3617 4419 4070 3561 3133 3391 3856 3132 8 4160 4780 2618 4703 4191 3056 3718 3671 2946 3943 4732 2735 3591 4868 3555 3398 4966 3153 4004 4681 3924 4946 2856 4406 4643 4395 3337 3606 4136 3006 4782 3779 28 7 15 37 25 26 5 15 36 7 19 8 2 33 24 22 37 0 18 27 8 8 9 5 23 18 4 39 23 38 17 2 38 28 23 15 15 16 16 15 26 8 12 29 10 1 18 33 15 8 21 16 18 15 2 29 16 29 15 32 9 28 26 36 38 14 2 22 7 33 12 25 28 37 17 17 29 8 27 36 11 31 13 28 13 11 38 37 1 31 37 5 4 33 33 2 20 5 26 27 26 33 17 4 12 28 1 36 9 13 30 24 3
2973 2912 3791 4883 3725 3810 3837 4156 3157 4526 4093 2785 3968 3728 4088 4716 3101 3425 3606 4543 2677 3173 2981 3670 4867 2724 4132 2775 3417 3128 4767 4657 2664 3881 3289 3469 4998 3662 3882 3295 3210 2873 2536 2971 3908 4094 4133 4394 3850 3658 4229 2797 4928 4226 3186 3987 4899 3913 3433 3615 4754 2650 17 4926 4016 4959 3595 3449 3091 3838 2614 2954 2621 4381 4881 4570 4288 2500 3401 2995 3024 3948 2802 4953 3607 4317 2575 3165 4643 4623 4692 3008 4640 4281 4365 2843 4174 4875 3306 4684 4181 3892 4607 4387 3340 4283 4481 4572 4056 3514 4647 3924 29 31 36 32 3 10 20 39 28 39 32 14 7 27 27 16 12 10 0 24 20 39 26 25 19 18 3 1 14 19 27 23 28 15 11 7 17 11 20 5 3 5 4 5 37 13 22 15 10 28 33 14 39 16 9 2 11 27 26 7 31 2 29 5 27 4 9 4 26 25 29 1 27 3 35 20 19 5 9 14 21 5 20 37 27 17 2 20 33 8 23 16 23 29 14 15 18 7 38 32 13 17 35 20 1 22 7 20 10 38 37 1 12
3526 4887 3668 2519 4424 3972 4992 4051 4188 4108 4104 2650 4371 4983 3459 2521 4441 3028 4203 3452 4409 2917 4770 3957 4070 2879 3505 4098 4444 3391 3238 4977 3200 3311 3125 4098 4574 3602 3911 3848 3405 3480 3689 4244 4876 3069 3867 4717 3291 3620 3051 2506 4024 2872 4044 3531 4399 4224 4657 3937 2526 3711 4447 4874 3056 4140 4860 2722 3497 3895 4627 3095 3117 3041 4316 4628 3337 4645 4104 2818 3064 4575 4838 3361 3028 2515 2707 3124 4010 3602 2947 2910 4073 3592 4471 4442 4274 2932 4845 4302 2982 3945 4590 4193 4935 4442 4002 3707 3228 3091 2908 4054 27 30 8 32 6 2 14 31 4 31 13 27 21 20 25 34 5 34 36 0 10 34 1 23 38 11 15 28 36 10 17 34 10 31 36 15 20 1 3 18 4 11 17 13 30 13 5 1 10 37 34 31 25 3 28 31 31 8 36 31 35 21 21 4 2 19 15 37 21 33 8 27 39 35 29 7 38 32 19 4 15 36 9 31 38 19 19 31 26 9 6 19 5 1 6 27 10 16 2 33 35 32 31 27 11 25 25 2 12 6 27 27 3
4829 3047 4183 4291 3227 3897 3616 3972 4130 5 4315 4599 3650 2765 4529 4356 4440 4502 4193 4535 4210 2867 4139 4349 4885 4703 3412 3106 3926 3328 2543 4148 4540 3074 4492 4528 3474 3049 2522 4543 4719 2821 4005 2949 3103 2755 3261 4206 2760 4865 2931 4394 4912 3008 3992 3960 2559 2679 4265 3343 4312 3922 3269 4822 4083 3587 4189 3608 2958 4653 3522 2643 4501 2810 2779 3020 2719 2587 2609 2878 2918 4559 4642 4624 4104 4838 4681 3453 2638 3713 2994 3846 3549 2877 3035 3746 2856 3476 4923 3543 4309 3861 3777 3172 4230 3176 2562 4976 3918 3622 4798 2945 11 23 15 32 10 39 30 2 1 17 35 28 10 39 2 20 19 29 32 27 0 29 27 28 6 2 29 28 5 39 9 9 19 39 22 37 19 11 36 28 36 2 34 35 17 3 25 15 2 37 30 13 26 34 24 9 17 35 11 26 26 24 29 31 33 31 8 20 6 39 38 13 3 17 34 17 22 19 17 2 23 15 5 31 17 20 36 1 22 2 39 37 36 6 13 16 23 37 33 5 14 37 17 24 2 24 39 22 24 28 39 20 1
4166 4991 4865 3538 2643 3098 2778 3771 3820 2997 4710 3392 3826 3749 2708 3065 3507 4349 3077 4385 2989 2718 4800 2966 2612 4637 3376 3220 3993 4589 4066 2813 2883 4726 4189 3206 4076 4868 4970 2837 4584 4671 4892 2906 4079 2650 3073 2946 3805 3307 3932 4738 4893 4340 3801 3243 2607 3724 2829 3222 3498 2807 3412 3504 2589 3485 2771 4945 3881 4056 4040 4094 3106 4636 4874 3566 3964 3989 3438 2801 4140 3230 4297 4514 4851 3711 3337 2655 3457 3992 4041 3127 3654 3236 3259 3746 2695 3893 7 4047 4264 4124 4419 4714 4748 4682 2526 4735 4198 4732 4298 3052 18 1 36 3 29 17 20 37 34 23 20 28 20 34 6 10 15 6 27 24 29 0 2 4 38 2 21 6 5 23 18 21 20 24 23 21 38 17 38 34 34 17 1 24 12 17 26 25 38 37 31 4 38 32 17 19 39 21 29 28 8 20 25 26 37 18 36 34 4 1 34 32 29 35 30 8 10 27 26 38 18 1 26 35 27 4 33 20 10 19 32 5 1 2 21 38 6 9 29 6 39 20 16 16 36 13 35 8 25 24 8 11 2
3642 3220 3739 3329 3902 4471 4198 3528 2679 4692 3592 3183 2936 3837 3247 4372 4079 3953 4244 4497 2601 2725 3100 3544 3254 2877 2778 4736 4922 2619 3304 4702 3837 3256 4965 4573 4744 4546 4486 3040 3406 4880 3960 3440 4481 4607 4137 3064 3283 4859 2643 4540 4339 3197 3356 3819 4148 2701 3299 2731 4379 3622 4645 4140 4159 3384 2906 4085 3747 4836 2629 2746 3512 3258 3267 3357 4341 19 4933 4811 3198 3238 2763 4327 3813 4517 4136 3354 4188 2530 4450 4832 2802 3495 4835 4400 4926 3609 3482 2988 4416 2696 4678 4439 3734 3549 3351 3754 3963 4230 4720 3740 35 24 35 21 39 35 6 23 32 6 25 5 2 4 20 2 34 37 8 25 8 35 0 28 13 14 23 39 11 28 32 3 26 4 17 34 37 25 5 18 38 33 17 39 24 18 10 33 20 35 10 23 19 28 13 1 4 39 32 11 38 16 30 34 31 8 13 39 27 23 7 9 20 6 23 37 5 39 30 7 9 9 29 20 1 28 26 14 36 6 24 24 4 28 13 32 15 11 3 7 32 3 11 37 22 31 11 25 25 15 4 29 26
3176 4501 4209 3747 3619 4039 3668 4479 3728 3486 3039 4273 3985 3239 3134 3329 4986 4739 4971 4782 4861 2657 4848 4279 3882 3050 4520 3624 4052 4941 4595 4985 4950 16 3844 4074 3510 4815 3803 3071 2815 3690 3429 4347 4062 4476 3407 3999 4474 3433 2939 4285 3369 4158 4158 3616 3553 2832 3564 3454 3017 2815 2836 4223 4249 2657 4594 4290 4368 4443 4054 3548 4087 4818 2916 4027 3874 3532 3961 3667 3484 4536 3165 4738 4536 3303 4366 3903 4194 3793 2652 4884 2970 4966 3616 4267 3304 3003 4752 3153 4733 3082 4144 4631 4594 4731 3142 2502 3210 3004 7 3263 26 37 35 6 32 12 11 25 38 15 30 23 29 24 35 3 18 30 20 21 31 15 24 0 20 32 16 14 22 32 15 24 39 22 13 16 25 21 21 14 19 21 15 38 36 5 22 25 7 1 16 25 28 6 36 26 22 35 28 13 2 24 22 24 26 15 7 39 21 15 27 21 24 15 14 4 2 9 21 33 7 37 30 25 38 24 25 19 12 9 19 11 18 32 1 5 2 27 26 28 26 3 11 17 35 28 11 27 2 24 25 37 10
3401 3029 3820 3450 2983 2744 3932 4508 3706 4360 4348 2732 2547 3326 4422 4617 2613 3549 2993 4124 4942 4450 2708 3453 3461 4280 3258 4909 3114 2881 3563 3748 2730 3774 2955 4426 4583 4158 4063 2683 4770 2597 4846 4580 4077 3371 4574 3871 3825 3667 4319 3500 3013 2554 3704 4642 4795 2574 4507 3743 4445 4772 2745 3512 2548 4319 4579 4209 3481 2802 3809 4713 3539 4147 3939 2736 3222 3375 3505 4657 2602 4456 2672 19 4777 4361 3998 4386 3134 2915 2600 3255 4310 3134 2990 3220 4273 4833 3631 4989 4772 3877 2825 3379 3129 4121 2543 3842 2887 4943 2612 4561 19 33 22 16 17 10 33 38 24 18 6 21 4 4 1 27 25 24 18 37 19 38 27 8 0 11 12 7 17 27 33 34 21 23 1 24 14 22 30 37 8 16 29 2 33 22 25 15 16 19 27 35 24 23 37 37 10 12 20 23 6 4 19 18 15 38 15 29 30 8 12 13 34 26 12 8 38 9 4 15 16 10 30 28 31 22 24 2 5 1 13 34 27 28 39 3 34 28 36 18 15 39 27 39 19 21 8 25 29 10 5 6 12
2513 4280 4291 4848 3712 4349 4251 4352 4810 4791 3972 3473 3042 2712 2676 12 4529 4420 4620 3552 2991 4756 3388 4237 4302 3767 3016 4347 3508 3792 2513 4171 3643 3147 3847 4956 4143 4616 3964 2970 3319 4950 3414 2919 3724 2643 4403 4752 2607 3790 2946 4757 2545 2763 3211 4920 2983 2957 3507 12 4123 3558 4403 4255 4805 2883 4214 2957 3472 3609 4783 2674 2863 2894 3019 3609 2827 4309 3897 3408 3596 4906 4175 4814 3810 4172 2573 4355 3598 4688 3989 4249 3151 4493 4115 4533 3395 4277 4372 3181 3978 3477 4687 3029 3186 4333 4246 3256 3649 4400 2939 3913 19 9 35 38 18 9 11 7 10 30 31 35 29 16 4 38 12 36 24 21 5 17 10 33 30 0 35 38 17 4 39 27 10 39 28 38 29 12 1 4 16 9 34 14 13 17 10 7 23 39 31 11 20 17 32 1 30 17 10 37 30 23 30 30 20 1 39 19 34 33 20 8 3 21 8 8 12 16 8 28 7 24 27 16 3 6 21 2 11 16 30 37 27 14 4 30 6 8 25 30 13 11 29 11 29 24 14 39 6 3 34 19 25
3378 4931 4975 3290 4068 2675 3844 4073 11 3191 4765 3732 3717 2875 4567 4909 4562 2816 3062 4571 4446 3063 4377 4104 3717 3863 3289 3668 2748 3938 4771 3066 3985 3086 4808 2839 2688 3133 4820 3218 3242 4128 4812 3913 2834 3940 4335 3347 4213 3687 3982 3277 2944 4577 3084 2784 2788 4705 3813 4586 4845 4962 3999 4381 4399 2761 3634 4467 3482 4034 2878 2750 2566 4706 3517 4204 2918 4686 4036 4932 2634 3482 4476 4125 3446 3942 3618 2822 2521 2626 4505 3459 4157 3146 4313 4034 2690 4141 3445 4683 3674 3508 3033 3267 2595 2676 3363 3944 4934 4391 2707 3447 14 11 3 36 6 31 30 34 12 19 31 19 11 25 5 12 1 13 37 33 11 17 37 15 33 33 0 7 31 12 32 28 22 39 12 12 20 35 17 20 18 13 24 25 31 38 30 2 26 36 9 20 4 23 28 34 1 27 18 37 16 23 12 8 23 35 18 35 15 32 22 36 26 38 39 9 19 17 16 5 15 24 29 5 28 17 32 1 37 3 17 31 30 15 10 21 29 15 10 34 17 26 29 23 12 12 27 36 39 34 24 11 21
3640 3223 3971 4932 2625 3998 4148 4941 4585 4393 4895 3480 3510 4477 2530 4620 3709 2663 4504 4397 3405 3413 4275 3763 2678 8 3123 4393 2947 3214 3112 4499 3895 3213 2614 2689 2967 3717 4964 3409 2857 3249 2722 3867 2871 4174 4817 4237 4513 3485 3834 4140 4251 2948 2626 3988 3782 4020 4151 4119 4182 2683 4613 4942 2587 4601 2630 3920 4482 4253 4965 3251 4629 4862 3300 3556 3407 3113 3953 4614 3112 2811 4861 4386 2633 3868 3418 3396 3154 2839 4839 3492 3946 3698 4261 4773 2886 4228 4917 3026 3365 4797 4970 4449 4460 4761 3880 4245 2764 4997 2749 4132 27 26 16 23 7 19 26 9 22 38 29 14 13 6 10 1 10 26 27 8 17 27 19 19 8 28 4 0 22 28 7 31 13 2 8 8 18 38 23 38 22 14 33 33 14 38 35 15 5 10 10 13 7 19 37 30 27 39 36 13 5 20 8 1 14 6 20 37 30 27 7 1 3 24 33 36 38 9 35 30 34 2 27 18 15 7 3 2 8 16 8 32 19 24 16 25 14 17 36 5 6 18 20 30 1 31 24 3 8 18 10 14 2
2877 3114 2644 3649 4814 4600 4315 2558 4925 4098 3630 3830 4168 4822 3029 3914 3636 2975 4914 3103 2899 2574 3807 3348 3702 3959 4759 3872 3702 2880 2662 4843 3966 2662 3128 2606 2863 3399 3723 4540 3591 4424 4390 3146 3468 3593 2689 3783 4950 4299 4392 4060 4205 3563 4385 3224 2695 4476 4250 4887 3782 2636 3321 2783 4822 2594 3167 4289 4819 3600 4988 2835 2665 4946 3993 3125 4704 4122 4503 3157 4652 2806 4214 4695 2592 2715 4535 3020 2791 4003 4654 3233 3075 4691 2510 4771 3735 4345 3871 4163 2570 2935 3529 3021 2513 4161 3055 4609 3020 3999 3098 3813 22 31 25 35 4 8 5 30 31 26 23 19 38 5 9 36 35 18 19 13 19 36 37 12 14 5 15 12 0 3 10 23 39 18 22 30 28 37 24 38 33 16 8 15 3 11 11 25 33 37 7 36 31 4 22 38 34 30 36 15 17 15 37 23 25 28 5 2 36 2 31 12 11 17 6 15 16 31 16 9 38 2 5 31 2 7 31 11 1 34 27 32 12 12 16 8 13 25 25 23 13 14 21 22 24 28 19 16 19 39 20 15 9
4920 3428 6 3572 4591 3579 4547 2653 3448 3150 2850 3755 4002 3406 4692 4614 3666 3216 3990 4477 3068 3936 2848 4944 2705 2616 4658 4513 3825 2651 4296 4824 4685 4207 3166 4150 3517 2953 2880 4444 4167 3242 3859 3628 4008 2740 4435 3747 2582 3887 4669 4596 3636 4337 4939 4893 2978 3101 2697 4716 2688 4660 4648 3302 3932 2547 4511 3163 3410 3566 4544 3753 4146 2766 4344 4745 3909 4872 3997 3148 4660 2950 3215 3593 3773 3452 4754 4520 4949 4157 3210 3117 3906 3257 3002 2846 3651 3889 2551 4434 3225 2546 4694 3805 2937 3295 4763 3134 3663 4133 3509 4971 8 16 13 34 25 10 28 34 39 37 26 27 21 37 11 13 2 32 29 1 38 37 28 29 26 28 12 18 31 0 4 36 32 6 22 9 7 28 8 6 37 5 1 17 31 16 2 35 16 6 30 31 39 11 20 35 7 2 17 17 11 12 33 9 17 24 32 2 9 18 15 24 6 29 7 33 39 29 27 3 11 10 11 37 24 1 7 24 33 39 37 26 30 37 16 21 13 6 1 4 34 13 12 1 32 21 32 39 12 15 16 30 14
2628 2590 4513 4812 4669 3458 3422 3028 2660 4600 3346 4077 2996 4190 3574 3236 3722 2825 2729 2700 3528 3375 3882 11 4876 3932 3110 3373 3960 4291 3739 3802 4786 4713 2855 3394 4932 4396 2518 3489 4184 3385 4313 4644 3472 3146 2688 2504 3472 3847 4849 3458 2941 3871 3709 4343 4289 2745 2777 3991 4426 4635 4988 3657 4568 2795 3852 2927 4802 4456 4103 3573 4515 2904 2848 4076 3973 3535 3948 4059 4570 4503 3864 4599 4083 4549 3067 4692 3753 3569 2923 3021 3073 3709 4708 3787 4633 4695 4270 4157 2751 4648 4805 4343 4994 2884 3311 4820 2925 3752 3990 3759 36 35 25 11 12 22 35 25 5 2 8 39 21 28 19 12 12 27 3 2 33 30 8 7 14 35 23 16 38 24 0 4 14 6 34 23 30 27 27 37 35 35 14 15 11 29 11 2 24 5 27 10 1 18 24 15 15 8 17 29 28 16 32 3 26 9 4 34 28 25 32 28 33 33 12 33 11 3 30 31 39 38 5 22 18 23 21 30 5 35 27 36 7 7 1 27 9 2 5 1 29 25 39 1 25 35 10 10 10 30 22 35 23
2730 3630 2723 4174 2869 4717 2559 3564 2711 4508 3385 4365 3492 2548 10 4571 3225 4261 3273 4538 3440 2793 2932 3925 4581 3138 3758 4007 4941 3893 3781 4730 3761 3836 4688 4322 2556 2888 4576 2980 4062 3453 2883 2961 3809 3638 4191 4607 3394 3750 4786 4094 3231 4412 8 3489 2889 2563 3756 3761 2702 2559 3916 4896 3675 2828 4227 4835 2659 2944 3730 4746 3444 4190 4031 3560 2765 4094 3639 3592 8 3371 3770 4204 2713 3045 3087 2630 3207 4324 3100 4898 3549 3976 3935 4970 3886 3234 3058 3417 3795 3580 2725 4720 4939 3853 4502 3606 3372 4958 4324 4378 17 23 12 14 29 16 3 28 2 12 24 33 13 28 25 12 26 36 35 33 34 26 16 4 1 23 27 21 13 22 2 0 20 8 39 13 17 5 25 5 16 18 2 2 17 14 4 16 1 33 8 35 24 22 21 17 11 18 37 15 9 18 19 22 32 27 19 25 4 29 20 17 12 16 4 27 25 16 19 16 23 6 34 28 35 23 5 15 5 21 24 11 7 38 14 39 12 16 30 39 31 16 24 28 36 8 14 21 31 36 2 38 25
4947 3816 3063 3753 3904 4044 3669 4304 4092 4364 2570 4751 3023 4587 4583 4180 2913 4165 4703 4870 4297 3807 4416 4456 4892 4203 3864 3534 4659 4818 4117 2708 4130 4759 3684 4721 3777 4330 3352 2643 2744 4366 4798 4093 4285 3598 4496 3252 2729 4629 2968 4024 3172 4403 3382 4611 2747 2937 3630 3237 4688 4336 4315 3488 3964 2961 3491 4107 3463 2601 3675 4581 3236 3732 3739 2863 3491 4750 4241 4338 3254 2783 4674 4880 4685 3297 3250 4766 3786 3923 2749 3741 3718 4115 4999 4187 3358 3798 2801 3543 4266 4124 3178 2924 2594 3719 9 4165 4190 3667 3750 4308 14 15 36 21 13 39 23 16 17 3 35 29 1 8 25 21 26 16 27 22 34 27 13 10 28 31 4 28 11 39 10 17 0 3 29 21 24 24 37 20 32 7 34 11 24 25 32 33 26 36 38 5 39 27 7 14 20 18 26 15 27 15 23 33 30 30 3 10 32 31 23 11 25 16 9 17 26 5 25 26 26 34 15 25 34 22 18 28 23 9 34 10 2 13 27 25 24 32 30 16 20 16 29 34 39 38 30 4 32 9 16 12 14
2829 4017 4188 3488 2730 4853 3364 4748 4866 2736 4031 4342 2622 2901 3822 4019 3686 2708 2871 3862 2741 4827 4638 2982 4986 4176 3949 3515 3664 4113 3417 4558 4282 4195 4252 3469 3262 3920 3280 3169 3565 2854 3414 4966 4780 2781 4427 3631 4964 4485 4299 4939 4122 2651 2517 4701 4085 2920 2904 3026 3383 3853 2731 4073 3433 3176 2961 2760 3570 2588 2564 3889 2835 3255 2880 4172 4683 4054 3902 2558 2650 3323 2821 3063 4315 4649 3127 3985 4265 3739 2743 2668 2980 3866 2665 3805 2957 2509 4177 4164 3466 4154 3147 4020 2709 4352 3160 4141 4658 3892 3782 3566 22 22 15 26 26 21 22 22 8 39 10 4 33 19 19 37 28 29 26 30 30 31 12 20 9 6 6 34 3 34 8 1 28 0 3 23 15 27 15 16 20 39 24 34 16 16 7 29 18 33 9 12 18 11 7 15 12 5 29 39 37 4 15 21 22 23 7 37 2 1 1 38 9 28 19 36 7 38 26 21 3 34 34 39 17 8 37 25 27 25 12 29 38 38 9 17 24 8 37 17 13 31 26 16 29 16 3 18 1 17 19 10 22
3107 3861 3847 4563 3525 2735 3604 2554 2629 2799 3006 4169 2797 4686 3158 2601 4800 2593 3798 3217 3709 4472 4756 4201 3617 2894 4203 2643 4858 4422 2912 4852 4930 4107 17 2941 2960 4916 4966 2931 4006 4844 4460 2687 4595 3255 3358 3896 3413 4314 2981 3919 2894 4236 8 4605 2597 2518 4437 4870 3095 2847 4481 4762 4883 4260 4570 3085 3001 2806 3117 4346 3587 3805 3534 4273 3867 3600 4117 2578 3989 3221 3684 4897 4973 2779 4265 4534 4292 4532 4526 4323 2559 2820 3600 3652 3583 3815 3512 4876 4506 3614 3081 4389 3008 2592 2934 2581 3853 4740 3623 2789 35 15 24 25 12 23 11 2 12 32 14 28 37 9 4 21 22 39 28 29 14 23 37 6 17 39 20 8 34 39 19 16 5 3 0 37 36 6 23 31 23 14 16 38 18 36 22 16 9 7 21 3 10 30 23 4 2 34 38 17 17 36 28 27 23 31 15 4 35 39 27 22 30 16 7 19 33 35 13 2 22 30 10 14 6 13 19 20 32 33 2 27 29 36 14 2 18 32 19 34 29 12 5 27 3 27 4 6 25 9 2 15 31
4884 3871 4275 4751 4133 3335 3710 4563 3681 3398 3564 4530 3842 4036 2695 4168 2995 3768 2586 3719 3663 2746 3590 3691 3209 4676 3172 4897 3431 4974 2502 2932 4544 3167 2593 3678 4544 3629 3738 2910 4893 3565 4295 3979 3017 3566 2735 4985 4589 3993 4517 4828 3418 4647 3511 3939 3197 4907 4927 3862 4416 3403 3288 2593 2519 3152 3476 3703 4745 3852 4190 2915 3674 3490 2928 4815 3434 3122 3487 2779 3666 3392 3281 4113 4011 4050 4385 3707 4386 4161 3761 2873 2918 3757 4397 4663 3734 4159 2569 4780 4102 3647 4330 2939 4743 4230 3167 4965 2866 3378 3502 5 17 9 39 39 6 8 3 32 18 20 27 1 29 27 38 27 31 10 18 17 21 17 28 20 9 6 30 28 3 1 19 33 25 18 27 0 4 16 22 1 31 23 2 28 3 23 13 3 5 35 24 11 19 23 30 19 30 6 20 12 21 38 38 38 21 5 1 15 27 28 6 7 23 38 29 20 5 6 36 20 39 23 5 11 3 19 27 25 8 5 16 17 16 15 25 36 31 15 6 30 3 18 36 5 25 1 12 30 4 17 30 39 18
3199 3360 3477 2766 3819 4686 3848 4909 3400 4192 2609 4717 4049 4927 3747 4942 3043 2980 3546 4251 2742 3160 3240 4370 2619 4945 4127 4438 3645 4063 4507 4687 4555 3013 3160 3370 3959 4844 4333 4437 3277 4799 4356 3161 4669 4349 4631 3005 2552 3996 4235 4165 4209 4351 4603 4380 4886 4375 3051 4539 2875 3995 4842 3459 3735 3135 4468 4891 4923 3348 4168 3393 2606 2711 2951 3171 3554 3203 3636 4794 3489 3505 3321 4191 3237 3712 2751 4868 4786 2762 4161 3741 4428 4255 3402 3986 3777 3967 3851 4389 4971 2987 4387 4521 3333 3920 3251 2853 3627 2583 3165 4280 5 12 3 28 8 27 10 12 39 5 8 22 1 24 39 30 27 27 31 24 27 21 17 2 14 36 28 17 21 37 12 26 16 12 33 1 0 34 9 34 39 32 30 9 37 22 23 34 12 11 24 5 14 13 6 9 26 26 2 14 10 27 38 9 26 35 15 16 29 16 16 2 2 12 10 29 27 11 30 36 32 26 24 29 22 39 18 8 38 19 8 12 17 37 19 26 31 26 17 5 8 19 20 5 16 6 20 3 17 13 5 33 35
4724 4169 4918 4256 3255 2922 3039 3910 4456 3986 4598 4696 4548 4936 4252 2820 3157 4815 3505 3152 4538 4479 4349 3902 4504 4001 4518 2628 3012 3991 3316 3893 2718 3579 2512 3931 2741 3758 4735 2690 4845 3805 3804 4773 4106 4859 3393 4244 3066 4664 2962 4636 4877 2903 4887 2560 4961 4355 4214 2645 3017 3106 4236 2879 3347 4684 3997 3812 4372 3203 2533 4871 3918 3890 4623 4634 4702 3623 4000 3124 4643 4161 4058 2538 3019 2868 3678 3963 2752 3209 3453 4158 3383 4967 3208 2856 3546 4278 4077 3268 3023 4753 3819 3736 3606 4257 2640 4550 3712 4737 2903 14 10 21 12 6 14 27 3 28 26 2 12 3 23 33 17 29 15 5 38 21 14 34 23 39 33 29 9 4 1 29 17 6 20 4 4 16 10 0 38 29 6 28 4 4 34 4 35 38 31 2 1 35 16 7 3 11 14 22 19 5 25 28 17 20 1 36 37 8 16 9 35 30 14 11 19 35 7 27 13 15 21 13 18 36 35 5 22 6 33 3 26 29 9 34 18 15 21 19 34 35 24 5 29 33 14 31 14 21 32 31 33 23 7
3579 4521 3411 3331 4479 3100 4722 3768 2879 4049 4001 3015 4435 3901 4950 4990 3972 4664 2960 4447 4521 2865 3810 2592 4894 4804 2600 4336 3515 3245 2940 4271 3079 2922 4017 4045 3612 4466 2975 4640 3070 4455 2762 3717 2870 3599 3217 4678 3174 4809 4754 4675 3499 2754 3255 3055 3567 4501 4280 3957 4343 4810 3991 3590 3067 3579 3577 4797 18 4468 3878 4535 4596 4107 4470 2718 3694 3041 3407 2974 4651 2950 3014 4755 4905 3292 4264 3180 4639 4545 4594 3454 3133 2919 4304 4526 3922 4878 4292 6 2849 4084 2905 4277 3299 3109 4275 4477 3612 3409 4767 3581 35 8 8 26 28 7 39 23 30 10 7 22 6 29 38 21 8 12 34 32 31 27 4 18 18 29 7 18 24 6 10 11 19 39 20 10 27 27 0 31 18 2 32 21 6 27 2 15 26 11 22 34 5 27 10 3 3 8 24 38 26 28 34 32 24 24 24 13 31 32 6 6 13 24 7 36 24 39 39 34 12 22 34 12 36 24 8 24 33 18 34 24 12 4 24 28 11 36 11 22 37 38 33 3 17 4 36 23 22 29 26 23 9
2847 4313 4382 4700 4929 3358 4791 3647 4667 4218 3126 3539 4355 4812 4080 4083 3891 2786 4231 3504 2867 3678 3519 3004 4691 3105 4925 4676 4517 2610 3974 3814 2567 4595 2852 4980 3220 2714 3231 4801 3605 3294 4211 2914 8 3473 3864 3175 2624 3987 3635 4245 2946 2745 3705 2985 4839 3951 4803 4721 3971 4096 3712 3007 4301 2707 3090 4179 4298 4010 4381 4782 2782 3626 4729 4114 2945 4473 4801 2613 3121 4520 4189 4685 3738 2603 4632 3945 2776 2809 2719 2934 2780 4835 4323 3052 3199 3478 3727 3380 3919 3128 4335 4952 3904 2745 3493 3953 2594 4446 3433 3956 25 19 15 38 12 1 18 38 29 8 39 28 28 16 6 18 2 25 3 23 35 22 7 29 36 13 1 34 36 31 10 25 31 9 23 4 21 18 33 0 6 10 31 8 37 19 24 29 11 31 22 15 4 5 18 11 27 25 12 14 6 8 17 31 32 8 37 22 21 26 11 17 27 14 3 27 23 36 28 34 10 11 9 2 25 32 32 15 9 8 30 4 13 1 17 32 13 18 4 1 19 21 18 1 32 30 15 36 16 32 16 1 9
3213 3230 4325 2941 4578 4381 4946 2547 4258 2929 3759 4598 4533 3059 3031 4947 4766 4605 3062 4249 3086 3780 2735 4899 3167 4777 4775 3446 4297 3555 3976 4300 3830 4684 2640 2550 4553 4942 4404 3612 4832 4381 3292 4371 4946 3953 4715 2547 4295 3252 3670 4145 3643 2780 2739 15 2640 4179 4378 4002 4875 3540 4112 2800 4220 2725 4726 4904 4875 4237 2590 4136 4919 3019 3250 2703 4860 3305 3300 3673 4615 3572 3250 3343 4092 4936 3943 4995 2906 2801 3480 4875 3555 3130 3079 4650 3813 2974 3235 4032 4274 4426 2553 2831 4265 2943 3477 3180 4705 2857 2609 3906 9 36 4 30 1 32 35 26 34 26 35 28 33 1 38 30 3 17 23 12 6 5 4 4 18 4 28 33 5 9 4 24 17 10 30 29 14 5 32 22 0 21 32 8 23 4 29 8 6 1 17 15 7 25 36 38 8 8 25 21 16 3 8 3 23 31 36 22 6 2 34 11 20 9 33 4 10 29 8 21 29 28 22 25 18 20 32 39 19 20 32 3 36 25 18 14 25 31 37 33 37 15 16 4 6 19 18 27 14 20 10 13 20
4184 2694 3372 3034 4892 2894 4398 2813 4569 2874 3160 3006 4712 4816 3572 3066 4800 3388 4398 4191 4625 2767 3430 4609 3620 4321 4728 4330 2544 3585 3337 4468 4013 3470 3580 3586 4594 2674 3835 3470 3904 3033 3683 4820 3786 4920 3672 4455 2900 4161 3410 4697 4421 3288 4282 2778 3508 4659 4946 4160 4248 3867 4148 4941 2643 4333 3127 4251 2629 4392 4469 4133 4297 3004 4327 4627 3149 4504 3099 4582 4459 4213 4231 4651 3096 3590 3887 4928 4043 3482 4796 2944 4364 3618 3819 4695 3090 3428 4824 3109 3674 4610 3563 2540 4753 2570 3419 4323 4444 4910 4078 4045 24 33 12 13 1 27 7 17 30 8 25 5 1 38 26 39 15 9 4 29 34 39 9 15 38 2 36 6 6 17 15 39 38 5 13 14 22 39 14 31 11 0 34 29 29 15 10 4 6 34 6 26 14 1 3 10 21 10 36 25 32 39 11 27 39 4 3 23 18 2 21 30 3 36 5 19 33 16 31 35 38 14 22 4 10 3 4 24 9 2 27 12 35 26 23 29 18 27 7 29 7 12 35 29 17 13 10 16 17 9 9 5 25
4645 2632 4204 4351 4464 3668 17 4870 4962 3404 4789 4264 4707 4983 4976 4391 3782 3049 3493 4085 3051 3559 4347 3083 4290 3418 4415 4043 2905 3716 3013 3984 2908 4933 3842 3262 3726 4769 3086 4281 4787 3035 4417 4579 4455 2735 3318 4695 3966 3931 3678 4210 2728 4263 3303 3253 3982 2663 4170 4544 4046 4739 3326 4034 4330 3521 2556 3316 3138 3558 3760 3365 3044 3405 3837 3796 4294 3878 3383 4239 3712 4071 4769 3947 2890 4814 4780 3860 3212 4772 4016 4782 4600 3031 4298 2749 3251 4501 2776 3928 2680 3658 3241 3724 4887 3607 3834 4181 3887 2847 3256 3954 12 34 17 10 10 7 30 10 34 39 36 7 11 12 13 20 9 19 29 6 29 23 4 38 37 39 12 32 9 24 14 24 21 23 39 16 11 15 12 36 1 14 0 8 23 12 8 21 20 17 16 6 21 11 5 22 26 31 9 5 29 18 31 30 8 34 19 27 15 13 5 29 5 1 17 12 28 15 18 1 17 33 5 12 28 35 18 11 20 2 25 22 34 35 27 14 29 30 37 32 18 19 22 20 25 30 19 34 22 7 15 36 13
2933 2780 4065 2835 4668 3957 4611 2628 3535 2790 4325 4962 3401 3323 4897 3509 3430 3651 2688 4375 3571 3225 4170 2505 4792 3112 3130 4289 2635 2835 2514 2746 2975 4472 4419 4206 2873 4646 3784 4753 4966 3031 3224 2814 3635 3404 3218 4063 2976 4301 3655 4308 2650 3190 4387 2742 2642 2846 2618 3064 3198 4249 3928 4097 4983 4997 4812 3944 4035 3354 3559 3299 2560 4077 2905 3549 3989 2816 3147 3831 3939 3384 4216 3513 4622 4985 3552 4474 3036 2896 4430 7 4868 3431 3187 4629 4144 4519 2529 2660 2918 4128 4087 3350 3881 13 2910 3387 2749 4514 3238 3986 24 18 14 34 3 7 39 24 22 31 7 3 2 39 15 18 18 14 29 37 29 30 14 11 6 38 28 17 38 16 33 15 17 19 10 30 22 31 4 14 8 14 29 0 29 8 29 26 15 37 10 5 21 15 35 27 34 6 10 1 12 23 13 39 39 35 39 15 22 28 11 7 12 27 6 4 22 16 11 24 28 21 36 8 23 6 10 21 39 27 13 2 24 24 28 16 9 27 11 39 39 4 14 12 26 24 15 6 35 2 16 23 5
3579 4812 2532 4529 2699 3693 3575 3640 4808 3763 4090 3338 4637 4992 4575 4242 4329 3808 3837 3946 4901 3032 4550 4882 4491 4327 3524 4916 4218 3514 4072 4277 3856 3308 4028 4429 3287 4560 2928 3083 2970 4839 3132 3452 4662 4696 2798 3648 3375 4348 4375 2553 3696 2592 3636 4539 3046 2898 4370 4305 4283 2676 4238 4613 3463 4575 4890 3233 4227 4831 3622 17 4669 4154 3713 4601 2912 4735 3153 3066 4683 3117 2812 3087 4069 3663 3622 3369 2671 2730 3603 4448 4283 3061 3534 2575 2618 4198 4165 3169 3270 2749 3920 4419 4626 4043 4294 3332 3951 4758 4004 4549 11 13 2 3 27 4 35 24 2 15 21 20 31 31 22 32 33 34 9 2 9 30 18 22 17 5 3 34 1 24 12 31 14 1 31 20 10 19 11 9 37 21 17 24 0 30 16 17 7 9 17 27 25 33 15 28 3 3 8 3 9 28 25 16 28 35 4 28 10 22 35 25 38 36 30 24 20 33 34 18 10 5 27 5 21 32 19 38 14 35 23 29 28 11 25 39 27 2 1 4 32 25 15 4 7 39 14 20 35 4 14 31 12
4360 4536 4828 2860 4019 4595 4370 3098 2732 4522 3588 3333 4973 3448 4199 3427 4994 3462 3117 4607 3407 3162 4307 3229 3333 4950 3597 3654 3230 2582 4633 2657 4833 3537 4289 2579 2774 3417 2900 2623 2876 4944 3059 4917 2981 4190 4350 3754 2728 4595 3385 2732 4554 3357 3697 2632 4273 4780 4414 4249 4089 2848 3753 4483 4479 4008 2943 3313 2595 2656 4041 2895 3267 2872 3097 3720 4324 4554 4768 4604 3404 3972 4754 4163 4240 4891 3453 4955 3379 4154 3776 4281 3685 3278 3453 4335 3457 3759 2829 3007 11 4841 4132 3967 2505 4889 3241 4487 4988 3009 3501 4408 11 17 23 25 37 12 5 5 21 1 39 24 23 23 10 34 15 27 17 16 5 35 32 4 33 1 26 30 33 23 24 19 9 29 26 25 31 2 14 30 34 1 24 20 18 0 4 28 11 13 15 33 18 1 29 37 21 17 15 30 28 27 27 25 39 26 36 30 7 37 6 7 18 15 2 31 2 24 39 34 32 23 2 1 20 19 38 6 10 16 7 37 10 10 30 24 37 34 39 32 16 28 18 8 25 37 38 18 38 10 1 23 2
3960 3133 3239 4737 2709 3624 3289 4363 3776 3904 3604 2832 4325 2892 3450 3209 2641 4075 4547 2547 4257 3513 2640 4243 4935 2822 14 4048 4393 2951 2911 2662 3356 3459 4894 4363 2635 3046 4334 4980 4089 4911 4593 3241 2571 2864 3615 3724 4502 3989 3641 3573 3813 3505 4601 4966 4327 2517 4883 2831 2698 4301 4365 3774 4891 4999 2604 3121 3271 4037 3397 4867 2842 4044 4454 3748 2743 2825 2906 3716 4680 3500 4599 3955 3902 3356 4701 4113 4753 3102 4982 4007 4084 2541 3266 3144 3317 14 4160 3017 2851 3546 3148 3233 4714 2751 4684 3050 2577 4280 3084 3077 24 25 34 26 18 13 20 24 16 33 13 27 16 15 1 16 9 22 29 39 13 3 8 12 39 6 25 27 5 15 16 9 11 5 30 17 20 8 15 36 25 2 27 3 33 36 0 39 19 1 2 37 3 16 28 7 16 3 17 8 6 34 5 38 35 2 9 36 5 26 17 34 11 6 13 7 17 38 12 30 26 27 9 32 38 2 21 27 4 6 6 28 28 16 28 11 24 30 36 36 30 1 27 24 28 27 35 33 16 37 25 13 26
3426 4815 3867 4076 4357 2500 4370 3737 4044 4585 3740 3663 4705 2611 4353 2802 3920 4315 4135 4362 4977 3287 3606 3100 4671 2956 3762 4572 3580 3458 4373 4592 2959 3184 2874 3980 3476 3246 4593 3958 3925 3845 4505 4441 3367 4372 4159 4331 2938 3740 2509 2915 4872 3418 2608 4726 4220 3692 2653 3873 3683 4583 3853 4537 2768 3214 3351 2640 2838 4117 4432 4427 4930 3351 3744 4695 3069 3470 3428 2807 4403 4751 3819 2818 2659 3252 4664 4251 4410 3771 3730 4710 4799 4544 3867 2680 4801 3569 3933 2919 3097 2802 4109 3852 4155 2757 3499 4563 3774 2549 2988 4546 1 9 30 14 28 18 27 32 37 6 13 4 11 36 5 2 29 1 22 23 24 36 21 13 31 27 20 35 22 14 16 23 11 9 23 9 21 35 31 4 31 27 19 26 8 13 25 0 19 26 3 26 17 2 39 32 20 36 24 15 9 38 27 35 29 34 3 20 37 10 37 34 35 28 13 15 30 28 29 1 8 15 25 27 11 19 21 19 37 19 31 25 10 16 2 26 24 20 4 30 36 2 25 9 5 32 35 21 17 26 1 34 38
2644 4405 4920 3346 4649 4064 4925 3228 4167 3534 4938 3366 3199 3511 4525 4640 3975 4050 3757 2951 3903 3849 3528 4678 3338 4725 2795 2683 3958 2601 3583 3129 4667 2744 3596 4343 2863 3270 2698 3431 3790 4589 2886 3774 4305 4430 2928 3928 2542 4376 3791 4999 4528 2910 3944 4782 2658 4217 4417 3354 3670 3156 3450 4954 3890 4312 3003 4786 3878 2505 3669 4638 3946 3372 2987 2671 4622 3360 4100 4526 3545 3306 2733 2583 3692 4249 3835 4491 2837 4816 2915 2509 3299 2881 4852 4197 4437 3053 3121 2668 3251 3730 3606 3651 2947 4815 3091 3646 4540 3896 4563 3255 29 15 11 19 13 10 26 17 33 30 2 34 10 21 35 8 20 11 7 37 13 20 24 10 13 2 5 29 6 37 26 38 4 3 13 23 34 25 19 16 13 2 2 30 36 6 4 12 0 6 37 20 9 3 7 26 8 13 12 24 23 26 2 37 2 37 12 20 21 23 6 24 1 10 9 19 39 32 7 17 32 36 20 25 10 18 9 10 34 19 3 37 18 14 19 27 4 38 20 25 16 22 30 32 8 22 4 22 38 1 7 28 39
4735 2772 3216 4716 4664 4405 3017 3226 3926 4282 2809 4197 3204 2538 4258 4564 8 3281 3732 3501 3210 4958 3732 4254 2861 4402 3184 3157 4591 3448 2825 3354 2686 4584 4846 4704 3871 3136 4831 2725 2892 2509 3318 2534 3785 3641 4360 4631 2987 4284 2696 4930 4111 4629 3476 3268 2641 4673 3276 4967 4518 3050 4280 2642 2996 4683 4839 3506 4670 2647 4232 4178 3916 3555 3500 3348 2910 2991 4027 4519 3435 3504 2725 3584 4659 2866 4225 3785 2667 3463 4568 2960 2937 2549 3094 2536 3611 3108 3943 2548 2956 3364 4175 2988 3278 3396 4811 2604 3331 4150 4984 4866 33 6 37 14 38 13 6 24 28 7 18 3 7 33 37 39 9 15 8 10 29 16 4 9 9 27 39 34 39 26 17 6 21 24 10 14 21 14 9 14 33 21 1 25 26 36 3 20 1 0 11 30 29 20 14 15 33 3 8 32 9 6 5 37 28 21 2 21 16 2 38 33 11 36 20 5 19 1 26 38 17 28 34 8 19 34 33 32 12 19 29 27 39 29 7 5 36 4 22 38 39 7 4 23 18 25 33 3 18 33 29 38 12
2558 2838 3851 3976 3725 3690 4956 3905 3799 3838 2624 3900 3847 4248 3622 3659 4488 3505 3478 3188 4965 2687 2595 4855 4361 3355 4003 2745 4373 3405 3823 4168 3603 3629 4948 4181 4475 3940 4368 2575 2526 3982 3338 2879 4798 4593 3227 4667 4687 3075 4323 4789 4659 4347 3390 3500 3635 2602 4421 4184 3454 4678 4768 2820 3581 3029 3963 3267 3557 4406 4295 3719 3211 3386 2949 3885 4347 3193 3217 4912 4080 3861 3596 4859 3843 4064 3518 3409 4245 3453 3652 3148 2801 4528 3513 2555 3466 4195 4954 4276 3574 4590 4395 4340 3200 2884 3889 3065 2665 2564 3864 3042 12 1 37 17 19 21 12 10 11 36 32 31 22 38 26 30 4 6 20 31 11 8 29 18 2 31 7 29 28 30 33 6 38 7 35 28 34 27 28 27 26 6 17 28 14 33 21 13 28 8 0 4 36 37 13 29 22 35 36 4 8 10 23 33 11 32 28 32 39 29 2 26 9 31 2 34 6 19 22 27 17 21 38 22 12 20 14 16 16 38 2 3 11 16 11 13 16 19 27 3 30 37 31 25 11 30 27 10 29 6 34 23 2
2635 4736 3062 3239 3439 3302 3278 4543 3423 2561 4604 3919 4689 3054 4500 3000 4234 3412 4612 3591 4940 3273 4719 4589 3866 4063 4880 3791 2783 4095 3345 2792 2980 4736 4114 4081 4753 4007 4184 3285 3420 3848 3404 3601 2599 4963 4370 3877 4584 3727 3508 3532 3669 3824 9 4517 4312 3627 3029 3929 2759 4967 4937 3238 4235 2532 9 3615 3553 2554 4481 4806 2653 3117 3954 2889 3938 2658 4129 4125 2698 3887 3374 4681 3101 4356 4341 3037 4184 2610 4618 2939 4596 2720 3757 3067 3642 3599 4859 2530 3590 4598 3010 4085 4291 3589 4430 4142 3481 4120 3910 4827 39 11 11 28 12 28 27 2 6 18 32 33 19 4 28 25 6 31 30 5 2 37 19 5 37 39 17 9 19 1 26 23 32 29 23 31 32 37 24 14 27 9 22 24 31 20 24 33 38 34 31 0 23 30 29 19 28 16 7 33 5 13 37 17 23 22 34 24 9 13 2 4 15 12 21 28 24 37 20 26 9 10 11 12 5 15 16 31 29 33 27 27 13 34 4 6 33 7 21 27 25 26 5 11 3 30 31 24 32 6 24 18 7
4156 4540 4239 4760 3620 4142 3573 3653 3000 3907 4772 3726 3672 3342 4021 2720 4274 4211 3181 3292 2872 3772 4954 4527 3799 4665 3495 3110 4493 3641 2640 2730 3335 3143 3236 4785 4187 4011 4740 3531 4338 3725 2957 3239 4208 4327 15 4687 4498 3445 4389 3647 3481 4444 3962 2604 4460 4376 4481 3949 4598 4475 4247 3803 4797 4086 3450 4483 3280 3607 4038 4975 4832 2722 3601 2533 5 4356 3884 4469 3681 3577 4669 15 4034 2663 4007 3546 4413 4824 2624 3952 3390 2982 4817 3615 4775 3658 4187 4871 4812 3589 4952 3959 4050 2759 2537 3338 2665 3350 3564 2523 5 3 35 38 17 38 32 1 15 5 34 18 23 39 31 34 22 7 3 6 18 22 22 7 36 11 37 24 7 23 13 7 14 23 15 6 14 34 25 33 22 10 1 15 14 3 39 7 27 33 21 15 0 9 18 18 9 10 35 26 24 36 18 11 25 16 4 23 35 30 23 34 34 16 6 18 31 10 34 2 33 39 16 1 10 24 2 4 2 9 16 1 1 31 12 28 31 5 15 14 21 37 6 33 22 6 3 22 17 10 28 6 23
6 3507 3197 3471 4646 2655 3193 3546 4692 3531 3040 4894 4295 3821 3285 3297 3641 2530 3121 4574 4232 2889 2802 3608 3808 2518 3932 3234 2649 3213 3242 3657 3923 2656 2505 4782 3189 3635 4662 4438 3933 2965 3993 4984 3806 4666 4077 4671 4124 4345 4230 3967 4737 2664 4374 3145 3305 4916 4804 4638 2918 3836 3356 2822 3465 4579 2732 2523 3142 3022 4393 3180 4830 4898 4413 4650 4577 3728 4320 3360 3983 4670 3082 3624 4411 3735 3007 4651 3501 4489 4253 3242 2990 3634 3831 4905 4831 3043 4594 2904 2787 2677 3695 4897 3003 2587 4848 2763 4570 4530 3534 13 24 32 11 9 4 26 1 33 35 11 3 3 23 15 39 4 2 10 28 29 5 24 15 5 39 32 20 8 33 14 27 12 28 21 32 32 17 7 34 28 39 15 9 19 4 17 19 10 23 3 3 14 5 0 34 28 2 38 4 36 29 8 5 12 28 17 27 18 23 7 23 4 4 24 33 28 24 31 21 14 25 38 23 16 14 4 35 37 24 8 9 30 25 21 23 24 11 25 7 3 28 28 37 39 1 7 32 39 5 34 36 32 10
4648 3411 2506 3762 3889 4395 3167 4790 2945 2939 2693 4984 2978 2662 3483 4978 3377 3026 3404 4693 2960 3361 3754 3639 2702 4615 3095 3032 3188 4794 4987 4094 4484 4462 4782 2691 4432 3412 2546 2754 3371 4068 3552 3669 4085 4095 4376 3282 2676 3159 3015 4980 3444 3452 3968 4015 3026 4284 3539 2566 3345 4715 4124 3220 4078 3767 4719 3340 4459 2572 2702 3902 3662 3110 3756 4246 4146 4474 2525 3908 4927 2981 3825 2944 3953 3903 2762 3533 4726 2909 4966 4015 4778 2720 4684 3758 4963 3516 2937 2779 3555 3817 4008 4751 4011 3731 3185 2677 4038 4915 3719 3380 3 35 16 9 11 34 11 32 2 30 14 15 17 14 33 26 17 24 24 9 10 29 1 33 32 2 35 33 20 7 37 28 31 18 7 21 33 13 34 12 29 20 3 26 35 34 8 21 26 12 3 5 39 2 0 9 16 23 3 1 26 33 11 39 5 32 2 6 10 8 19 19 4 24 14 21 11 31 25 5 20 28 17 11 1 34 28 39 1 29 2 25 3 16 23 17 16 32 7 2 38 8 25 12 2 38 4 30 20 37 24 31 10
4815 4218 2655 4800 3740 4130 3692 4338 3587 2808 4100 3387 4298 3276 3118 3140 3692 3430 4502 2909 3704 2860 2635 2745 4988 2968 2707 3701 3596 2649 4417 3300 4488 4945 4140 2811 4512 3585 4624 2972 4113 4361 2992 4908 2931 2992 4625 2646 3429 3202 2748 3678 4404 4887 4689 2947 2506 2705 3510 3363 3661 2934 2726 4698 4210 3062 4737 3908 4933 3299 3560 3590 2910 4647 3543 4637 3722 2691 4253 4212 3560 3402 4589 4860 2737 4879 4703 4188 2801 3759 3278 3918 4718 4420 3098 4748 2818 4255 4091 2752 3667 3057 3380 4769 3705 4150 4345 4256 2548 3047 3755 4252 18 12 20 3 16 30 19 4 39 19 6 8 15 35 8 26 35 13 8 21 6 34 12 30 19 21 19 35 24 24 32 20 11 5 30 31 8 34 23 15 24 1 32 10 19 32 4 20 6 29 1 17 34 2 19 0 26 9 25 38 8 6 11 8 35 29 15 38 7 1 31 7 26 22 38 33 2 5 10 28 17 8 35 7 20 12 14 22 8 8 1 15 2 22 29 38 13 29 21 34 18 12 7 2 37 1 27 19 21 16 11 25 7
4487 3435 3172 3721 2866 4018 4754 2809 3876 3867 3955 4224 4455 3036 4514 3718 4585 4909 3893 4217 4098 2737 3653 4516 3034 4795 2514 4154 3254 3490 4902 2678 2710 4598 4753 4813 4498 4838 3003 3919 2912 3467 3398 3530 3305 3407 4276 2527 4415 3236 3226 4237 2514 2960 4322 3686 3761 3225 4686 2903 3436 3608 2559 2517 3980 3058 3026 4159 3758 2876 2794 3988 4258 3486 2543 4128 3631 3655 3795 4781 4007 3706 2849 3115 2878 3086 3201 2571 3788 2616 2521 2653 2645 3566 9 3790 4987 3914 4080 2918 4898 2513 2511 3870 4875 4353 3540 4087 4209 3302 3951 3683 8 35 36 24 18 32 15 16 10 39 18 8 31 3 23 27 24 14 3 6 6 4 14 31 39 39 25 27 11 9 8 38 7 13 38 19 8 39 10 38 31 26 20 33 12 25 11 34 13 32 36 5 14 12 32 18 0 32 36 10 32 17 22 5 29 15 32 3 4 21 26 27 1 39 9 1 5 34 22 31 11 21 2 17 30 23 31 37 14 5 17 32 8 31 29 2 34 1 5 31 28 39 33 29 38 28 16 15 24 31 29 36 13
4413 2915 4659 3457 4559 4890 4289 3809 2919 2762 3336 3898 3926 3779 3869 3422 4215 3037 2564 3716 2544 3866 3527 3015 2960 2843 4523 4022 4667 2615 3640 4693 4777 4334 2543 3891 3704 4682 4884 3722 3264 3373 2825 3148 4818 3616 4573 4444 3490 4260 2737 3865 3909 3008 4096 3430 3014 4388 3810 2730 3789 3483 4847 4529 4063 3926 4690 3711 3569 2553 4907 3736 2650 3112 3269 2793 3367 4388 3143 3133 3570 3313 2532 3638 4558 3839 4230 3968 4001 2986 2663 4306 2953 4599 2782 3566 3931 4227 4855 4724 4066 4970 3805 4183 3917 3290 4494 3119 3515 2923 4765 4194 17 19 30 22 20 28 22 11 12 13 20 21 39 33 32 26 13 5 25 29 29 35 28 30 34 35 18 22 26 17 22 29 9 10 17 2 38 18 23 36 13 17 31 22 4 28 20 11 30 10 7 12 12 23 22 16 27 0 32 1 4 23 31 28 18 7 29 37 2 11 25 22 23 33 2 27 1 14 6 36 26 20 15 35 10 30 10 34 27 29 30 32 12 19 24 27 34 22 21 2 29 8 25 36 39 26 2 5 39 17 20 7 21
4708 4611 3336 3941 3484 3166 3171 2704 3282 4250 2569 4086 4030 4814 2830 4377 4619 3715 2653 3436 3508 3809 3153 3105 2842 2688 2639 3032 3830 3494 4533 3658 3441 4039 2601 3284 3405 3173 2877 3804 4144 3944 3951 2814 4914 3769 3257 4139 4072 4100 4295 3744 2618 4031 2709 4756 4905 3848 4168 4898 3618 4701 4967 4569 4638 3519 2719 4749 4646 4646 2690 3992 3610 2645 4453 2867 2662 3989 4594 4370 4305 4318 4511 3989 4805 4580 3410 3978 4145 3409 4560 3826 3734 4858 2568 2559 4652 3903 3705 3904 4953 3985 3434 3220 4608 4780 2602 2523 3040 3392 4766 3226 33 12 33 35 18 14 4 10 25 36 23 15 22 7 17 38 12 19 8 3 2 39 18 39 39 39 31 24 27 39 13 37 17 33 36 10 7 10 34 26 31 34 8 34 4 38 12 7 10 9 10 23 14 13 27 7 27 21 0 33 20 33 12 36 13 25 21 37 32 8 39 22 22 7 24 19 30 38 33 10 15 4 27 8 38 39 19 37 26 35 18 11 21 14 24 17 31 18 23 21 1 12 29 12 12 29 3 17 34 5 23 37 17
4806 3115 3597 2698 4884 4922 3471 4919 3546 3137 4760 3999 2999 4562 4301 2957 4954 3350 4238 3797 3426 4479 3216 4912 3467 4605 3187 3849 4057 4931 4882 4440 4985 3895 4928 4767 2819 3378 2969 3564 3723 3107 3156 3723 4121 2867 4894 2741 4978 4395 2899 2748 3550 2580 3286 2753 4445 3575 3005 3589 3081 4491 3113 2509 4955 4163 2669 3119 2767 4026 4320 2753 3279 2951 3638 3408 3650 2925 3966 3614 3367 4100 4511 2730 4174 2897 3845 3134 4701 4248 4030 4828 4252 4869 3875 3528 4556 4285 4650 4610 2808 3818 16 4167 4277 3392 3943 2903 4700 4259 4507 3513 21 6 1 24 11 14 17 7 2 13 15 30 29 34 5 10 30 7 11 39 8 18 9 35 17 14 9 26 9 2 10 15 20 26 6 8 30 17 26 26 29 33 32 35 39 14 36 13 16 7 25 36 31 19 37 31 5 15 10 0 9 9 7 15 39 30 23 29 14 32 28 27 28 16 22 36 9 28 28 23 38 35 16 28 30 22 27 24 15 12 26 10 33 23 5 29 25 25 31 18 20 31 33 38 31 38 30 37 38 2 38 30 23
4320 2640 2660 4987 4711 4493 3010 4242 4022 2597 3588 4440 3683 3945 3065 3889 3269 3188 3686 4266 2958 3364 4943 2785 4081 4083 4559 4480 3953 4287 4199 3634 3144 4807 4202 4134 3929 2813 4182 2822 3850 4437 3381 4702 2660 4886 3568 2876 3546 2964 3146 3291 3383 4517 2629 4615 4347 3911 4541 3236 3117 3682 4898 4501 2608 3814 3181 4941 4019 4889 4894 4196 3356 3305 4436 3952 3842 3275 3304 2714 4775 2815 9 4101 3414 3593 3239 3286 4945 3262 3603 2853 4036 3910 2550 3324 4040 3072 4539 2846 3116 3020 3208 4166 2520 3814 3121 3886 4911 4463 2753 3777 10 30 13 13 23 13 6 16 1 22 24 9 6 19 7 10 11 28 4 32 4 29 29 26 12 36 38 38 31 6 33 27 4 24 15 6 9 30 21 7 15 32 37 36 30 12 36 13 31 32 25 18 22 38 2 15 7 24 3 37 0 8 1 23 23 27 35 31 36 35 9 2 12 32 21 15 14 32 7 4 38 22 31 38 33 30 20 22 5 20 12 38 39 14 30 8 35 31 27 22 35 35 12 12 14 7 13 6 21 5 39 6 32
3609 2651 2876 3032 2646 4377 4640 4237 3544 4882 4656 3608 3578 3546 3800 2664 4730 3230 3075 4279 10 3988 4087 2727 4353 4454 3821 3966 3960 4313 4296 4981 4139 4073 3838 3486 3470 17 4808 2597 3293 3279 2852 3300 3141 2670 4739 3830 3408 3558 4397 3208 4388 4352 3347 4982 3339 3096 2578 3344 4206 3580 3282 2600 4652 2978 3058 2683 4590 3831 4264 3773 3070 3753 3294 3588 4036 3256 3743 4611 4526 4075 3946 3199 2946 4125 3292 4885 3681 2993 4178 3165 3562 2829 3728 4385 4066 4703 4326 4185 4126 3518 4378 4664 3133 2837 4058 4332 2665 4910 3786 3317 34 35 1 32 30 39 33 17 31 14 18 31 21 10 37 28 37 39 37 25 39 17 39 22 39 33 28 12 38 10 38 11 11 21 2 3 20 14 20 39 11 19 21 17 3 32 38 8 1 5 4 11 15 30 34 20 7 36 8 6 12 0 7 3 25 18 38 7 34 1 3 13 1 25 9 22 32 19 21 30 25 13 13 6 32 25 3 21 32 37 37 15 15 19 25 14 39 14 23 18 8 19 16 19 33 5 38 19 3 25 15 13 7
4816 3592 4879 3850 3004 2775 3267 4176 2572 2795 2612 3586 3237 2991 4893 2693 3342 4368 2698 4840 3919 3803 3583 3347 4967 4749 3344 4772 3817 2790 2571 2859 2881 2882 4802 4669 2590 2883 4196 4671 3845 3681 4109 3883 3022 4846 2562 3729 2634 2752 3589 4381 2880 4792 4631 4069 4661 3808 3243 2974 3978 4976 4376 3627 4790 4267 3105 2976 3459 2679 3051 4420 4799 3185 4941 4101 4973 3894 3677 4714 3278 3645 3520 4354 4031 3197 3254 3032 2966 4891 3360 3462 3762 4475 4089 2666 4713 3053 3969 4556 3011 2521 3633 3206 3621 3738 2593 3190 4338 3040 3766 2669 20 4 38 31 30 5 29 2 25 13 23 5 7 12 5 8 28 14 20 25 2 21 12 27 3 4 22 20 31 16 9 15 29 31 26 8 8 34 21 10 38 34 15 34 17 4 13 9 9 18 25 24 9 11 5 26 35 19 39 25 23 17 0 21 23 10 34 19 10 11 4 22 14 4 19 28 22 18 22 1 26 23 9 30 30 1 12 21 15 26 6 31 7 18 12 23 17 9 11 25 14 29 27 21 28 16 9 4 28 34 30 39 16
4340 3089 3339 4392 4002 2710 4793 3526 10 2801 4157 4603 2554 3204 3405 2903 3665 3926 4794 2967 3411 4374 3336 3530 3081 3123 4497 3584 3178 3025 3578 4036 3666 3081 2653 4999 4538 3366 3244 2528 3590 2758 4312 4511 3242 4286 4136 4262 3767 2600 3377 3605 3500 4809 2782 4945 4865 3642 3342 2591 4587 3203 3587 4158 4774 3125 4430 3454 3045 4953 4100 2736 4738 3276 4405 3399 3841 4659 4727 3734 3922 4425 4784 4535 4958 4562 4175 3551 4098 4447 4758 4401 3230 4833 3232 3522 4283 3857 4408 3687 2605 4071 3490 2985 3082 3778 4847 4951 4214 3072 6 3748 20 37 5 11 37 18 31 32 19 13 14 19 31 15 30 16 15 33 33 28 4 23 10 28 33 21 25 31 10 18 31 4 8 39 17 6 20 23 21 38 34 13 22 2 3 30 28 25 37 27 10 20 36 23 4 16 13 5 22 3 36 6 10 0 35 23 39 24 22 13 29 9 6 20 19 37 8 12 32 31 31 31 18 5 10 27 5 23 36 21 20 5 20 21 11 22 33 18 8 9 4 34 34 34 14 32 30 9 8 6 1 37 18
4865 4754 3771 4558 3115 2729 4643 4890 3389 3119 3441 3374 3830 3972 3261 3411 3647 4898 3064 2513 4253 2986 4703 4913 4057 3146 4896 4584 2800 4704 4777 3706 2610 4323 4000 3619 3615 3738 4397 3873 4914 4822 4044 4993 4977 4052 4132 2539 2661 3034 3973 4448 3703 3192 2555 4378 4516 3114 3281 12 4686 4812 4867 2641 4911 3029 3573 3763 3327 4388 3629 4899 3819 2991 3077 3445 4150 4109 3340 2936 4305 3444 3108 3840 2619 4159 4116 3448 3429 3184 4027 4013 2795 4130 4618 3483 2599 3526 4642 2957 2558 4671 4520 3893 4035 2789 4801 4668 2848 2997 3380 17 15 37 11 7 4 5 38 12 35 27 39 11 32 20 28 18 18 21 10 12 14 13 6 8 39 13 18 12 3 20 15 28 6 18 38 6 28 6 2 4 2 18 9 4 16 6 37 36 1 2 24 28 7 39 32 27 4 25 9 22 25 25 4 16 0 3 27 12 13 7 4 26 12 13 5 18 1 17 5 13 2 5 31 19 29 9 14 3 2 23 5 20 18 36 13 1 10 10 19 36 31 23 24 31 10 22 10 21 15 18 1 29 12
4014 2636 2679 4706 3321 4736 4397 3383 4047 2626 4049 4401 2568 2588 4327 3707 3194 4702 4505 3227 2729 4949 4246 4653 2735 4430 4235 4151 2725 2517 4264 3329 3425 4002 3241 2631 3910 3557 3765 3698 3843 4650 2575 4841 3241 3574 4252 3555 4335 3469 2993 3782 2578 3577 3318 4585 3950 3040 2864 4963 3155 3073 4021 2504 4109 4927 4827 4349 4402 4877 3907 4627 4742 4734 3494 3274 3987 3183 3981 2615 4020 3274 4427 3358 3894 2629 4179 3131 2886 4161 4737 4852 2610 3030 4871 4044 3892 4894 2910 4058 4554 4894 3902 4250 3651 2694 3565 3214 4959 3008 2880 3090 38 32 21 35 17 17 3 34 10 31 20 5 34 39 3 6 22 8 25 31 12 14 22 1 39 14 11 26 6 14 5 19 2 39 24 31 21 24 39 10 39 37 36 35 20 39 31 34 16 31 8 12 34 17 33 39 19 11 38 34 5 1 10 23 2 0 25 17 37 25 37 10 36 26 7 34 11 33 37 30 24 1 34 31 14 10 35 28 14 10 17 27 3 21 32 20 22 14 23 10 29 35 35 15 24 31 34 36 5 3 28 7 23
4607 4393 3830 3840 3274 4137 3522 4434 4080 3331 4255 4458 4456 3530 3140 3844 4364 3396 3924 4342 3855 4524 4677 3788 3602 3752 4681 3434 4697 3732 3459 4712 3908 4761 4232 3708 4934 3579 4047 4429 3536 3423 4083 3524 2929 4137 3030 4874 4915 2651 3764 3523 3114 4276 4278 2554 2648 2833 3558 2718 2753 4030 4539 4501 2691 4886 4080 2627 2597 2718 4352 3514 2729 3140 4185 3432 3155 3485 4410 3601 4091 3173 3563 4928 4231 2995 3875 4220 3851 3866 3053 2771 3510 4054 2703 4859 2533 3896 4948 3714 3827 3520 3824 4222 4314 2895 4981 3837 4153 3714 3363 4729 5 5 19 4 17 26 38 6 14 31 27 15 37 11 28 17 10 19 39 25 8 16 27 30 21 18 6 5 24 7 39 12 39 28 27 4 13 19 10 3 37 34 36 12 10 30 27 30 31 4 5 17 30 33 35 15 18 9 28 31 13 21 13 36 28 20 0 38 8 39 2 1 13 14 39 10 16 32 39 27 13 15 20 19 6 35 20 21 16 16 29 27 13 10 39 2 12 16 20 2 8 17 13 6 10 4 10 30 36 35 32 5 31
4193 4887 4894 4058 4416 3069 4472 3976 3182 4094 4382 3301 4545 4398 3217 3633 3600 3443 3429 3356 3344 3609 3238 3856 3310 3189 4004 2896 3427 4719 3153 3468 4760 4125 2916 3451 3220 2735 3717 3850 4052 4857 2601 2755 4878 4721 4208 3867 4018 2699 3444 4343 3225 4105 3030 2649 2649 4941 4842 3110 2808 2915 2669 4990 4141 4399 2509 2991 4357 3182 3628 2880 3615 3154 2930 3628 4195 4545 3590 2968 4319 2692 2924 4940 3479 3600 3104 2616 3152 4642 3835 3955 3444 3070 4249 2639 4291 4042 3145 3351 3860 4770 3493 3942 4680 3412 4744 4690 4774 3766 4262 4393 27 38 12 20 21 32 1 1 30 22 38 13 23 26 6 12 18 32 8 4 3 23 33 32 7 35 3 38 33 17 33 29 35 13 37 28 38 29 11 4 19 22 27 16 34 10 4 19 11 4 30 39 35 28 26 24 6 35 33 32 18 32 9 28 5 38 20 0 36 6 36 29 26 14 2 14 21 8 37 27 12 17 21 19 20 36 22 23 3 18 14 3 23 8 17 9 25 38 15 38 9 3 18 36 17 19 6 8 6 11 26 31 12
3908 3425 4501 2643 4710 3734 3124 4367 4979 3294 4964 2648 3196 4244 2965 4588 3554 4240 4362 3448 2619 2752 2733 3384 4942 4215 4168 4817 4040 4284 3557 4013 2774 2963 3057 4894 3385 3370 3035 2994 4360 2667 4744 3823 4800 4815 3670 3752 3946 4144 3821 4930 4280 3055 2613 3305 2886 2643 3817 3784 4502 3495 4529 3902 4700 2814 3388 4547 3988 4976 4083 4006 2622 2750 2924 2790 2903 4963 4762 3285 3302 3235 3570 4535 2739 4574 4033 3494 4577 4430 4576 4159 3642 4541 4200 2725 3935 3522 3572 4608 4299 3870 4742 2931 4875 2624 4697 3693 3262 3283 4205 4095 34 13 14 1 3 20 13 19 13 18 32 37 1 11 31 21 27 4 9 30 36 22 2 39 19 15 31 5 34 34 22 36 11 12 37 15 38 19 1 12 14 23 14 39 29 1 11 11 1 35 8 27 15 34 33 20 27 23 16 2 30 10 3 38 37 1 32 17 0 13 36 6 1 27 19 32 38 16 28 11 28 32 20 36 34 23 16 29 24 15 7 21 18 17 37 14 10 5 7 27 38 28 33 18 34 36 33 29 24 35 30 20 23
3302 4098 4447 2791 3411 3386 4901 4200 4302 4768 3734 2812 4760 4531 4577 3044 4094 2540 4934 4598 3768 14 4415 2618 4352 3535 3679 4405 3779 3643 3035 2869 3459 3989 3269 2676 4829 4273 4822 4337 3665 4940 3314 3001 4504 4078 4959 4943 4727 3180 2904 4234 2652 4213 4711 3751 3123 3415 3504 2518 4930 4882 2704 2693 2794 4403 4540 3557 2864 4780 4023 4228 4329 4828 3178 2655 2843 4255 2888 3873 3894 3038 3313 2740 3027 3987 2592 4705 3920 3967 3686 2829 3544 4136 3465 3360 4855 3802 3503 3835 3569 3088 3753 3832 2541 2744 2890 4224 3573 3342 4211 4785 3 34 4 6 21 16 25 1 8 22 35 18 17 26 25 19 25 13 27 37 23 38 5 36 16 15 7 29 16 32 2 1 14 9 13 11 34 15 32 33 18 5 30 5 6 39 28 25 27 28 29 10 18 37 11 1 20 20 9 20 33 25 17 26 9 35 13 31 39 0 1 18 22 39 32 28 11 15 39 12 29 16 29 2 13 33 29 31 26 39 25 20 14 15 10 21 10 34 19 3 5 32 22 26 20 14 9 25 19 13 21 31 11
3382 4770 3464 3403 3434 4811 3871 3770 3096 3235 3990 2793 3501 4381 3502 4208 4182 4974 4574 3932 4474 4926 3261 3736 3243 2860 4364 4313 4152 4801 3990 3347 3513 2759 3563 3562 3009 3623 4188 4140 4384 3686 2615 4622 4080 4215 4674 4582 4627 3187 2610 3152 3234 4430 3118 3095 2747 2917 2910 4964 2606 4256 2956 4526 4087 3186 3222 4143 4579 3881 4785 4535 3624 4649 4063 3635 3521 4459 18 3882 3167 2562 3444 4238 3729 4776 2910 3010 3013 3543 2946 4492 3913 4778 3607 3965 3460 4249 4435 3055 3894 4370 3957 3550 2900 4892 3068 3221 3206 3249 2526 4738 10 19 30 8 11 35 3 3 4 6 37 38 13 36 6 20 30 33 22 18 26 10 25 15 23 27 23 36 13 6 12 36 3 39 3 4 34 15 27 6 28 14 6 8 4 11 21 37 6 29 29 30 29 25 30 23 28 39 30 2 38 26 15 8 2 18 30 36 36 24 0 12 37 10 10 24 5 29 20 39 36 21 4 19 32 29 19 12 32 5 22 33 34 20 21 29 12 17 12 23 14 4 20 33 17 31 28 30 22 27 15 9 8
2589 2984 4347 4333 2964 3892 2610 3377 3735 4937 4605 4731 4791 3377 3419 2658 3886 4032 2772 4536 3801 3466 4769 4319 4168 3480 3513 4966 3384 2675 2987 4943 4593 3684 3281 4366 4838 3143 4253 4468 3794 2561 2652 3015 2559 4388 2978 4191 3809 3190 3372 3213 4756 4598 3029 4796 2568 2508 12 3841 2996 3582 4343 2597 4996 4050 3220 2908 4020 4458 3871 3465 4576 4658 3976 3225 4672 4053 4694 3622 3687 4758 4867 4569 4525 3587 4442 4832 3371 2691 3941 4124 3006 4754 3881 4577 2971 3688 3966 2617 3216 4842 4251 4375 4177 3552 4223 3330 4540 4743 4232 3805 19 15 17 33 4 38 30 2 36 35 33 17 3 8 33 10 35 2 19 19 31 31 14 29 21 26 8 23 31 16 38 31 25 2 39 11 22 27 27 29 24 34 12 6 12 39 32 8 4 17 32 6 19 38 38 21 18 30 14 35 33 18 14 10 29 29 5 17 38 35 15 0 2 38 18 8 18 36 21 29 33 14 27 16 5 4 7 33 21 19 9 32 17 22 27 31 2 12 16 8 1 31 11 34 36 17 23 28 3 2 30 2 15
4322 3781 3076 3482 4713 3182 2844 4360 3964 3516 3132 3445 3870 3126 4884 3832 2963 2902 3753 2713 10 4492 3743 3465 4758 2737 8 2508 3918 3104 3731 4562 4000 3857 4085 4292 2676 4812 4395 4119 2650 4544 3761 2834 15 3753 3979 3197 3106 4687 4927 4558 4230 4058 3924 3996 3841 2708 4224 4625 4924 3315 4880 4796 3847 4998 4577 2838 4484 2610 4875 3951 4317 3008 4116 3522 4391 2761 3662 3259 3620 3158 4892 3532 2967 2770 4767 4309 3937 4132 4198 2994 2977 2813 4243 4842 3416 3100 3602 3686 2932 3817 4189 3390 4497 3759 3781 3028 3947 3589 4228 3287 30 38 5 23 10 4 7 30 27 27 36 15 19 37 33 24 20 29 7 37 21 11 26 9 5 3 35 27 22 32 10 38 2 5 23 34 32 32 26 24 39 1 34 7 4 34 19 24 6 31 4 29 2 28 31 27 1 36 34 29 13 3 31 26 34 28 5 12 15 15 39 31 0 29 29 3 4 34 18 24 13 22 20 3 39 1 17 9 32 38 28 21 27 12 37 32 24 13 34 19 26 3 32 14 8 5 38 19 26 11 1 24 34
3077 3055 4544 3183 4010 4459 4454 3336 3466 3440 4014 3476 4418 3333 2847 4950 4134 4129 3244 4592 3163 4278 2613 2995 2520 3495 2969 4029 2687 2695 3015 2892 3673 3983 3446 7 2756 4984 4209 9 4962 3675 4934 4955 3154 4405 4426 2649 3003 3833 4905 3094 4542 4831 3845 3411 3687 3871 2591 3537 3183 4451 3822 3091 3426 4111 4473 2760 4649 2779 4666 3402 3304 17 3255 2810 2890 3512 2761 4012 3953 3067 4682 3413 4964 4815 2515 4475 3658 3751 4780 2970 4509 4599 3025 4109 4280 4235 4498 4321 3131 2784 4280 2986 2525 4978 3092 4370 2686 4979 4517 4115 29 4 30 6 25 11 22 3 10 24 30 24 24 16 27 39 31 17 7 32 1 22 1 13 28 2 18 34 38 15 9 35 6 20 8 38 6 17 27 27 3 11 22 1 36 7 38 24 26 2 11 37 9 10 2 10 31 23 30 6 32 31 25 14 20 13 8 17 34 18 21 30 30 0 18 38 3 39 12 4 38 34 37 28 27 10 20 3 25 28 10 39 33 33 18 17 31 38 7 39 18 5 36 6 1 36 34 21 3 15 10 1 18
3775 4210 4671 3084 2805 3396 4050 3789 3405 4731 4345 2595 2666 3304 4006 4530 3649 4915 3480 4411 4465 4837 3558 4203 3647 4591 4208 2662 4750 3492 4172 3745 4147 4216 3062 3744 4678 2533 3994 4607 4491 2711 3226 3625 2808 4987 11 4224 3475 3217 3065 3685 3381 4862 4426 4138 4353 3541 3183 4542 2948 4494 3549 3518 3583 4685 4816 4136 3453 2598 4835 2520 3041 2978 4428 8 2768 3472 4040 2722 3062 4323 4620 2876 2777 4011 4430 3022 3716 4505 3632 3215 4695 2583 2670 2547 4519 4335 4615 3347 3488 4073 4481 4288 3910 4086 4688 2897 3584 2892 2595 3404 27 34 24 34 39 18 27 6 20 37 4 34 28 12 29 25 15 29 30 9 4 16 22 11 17 14 24 6 11 27 13 9 18 33 28 1 32 36 23 3 27 13 21 32 21 37 35 12 27 34 1 6 18 1 4 26 14 11 28 31 16 4 20 6 1 20 26 2 7 2 17 7 2 26 0 3 21 2 14 31 7 38 36 4 30 16 5 7 21 31 3 20 23 34 13 1 23 26 25 38 36 6 31 10 39 22 33 15 3 26 20 9 17
4437 2920 3580 4198 4674 3287 4552 4799 4770 3327 3180 2813 4459 2849 4740 4861 4935 3240 3792 3221 3205 4876 3159 4703 3310 4505 4426 4265 2886 3793 4373 2553 2526 2984 3524 2652 3193 3981 3130 4243 4004 2861 4306 4936 3771 4571 3751 3838 3222 4084 3232 3411 4481 2571 14 2705 4838 3215 4223 3628 3468 4368 4776 4351 4383 2920 4894 3494 3753 3631 4951 4370 4476 4435 3084 3879 3188 4319 4003 3209 4103 3557 4483 3218 3961 3838 4679 2985 3075 2609 4534 4486 2992 2675 4092 2533 4874 4199 4813 3209 4032 4978 6 2919 3246 2682 3680 3457 3200 2684 3964 4984 35 27 26 38 39 12 32 38 25 39 12 19 22 10 37 20 26 29 10 17 15 18 14 33 20 39 4 4 12 32 30 32 24 7 25 9 30 24 6 18 22 2 28 29 33 28 14 18 32 15 30 7 9 20 37 31 2 29 38 2 18 9 26 32 17 20 17 38 13 27 22 1 25 9 15 0 9 14 12 31 13 24 1 24 15 30 37 6 19 31 36 34 26 26 26 31 4 7 7 2 19 20 14 17 35 24 21 12 27 34 17 3 32
4414 4489 3581 3251 3192 3385 2822 2644 4201 3423 2618 4521 2646 3422 3694 3795 4429 3581 3351 3769 2642 4809 4182 3338 3330 2942 2752 4003 3078 2813 4633 3765 4618 4807 4097 3385 3980 2812 2591 4788 3410 3921 4171 3674 3435 4878 4285 3112 3309 4025 2958 4385 4059 3863 3868 3399 4662 4522 4602 4367 4803 4848 4762 3927 3896 3844 4803 4033 3988 3265 3704 4829 4288 2962 3713 3525 3982 3579 4024 3921 3245 2800 4866 4183 9 3265 2923 3916 4782 3668 4927 4682 2866 4542 3036 3176 4361 2731 3555 2773 3093 2660 4922 3686 3054 3163 4023 3428 4916 3822 3389 4712 24 14 26 3 11 19 39 36 6 10 26 37 22 14 37 13 11 35 32 11 35 19 12 32 11 30 1 6 27 25 23 20 29 9 2 37 2 34 25 12 17 30 19 28 9 23 15 33 32 27 19 4 1 25 2 32 3 3 28 26 7 10 4 24 28 6 17 18 7 38 11 14 26 28 29 14 0 24 38 4 7 26 13 25 29 16 23 11 26 7 24 29 7 34 3 39 18 35 27 34 7 19 24 26 4 36 11 37 38 24 26 30 3
2694 4004 4147 2735 3099 3532 2730 4980 3121 4086 3553 2736 3060 4452 3866 4696 4905 3517 4307 3457 3889 4631 4132 3195 4641 2724 3506 3015 3519 3333 2752 2710 4764 4446 4009 3439 4050 4538 2922 2738 2841 3408 2860 4501 3007 3475 3067 4441 3044 4470 3154 4955 3907 3431 3002 2850 3720 4565 3332 4020 3889 3568 4964 3715 2516 3089 4434 4301 3949 4877 3597 4998 4388 4163 2905 4968 4581 4619 2919 2617 4929 4889 3463 3958 2671 4451 4676 3274 3718 4430 4704 4337 3701 4706 4838 4715 4114 3968 4478 4955 4109 3233 4296 2909 4015 2696 3902 2631 3538 3019 2503 2554 19 12 8 12 23 15 1 29 39 11 1 17 35 34 14 22 29 20 29 13 11 33 25 32 24 25 7 23 3 19 32 7 12 16 28 13 20 36 14 25 8 12 20 38 6 6 32 35 16 18 16 30 9 36 7 7 5 32 8 23 3 27 3 1 21 28 26 3 35 9 29 5 13 3 4 38 2 0 30 26 23 38 9 31 11 22 10 29 39 18 38 22 17 38 38 23 13 12 25 26 34 31 4 13 1 4 35 8 32 5 39 32 23
3521 3822 4498 2667 2820 3690 3468 4428 2711 3829 3985 4970 10 4624 3749 2923 4418 2555 3026 4303 3670 3108 4671 4684 4614 2815 3498 3498 4575 3653 4335 3052 4348 4294 3112 3140 4655 4089 3398 3360 2579 3997 4332 3927 3323 4312 4199 4802 3112 3918 2816 2996 3125 4811 3036 3987 4673 4094 3959 4971 4211 3118 4112 2841 2821 4665 2768 3882 3167 4059 3326 2872 2642 3192 4078 4707 2996 4507 3835 2921 4040 2700 3660 3691 3841 3372 4642 4252 4936 2899 4152 2948 4405 4927 4798 4868 3897 4327 3581 2715 3351 4403 3679 3522 3308 4277 2691 4465 3769 3589 4486 3629 18 12 23 25 20 21 26 14 31 6 32 30 31 25 29 28 14 37 25 16 32 19 16 17 15 34 33 13 28 16 36 8 26 1 4 4 12 16 14 24 12 10 22 21 24 31 29 25 9 8 1 7 9 24 34 20 38 23 16 3 12 37 16 8 5 39 5 2 36 7 19 27 33 16 31 34 10 36 0 3 16 18 3 23 16 32 13 19 12 26 26 23 14 39 14 6 5 8 2 18 8 21 18 15 9 29 14 12 9 30 9 32 19
3867 3847 4906 4284 3426 2994 2541 2963 2744 3843 4553 2910 2780 4824 3618 4269 3774 4365 3500 3403 2554 3413 2755 3851 3021 4207 3152 4094 4122 3675 4183 3646 3813 3087 4629 2839 2985 10 2943 3126 2910 4039 3824 4865 3393 2711 4272 3602 2835 4258 3440 2840 4666 3155 4844 2569 3667 4042 3234 3313 4471 4248 4066 4012 3891 3993 3490 3806 4013 3810 9 4525 2678 4423 4779 4007 4214 2610 3145 4394 4282 3654 2990 3319 4115 3457 4398 3086 4679 4404 4073 4501 2871 3412 4569 3461 3374 4133 2769 4437 2712 4919 4979 4518 3108 2900 3647 2757 2831 4513 2600 4332 21 32 11 4 33 31 22 13 3 25 4 4 29 5 3 14 9 9 3 6 34 21 1 16 5 22 26 18 34 21 30 18 3 16 31 4 18 3 27 12 16 5 8 28 9 1 10 24 10 2 11 16 25 19 36 35 14 6 15 24 17 34 39 10 34 19 3 6 34 24 36 20 18 13 32 7 14 14 2 0 8 12 32 14 5 15 5 29 11 25 15 27 37 33 17 26 3 19 31 12 37 31 26 15 36 23 35 12 9 39 32 6 34
3234 2681 3543 2890 4126 3196 4630 4532 2775 2688 4828 2558 4536 2604 3142 4460 3578 4567 4359 2855 2696 2591 4732 3752 3404 4743 4267 4964 3183 3675 2780 4755 2563 3723 3831 4789 4063 4978 3813 2803 3167 3471 4220 3313 2890 2854 3053 3595 2945 3768 3855 3111 2599 3072 16 2824 4742 3300 3201 4946 4119 3553 2528 4912 3470 4705 4340 4806 4987 3529 3096 3425 3866 2761 3005 4075 4562 3855 4628 2511 4052 4760 4018 4882 4932 2786 4044 2568 4891 3515 3067 3085 3337 3510 3853 3922 3600 4527 3470 3413 4920 4904 4730 4062 2835 4289 3828 3466 3084 4176 4157 2821 1 33 27 6 1 16 14 10 5 23 3 13 28 15 10 14 10 21 34 12 22 33 18 5 3 27 19 3 25 7 11 2 31 35 14 38 3 33 25 21 34 27 33 35 19 21 39 33 31 23 5 13 22 21 38 25 12 36 25 38 31 3 22 20 35 29 31 1 22 35 11 12 31 7 5 13 23 18 35 15 0 7 14 34 7 28 7 25 38 25 16 38 38 39 34 3 11 32 10 35 36 20 26 6 29 8 3 22 30 3 13 37 2
4809 2727 4128 4987 4346 2816 4091 3673 4832 4592 3528 3014 3973 4200 4534 4437 3518 3931 2734 3049 2652 3224 4161 3994 4614 3016 4521 2687 4824 4441 3302 3744 3203 2810 4129 3337 4703 4210 3664 3980 4093 2808 2683 3199 4904 3893 3701 3973 2634 4867 3414 3220 2822 3248 2625 3237 4699 4566 2929 4229 3658 4128 4115 2853 3538 3183 4528 3647 4085 3303 4316 4864 4607 4718 2561 4074 4075 3686 3872 4161 4494 4891 4555 3694 4918 3509 4875 4966 4092 3760 3144 4884 4771 2916 2728 3313 2537 3763 4382 3948 4280 3767 4604 3368 4536 3710 3957 2506 3728 3627 4163 4629 16 18 7 12 7 5 2 3 27 33 37 18 31 11 32 34 12 33 28 19 20 29 6 11 37 32 14 4 4 4 14 7 26 15 7 5 29 15 1 39 24 4 28 21 8 26 32 35 36 18 24 38 9 3 31 35 5 6 25 6 13 28 26 39 31 6 27 25 31 13 29 26 35 16 15 13 30 16 26 16 19 0 23 20 17 7 16 23 32 21 5 11 30 34 14 30 8 24 13 26 32 33 1 12 18 9 34 26 4 3 3 29 32
4474 3895 3694 3113 4115 4085 2605 2993 2980 2833 4450 2502 3681 2726 2731 3705 3217 3617 3235 4821 3454 3026 3273 12 2709 14 3585 4125 2719 3114 4580 3718 4507 4013 2874 4313 3142 3941 2662 4545 3687 4821 4527 4304 3756 3353 4011 4379 4688 4071 2624 2657 3548 4888 2856 2924 3531 3092 4037 4660 3797 4473 2581 2688 3729 4545 2616 3664 3476 4534 3440 3839 4921 3578 4669 4441 2788 3501 3695 2660 2913 2696 4048 2779 4913 3884 4586 2638 4695 3695 4737 2769 3241 3001 4206 3708 4549 3978 4871 3890 4655 3747 2890 4197 4470 3876 2796 2805 4345 3733 10 4521 39 2 33 15 15 35 32 22 39 10 22 11 14 20 35 20 30 13 11 34 21 12 20 28 28 37 10 14 29 7 18 20 27 8 19 13 18 5 25 11 25 26 23 3 17 35 27 38 35 38 2 9 26 24 22 30 22 38 15 6 39 5 30 31 16 26 27 25 6 19 22 19 5 12 15 19 12 27 30 34 32 24 0 36 35 13 34 5 33 24 2 29 25 12 37 10 13 34 24 32 33 7 11 3 36 28 33 15 32 30 13 27 24
3323 2591 3570 4931 3078 3898 2603 4868 4748 4022 3946 3996 3877 3525 4140 4712 2769 2641 4429 4924 3288 4644 3254 4390 4553 2719 4070 4512 2587 2825 2514 3943 3686 3464 2538 3900 2562 4804 4603 3141 4621 3021 4461 3282 3919 3889 4121 3102 4977 3195 3314 4629 4248 3877 3005 2545 2907 4368 4537 3436 4579 4994 4660 4053 4566 2729 3144 3701 4531 3566 4600 4180 3623 3097 4347 3709 2521 3032 2561 2985 3801 3744 3426 3934 4514 3568 3464 4449 4882 4618 4338 2518 3449 3068 2564 3135 2636 3378 3113 2870 2571 4352 3698 3544 2513 3989 4031 4077 3161 3736 4148 3361 27 15 28 35 38 20 35 13 10 17 16 29 23 13 28 9 22 7 21 35 4 39 28 18 37 22 25 31 12 27 7 24 12 34 13 8 2 20 35 21 31 34 1 36 19 31 29 8 35 32 19 18 20 18 29 28 1 22 30 37 33 11 16 27 3 34 12 39 4 12 15 8 32 24 14 14 8 36 21 12 6 17 21 0 20 30 29 4 37 33 22 22 39 6 30 25 2 21 18 10 3 32 35 6 15 4 30 7 4 10 5 21 29
4020 3647 4404 2853 3415 4078 4502 4166 3331 2927 3329 3089 3050 3249 3659 4343 3642 3023 4544 3301 2938 3187 3924 3582 3410 4920 4323 2544 3354 4025 2627 2886 4264 3650 4531 4152 3419 2969 4367 4622 2505 2890 3765 3364 4903 3406 2956 2874 2735 4357 2686 3297 4854 3551 3413 2653 4814 10 3216 3234 3652 4970 4276 4854 3490 4790 3447 3311 4670 4610 3032 4878 4094 18 4238 4252 4473 2640 2546 3254 3004 2717 3552 4730 4606 4769 3120 4365 2567 2770 3692 3718 4752 3188 3419 2504 4795 3844 3771 2516 4810 4886 4030 4257 2660 4940 4036 3970 4982 2889 4107 3253 9 11 19 1 17 9 14 11 20 38 33 16 10 32 17 3 13 3 1 32 24 4 28 15 37 34 9 26 1 20 37 34 9 28 39 12 14 13 33 32 39 32 16 7 33 5 4 9 33 33 9 24 27 32 4 14 26 10 14 31 14 11 8 20 11 27 19 26 13 19 4 20 20 38 19 37 34 10 39 12 6 36 5 22 0 1 36 19 8 10 25 18 20 13 4 33 24 2 3 16 23 29 30 1 31 26 34 21 1 6 1 33 2
4690 3662 3056 3929 4288 4657 13 2889 4756 4951 3854 4756 3537 4302 3247 4090 2541 4491 4516 4171 4146 3247 4691 2790 2887 2811 3475 2800 4965 3304 2844 4199 3705 3020 3704 4838 4524 3400 3511 4791 2845 3570 3755 3092 2512 2631 3375 4545 4177 3027 3840 4190 4252 4971 4438 4549 2972 4558 3187 4773 3374 3532 4487 2526 4155 4456 3422 4764 3645 3599 2846 4267 2963 3364 4759 2852 4813 3170 4681 4127 4286 4463 4233 3561 2662 3995 3465 3833 4029 4414 3146 4776 4166 3368 2802 4588 3393 4324 3859 3511 4062 2826 4385 4257 3990 4638 4367 3567 2813 4967 4897 4491 17 16 20 32 29 15 27 4 8 9 3 10 27 6 30 36 8 9 37 13 7 31 6 15 38 11 16 14 32 39 33 29 27 39 21 24 34 19 27 21 13 26 34 12 14 12 5 2 17 30 36 4 38 15 11 33 33 5 28 27 37 21 24 9 28 19 31 35 19 39 18 31 5 1 29 36 23 39 31 14 18 8 14 39 25 0 23 5 14 9 6 15 35 6 4 10 23 33 36 12 8 7 31 30 33 23 34 31 39 4 6 35 31
2551 4398 3779 3056 4897 3365 4075 4260 4420 4415 2839 3417 3236 3390 3499 2753 3744 4484 3152 2538 4465 4262 2925 4080 3731 3850 4803 4723 4318 2654 4263 4649 4659 4922 4544 4019 4451 4338 3319 3617 2649 2627 3750 3086 3884 4311 4313 2902 4034 3567 4387 3719 4152 3248 4209 3760 3478 4054 3955 4423 4820 4608 2960 2794 4814 4982 2667 3474 4239 4405 3708 3394 2511 4385 2896 2926 3325 4666 4775 4708 4704 2536 4273 4841 2875 3580 4788 4082 3927 4666 4324 3607 3775 3036 4326 4646 4420 3160 4209 4420 2666 2997 3678 4764 4467 3441 3594 4060 2865 3742 4448 2877 18 7 36 33 39 8 32 13 31 1 10 9 4 4 5 14 33 9 28 24 8 19 16 15 27 25 30 39 5 22 23 25 3 39 24 30 33 3 34 11 18 7 27 1 25 29 23 19 3 20 29 20 23 2 7 30 10 29 10 17 22 8 16 26 19 5 5 19 11 7 38 22 26 37 29 4 8 4 38 17 37 31 25 24 9 20 0 15 13 39 8 12 22 22 27 29 12 16 17 28 27 22 4 26 27 21 26 18 3 24 18 38 39
4800 3749 3215 2696 4166 3600 2755 3548 2952 2813 3167 3083 4788 4536 3486 4538 3785 4443 2874 4702 3362 2952 3392 4599 3611 4277 3823 2860 3026 4327 3564 3396 3315 2631 2633 4337 4116 3405 4670 2845 3324 2595 3329 3341 3849 2655 4311 2760 3277 3690 2510 4329 2676 2523 2698 4566 4740 3242 3901 4708 4862 4544 4655 4382 4072 4925 3540 3002 4347 4639 3965 3184 3301 4502 2509 2752 3777 4933 3880 4639 3998 3520 3437 4438 3602 3157 3637 2602 4321 3054 4134 4834 2958 2970 4626 4941 4444 4882 2961 3397 4056 3603 3830 3392 4917 4174 4238 3607 3934 4107 4990 3457 15 2 22 6 33 17 20 36 11 18 27 13 1 31 35 2 39 17 23 15 3 27 21 35 1 37 2 21 6 13 2 18 20 12 20 19 7 3 28 6 34 29 19 19 12 29 13 17 13 36 33 28 33 7 15 22 16 29 15 20 17 36 35 13 29 33 4 15 1 15 24 12 26 15 34 18 11 35 6 33 8 37 17 34 1 1 5 0 22 5 34 1 14 31 17 27 7 12 10 22 11 2 21 23 32 26 20 23 4 17 16 24 12
2638 3776 4745 3401 4664 4808 4450 2549 3413 4777 2730 3972 3906 3332 4903 3404 3582 3294 3068 3993 3772 4236 4031 4624 3114 2747 4042 4246 2986 4359 2968 3285 3678 3753 4199 3629 2836 4804 4185 4007 4690 2859 3448 3398 4742 3340 3130 2819 4242 4930 4041 3866 3623 4303 3478 3450 4239 3680 3190 2822 3772 3443 2764 3909 2948 2824 4168 2987 4724 3965 3016 4333 3771 3494 3222 3246 4831 4068 4640 2636 3742 4346 4361 4793 2958 4371 3994 2978 2737 4050 3320 4501 2859 4401 4277 3245 2533 2969 4501 3989 4982 3825 4657 4113 4539 4371 2637 2983 3155 3535 4340 3422 17 34 32 25 35 2 16 24 21 6 8 15 21 30 8 32 17 39 17 23 19 20 2 25 32 20 15 12 10 5 15 10 3 8 6 12 1 30 10 13 1 26 20 2 22 13 35 11 34 3 25 26 7 24 4 26 20 12 16 25 17 23 6 27 4 35 3 11 14 37 30 30 22 14 32 35 12 7 15 22 39 36 35 22 11 2 23 14 0 39 18 19 8 21 31 24 22 6 32 31 28 22 38 4 27 32 36 10 6 34 15 15 4
3312 3315 3361 4262 3579 2605 4146 3193 4066 3320 4945 4218 4112 2901 3500 3352 3048 3254 2833 4540 4412 4661 4829 3104 4796 4628 3155 2545 2699 4230 3678 2781 3082 4295 4897 4224 2838 2990 4945 4676 4873 3397 3485 4592 4741 3210 3607 3325 3881 3106 3251 3597 3481 3706 2504 3807 3130 4784 4597 2712 3509 4140 2670 4822 4859 3151 3190 4106 4442 3265 4727 3087 4580 4149 4791 4930 4779 3339 3489 4903 4585 2786 4531 4475 4850 3396 4626 4197 4935 2713 2607 3885 3390 3488 3532 3382 4193 4884 4203 2673 3752 3405 4935 3525 3970 4608 3287 4541 4088 3085 3406 2942 33 23 9 15 19 33 11 16 29 1 11 4 19 12 15 3 20 15 4 2 20 14 28 28 2 28 27 29 5 37 36 1 33 12 26 15 19 8 15 24 26 29 39 22 25 8 8 16 21 9 28 34 20 14 36 36 8 39 12 1 23 14 9 28 13 37 28 36 20 28 14 25 26 22 39 38 17 21 19 9 35 22 25 4 10 36 3 24 28 0 12 36 16 22 19 24 16 1 26 17 17 8 10 38 4 11 7 18 30 2 36 32 12
2851 2774 4012 2827 4653 4820 3641 4786 2829 3700 4536 3858 4722 3948 3643 3520 4725 3643 2719 3676 4991 4785 4440 3417 3722 4050 2843 3342 4312 4613 3457 4497 3899 4551 4381 4165 2989 4722 3055 3000 4161 3227 3942 2926 4007 2888 3421 2554 3341 3327 3267 2720 3774 3370 4125 4473 4928 3195 4508 4658 3352 3241 3972 3970 3850 3277 2794 3060 4892 4111 3643 3059 4127 3549 4515 3348 4112 3510 4584 3158 3822 3314 4100 3085 2704 4332 3811 3995 3751 2555 3217 2524 2962 3638 4716 3846 4732 4849 4985 4349 3417 4907 2712 2556 3131 3034 2984 4960 3838 2807 2520 4529 28 7 27 31 32 36 32 14 30 2 11 27 18 39 30 6 1 39 31 13 8 21 11 15 22 34 26 22 34 34 7 25 13 3 27 16 22 4 32 29 32 21 37 16 31 13 32 39 32 31 22 11 38 25 28 19 36 15 32 3 25 25 3 13 38 19 28 6 30 5 5 3 7 16 18 11 1 39 39 9 36 30 22 31 10 9 28 3 20 9 0 32 15 31 12 34 28 8 33 22 39 11 22 2 7 36 10 21 20 26 38 30 27
3724 2775 3817 3268 4756 3785 2785 2968 2854 3568 4463 4711 3603 2707 4416 2753 3491 4924 3711 2571 3738 3874 3375 3794 3819 4199 2548 4545 2916 2743 3982 2893 3497 3092 3300 4362 4099 3513 4795 3270 3916 3336 3029 2727 3497 4974 3685 4217 2731 4503 4629 2858 3015 3620 2935 3025 3627 3022 3615 3287 4084 3534 3177 2673 4130 4416 4039 3183 4750 2639 4214 3608 3602 4471 4904 4494 4360 3650 4973 3136 2586 4731 3001 2548 2698 3331 2514 3049 3330 3746 3888 4071 4764 3760 4013 4082 2532 2712 4954 4625 2788 2850 3594 2901 4729 3318 2509 4064 4916 3612 4165 2645 37 30 11 23 4 33 12 13 29 3 30 21 22 32 1 30 31 38 18 16 18 24 33 31 36 8 25 37 21 35 31 2 37 39 13 25 37 19 9 6 7 9 8 32 37 20 11 4 15 25 39 9 33 38 5 4 31 34 20 31 27 8 17 8 16 13 30 16 12 28 29 37 19 8 11 27 21 28 19 25 12 20 2 37 5 24 37 35 28 13 39 0 8 7 6 21 27 38 13 26 19 19 18 16 7 2 20 20 28 23 10 35 33
4856 4837 3772 2882 3204 4795 4183 4768 4810 3733 4776 4735 2508 4990 4769 2880 2625 3427 2662 2657 4919 3754 3676 2550 3560 4961 4011 2951 4712 2971 4819 4053 4567 3995 2916 4541 2969 4714 4797 2617 2901 4501 3320 4295 2836 2976 4567 2781 3936 2646 2727 4090 3963 3536 2946 4645 2547 4969 2698 4091 4339 3316 3847 3891 4293 4859 3349 4571 4195 3972 3167 4188 2879 4184 3369 4721 3361 4358 3613 4161 3709 2777 3324 3570 2508 3667 3348 3318 2648 4316 4597 3572 2692 3888 4946 4655 3287 3847 2507 4662 2539 4792 4469 3727 2698 3338 4113 4758 3280 4859 2625 3984 3 21 15 14 13 22 21 29 25 2 20 19 13 29 2 22 14 33 3 19 5 17 14 31 5 13 23 39 14 33 32 17 39 30 24 36 3 36 1 16 34 21 6 34 28 10 21 24 14 22 38 16 15 33 17 26 29 12 32 19 33 9 6 17 22 30 31 2 6 5 30 6 34 7 34 26 35 20 38 12 19 14 6 4 33 1 21 32 4 38 37 4 0 10 19 25 16 13 6 39 5 39 36 29 4 16 11 38 32 5 32 3 26
3443 4501 4337 3664 3056 3330 3718 3404 3134 2562 2512 4671 4751 2738 4028 3752 2519 3172 3483 4617 3358 4055 3057 4059 3518 4426 4691 3752 2676 3917 3434 4486 2870 2777 2882 3969 4937 4138 4728 4987 4630 2854 3092 3700 3120 4028 3865 3067 4457 4403 4051 3269 4610 4277 4531 4275 3781 3034 10 4086 4864 4715 3632 4962 3962 2728 3441 3724 4335 3876 4029 3075 4646 4882 4757 2972 2651 3457 4640 2913 3381 4507 3606 2557 4085 4516 4349 2722 4096 3006 4978 4182 4508 2557 4639 4581 4119 4269 3011 3400 3185 3547 2960 3424 3759 3292 3487 4520 2621 3691 3648 4223 18 38 34 9 28 20 30 20 34 13 35 31 24 24 32 11 15 17 27 22 13 9 12 10 30 33 39 37 11 4 29 22 18 12 17 39 37 13 27 17 9 3 24 18 25 15 30 23 28 11 16 17 24 33 16 26 24 25 7 29 10 16 24 23 26 18 3 20 17 29 25 9 15 12 33 14 34 36 18 3 14 5 5 13 28 24 19 10 29 26 25 24 2 0 21 5 3 5 18 23 16 33 23 31 23 19 8 4 22 19 21 1 3
3593 3628 4372 4145 3655 4258 2983 4956 3126 3391 4531 2975 3095 4509 4497 3963 3359 3299 3100 4191 4349 4147 2570 4134 4967 3206 4356 4345 2987 3201 4640 4799 2995 3323 3516 3383 4090 4050 2851 3289 3805 4318 4881 3339 4204 3526 3849 4604 2822 3626 4287 3226 4501 3525 4594 3011 2724 4822 4911 4833 3259 3692 2726 3919 2642 4530 4867 3841 4056 3315 17 2835 3084 3596 4588 4561 3123 4743 4833 3415 3684 2583 3490 4687 2668 3900 3809 4626 4498 4395 4212 2836 5 4808 2587 4650 3841 4150 3889 4900 4892 3181 4130 3619 3073 4424 2734 4541 4845 3775 2824 4703 33 16 9 13 1 25 20 33 34 9 27 14 27 5 32 23 11 37 31 16 28 7 31 11 35 18 26 10 3 18 23 27 21 26 18 4 9 37 13 20 29 15 9 29 11 1 22 31 20 1 3 9 19 28 18 25 37 37 12 22 22 11 14 24 24 15 38 1 8 32 9 7 19 19 32 25 5 13 20 38 22 1 5 8 3 8 2 10 38 21 18 2 32 20 0 1 20 24 9 23 16 27 28 5 4 14 26 30 7 15 16 2 22
4983 4162 4990 2625 3708 4075 4339 3356 4218 3771 2869 4997 3924 2819 2696 3736 2658 3762 4864 4134 4470 2968 4410 4928 4924 2895 2960 4632 4790 4389 2815 4235 3636 3452 2518 3517 3541 3253 4000 4545 4332 3833 3221 4579 4928 4525 4025 4107 4166 4784 4511 3123 3052 4903 3402 2731 2649 3736 3692 2893 4048 3597 4288 3469 3771 2945 3115 4428 4929 4200 2927 4405 3200 3759 4358 2987 3196 4338 4716 3492 2545 3501 2868 3100 4529 3090 8 3470 3955 3451 3805 4142 2517 2701 3878 3944 4860 2533 4936 4150 2983 3929 4259 3413 4054 3404 4756 3399 4915 4302 3593 4635 25 20 27 34 4 7 31 4 35 4 7 36 14 32 37 27 3 8 19 27 39 33 30 12 35 39 38 31 10 18 31 17 16 24 37 25 3 11 35 33 17 20 29 7 20 13 26 11 19 32 31 37 19 22 3 26 7 23 16 33 30 20 13 17 34 12 23 31 27 34 6 32 9 7 14 29 30 1 23 3 34 2 4 13 5 22 8 34 12 21 21 9 14 38 3 0 20 29 19 33 11 10 37 20 29 16 6 25 34 39 17 29 39
4415 2831 4722 3649 3441 2784 2932 3911 4445 3122 3374 4753 4394 3240 4287 2871 3429 2565 4044 4502 2684 4123 4449 2605 2575 3730 2522 3025 4047 4613 2915 3591 4035 2830 4120 2586 3516 2831 17 2559 4047 3021 4825 3979 4365 2963 3952 4591 4790 4244 2602 4472 4913 4186 3931 4092 4066 4412 4568 4088 4912 4787 3096 3361 3496 3692 3969 3058 3268 4909 2533 2790 3387 4442 3753 2883 2824 4534 3654 3259 4687 4389 2766 3960 4743 4323 3547 3730 3624 3894 3806 2811 2537 4758 2621 4229 2694 3051 4090 3057 4992 3973 4650 4195 4917 3770 4057 3510 3609 3563 4519 2809 7 6 39 9 33 22 20 5 19 13 14 21 3 5 28 7 15 33 2 22 12 11 26 3 36 5 37 34 29 28 38 31 27 13 36 10 19 20 3 29 37 11 16 39 16 21 27 13 20 11 23 22 11 39 38 31 6 36 14 6 23 12 39 26 7 29 25 25 8 23 19 7 25 11 24 24 20 21 38 18 12 5 18 35 18 34 25 18 31 36 39 1 2 15 15 38 0 38 4 38 28 34 19 9 27 29 33 32 14 5 9 23 12
3071 3567 4295 3605 3525 4350 3164 2652 3257 4827 3219 2821 2930 4140 4976 2861 3954 4694 4361 3981 4206 3037 4818 3461 4482 3532 3296 2680 4395 4547 3342 2808 3614 3394 2880 3903 4615 4236 2971 2919 4996 4707 3981 3612 4578 3359 3167 2925 3785 3103 4711 3351 2862 4629 2680 4395 4402 3396 3792 2783 2709 4104 3170 2923 4832 3653 2987 3913 3611 3989 4095 3038 4706 3922 4198 3086 4540 3318 3530 4796 4881 2830 3863 3573 4231 3500 3121 3964 3371 3742 3239 4118 2883 3569 2985 2553 3154 4112 3824 4710 3142 3229 3140 4362 3216 3202 2761 4324 4918 4034 4506 4772 4 5 1 8 37 23 1 16 20 4 27 24 6 26 24 25 19 11 13 24 33 31 39 17 13 34 35 9 17 37 28 25 1 3 20 23 6 14 13 38 35 22 34 33 15 4 32 28 6 5 27 7 13 11 16 12 25 37 21 25 12 2 23 16 3 36 25 7 10 16 1 16 14 10 9 18 25 32 3 7 9 7 7 25 29 31 28 33 34 34 33 25 19 22 20 6 6 0 35 13 27 1 27 19 3 24 21 21 35 26 23 24 13
3398 4238 2764 4197 4409 4351 3309 4651 3723 3602 3760 4224 4552 4626 3418 4843 4720 3598 3902 2678 4448 3680 4547 4279 2990 3715 3958 4041 4990 4582 4909 3487 4026 4841 3139 3038 4013 3020 3438 4404 2733 3000 3177 3909 3286 4496 4719 3434 4231 2753 3354 4796 2918 4551 4047 4440 3856 3033 3488 3222 2726 2521 3992 4168 3850 4798 3899 3620 4623 3346 3516 4706 2903 3186 3941 4724 4091 3681 4438 4236 4917 4528 4092 4107 3733 2699 4089 3435 3946 2649 3598 4210 4553 4359 4303 2541 3583 2702 3559 4953 3655 3511 3432 4716 2641 4943 3995 4802 3231 3182 4436 3352 16 38 1 18 22 18 6 5 24 22 12 15 29 32 20 38 4 4 34 6 5 18 21 30 1 28 26 10 32 34 4 15 8 34 5 5 31 35 13 1 12 1 22 10 7 8 23 9 33 6 31 27 16 15 13 29 11 20 39 9 6 19 23 20 32 23 8 20 39 12 4 5 26 28 27 24 28 8 2 31 19 19 29 24 37 29 18 36 10 15 17 9 16 20 28 34 1 14 0 25 24 37 39 32 18 24 19 1 30 20 38 20 39
4131 4067 2645 4621 3339 3511 4766 3228 3611 3554 3218 2900 4671 2584 3945 3573 2866 3089 4241 4685 3774 2830 3782 3074 4761 3349 3935 4362 3205 3932 4096 3225 4108 3013 2857 3206 4806 3760 2528 3174 3613 3960 4982 4614 2760 4542 3495 3453 3565 3151 4491 3569 4706 2588 4105 4322 3977 3693 4314 4646 3122 3921 3195 3019 3157 4687 2560 3061 2857 3533 3546 19 3350 4294 4735 3384 3668 4986 3989 2773 3371 4592 3122 4101 2924 3144 4481 4638 4294 3278 3625 3760 13 4955 3688 2595 3347 4856 3197 4206 3665 2885 2665 2934 4295 2960 4734 3844 4463 4163 3675 4122 33 32 15 17 33 18 12 33 14 5 32 35 34 11 15 7 33 19 21 6 34 22 9 13 30 27 28 27 35 7 38 13 39 16 30 11 35 34 17 8 25 10 5 34 38 36 33 5 21 11 22 6 8 21 29 16 20 25 3 28 33 4 30 20 22 38 5 30 9 35 22 6 21 31 7 5 38 3 26 10 3 21 30 38 18 2 14 27 5 1 21 32 26 33 8 2 16 4 3 0 9 7 12 5 9 21 11 15 17 38 19 22 1
4905 4370 4961 3585 3694 3597 4827 4772 4788 4351 3475 4659 4636 2885 4465 4072 3625 4888 4028 4980 4493 3918 2761 3101 4999 3771 3017 18 4179 4989 3161 3591 3228 4329 3849 3533 4335 4359 4291 4965 2614 4365 12 3239 4563 3223 2645 4983 2872 3715 3694 4462 4467 2582 4220 3139 2583 3983 3802 4390 4784 3412 4300 2839 2629 3454 3076 3310 3277 4353 4250 3028 4988 4853 2535 2953 2829 3982 2656 3732 3366 2577 4183 4030 3594 4992 2886 2684 2851 4324 4010 4690 3925 4929 2988 3895 3958 4664 3150 4938 4839 4502 3882 3856 3380 4960 4562 3955 2942 3280 3904 3500 17 34 30 32 24 35 17 30 39 19 11 17 23 37 24 22 9 3 10 34 1 1 17 35 25 18 29 24 17 8 33 35 26 21 11 23 10 37 8 5 16 36 34 2 31 15 9 29 32 6 7 5 38 14 26 4 14 35 35 28 1 9 2 13 9 25 13 9 1 39 25 35 13 13 14 2 18 10 29 6 25 19 34 25 3 12 3 22 35 29 28 33 2 9 19 13 18 12 9 6 0 35 15 13 24 18 34 20 25 33 5 25 36
4794 3874 4263 3856 3090 4968 4365 3614 3805 4952 4694 4442 3241 2966 2560 4190 4807 3865 3217 4014 4480 4145 3969 4187 4848 3084 3465 4619 2860 3873 3268 4682 4509 3108 4269 2761 3963 3076 3931 2517 3281 3574 4019 3769 4617 4454 3731 3137 3885 19 4712 4458 4643 4898 4151 4051 4833 3470 4249 4466 3187 3874 3811 3853 4334 3291 3645 4802 3889 2842 3325 3318 3288 4985 2645 3639 3512 4201 4364 3518 2941 4952 3929 2526 4082 4239 2834 4621 3768 3151 3293 4619 2657 3984 4894 3084 2882 3432 4119 3274 3433 2623 4230 3948 4863 3475 3165 3736 3592 2967 2641 4200 18 10 36 13 19 1 27 18 22 10 7 8 35 22 6 32 25 16 36 23 25 17 27 39 6 7 23 32 3 23 26 36 20 37 29 24 10 8 32 37 36 16 12 16 34 30 34 36 19 27 33 32 33 10 19 5 13 20 9 35 8 5 15 38 11 35 30 17 16 25 16 39 13 8 26 19 1 8 8 27 19 6 28 19 14 34 5 19 22 29 9 18 32 38 22 23 19 36 21 8 25 0 27 27 10 33 19 39 35 8 27 8 27
2533 4636 4561 3213 3858 4870 4495 4550 3610 3164 4768 4763 2657 4693 2511 4648 3190 3699 2800 4010 4055 3539 4048 3271 3434 2721 3157 4786 2754 3363 3041 3420 4924 2531 4655 4381 3389 4203 3732 3855 4150 4900 4531 3091 4031 3534 3060 4051 4711 2675 3370 2667 3363 2878 2776 3713 4926 4015 3981 2999 4865 3425 4795 3830 3284 2577 3004 4169 4125 3853 4930 4267 4362 3937 3441 3309 4401 3733 3625 3682 3646 3015 3212 4425 4178 2588 4631 3924 4136 2864 4355 3415 3254 3018 3673 3888 4102 3718 2551 3446 2511 3021 2871 2884 4647 4969 2554 4513 3564 2721 3528 4880 6 28 32 22 11 5 13 1 21 8 14 12 7 31 33 27 36 26 38 4 27 11 19 25 33 3 21 5 39 33 33 21 11 17 28 3 12 38 32 38 10 36 13 27 2 16 11 22 25 3 16 5 19 29 27 29 37 18 6 5 2 37 35 34 23 37 3 2 28 6 34 5 34 35 16 13 11 22 12 25 33 6 3 28 4 24 21 9 29 28 39 39 9 37 3 37 12 13 27 8 14 20 0 1 17 37 18 22 36 27 38 27 33
4943 4200 4495 4356 4949 3921 4077 2686 3404 3211 4013 3865 4054 2874 2642 3710 4709 3008 4847 3847 3545 2661 3166 2864 2722 3784 13 3084 3522 3965 4717 4155 3265 3723 4000 2902 4432 3913 4777 4827 2679 2952 3354 3844 4606 7 4175 4665 4632 4545 2943 4507 4199 4360 4320 3535 3535 3054 3756 3413 2599 4594 4875 3961 3349 4518 3234 2685 4302 4887 3730 2705 3771 3123 4146 3977 4344 3794 3426 3402 2505 4930 4766 3768 4143 4254 2783 4136 3835 3280 4269 3020 2866 2881 4151 3184 2731 3290 4559 3276 4048 2506 2752 4315 3271 4932 3255 3077 4290 4219 3319 3535 14 1 10 10 25 31 9 30 6 7 24 25 26 2 11 5 4 27 34 36 36 18 29 6 23 6 39 2 13 4 28 15 12 13 16 23 27 13 16 25 28 14 4 26 36 34 10 3 16 26 28 24 12 29 20 4 23 18 35 14 24 35 2 20 23 26 6 6 36 34 21 15 9 18 16 6 5 27 26 15 1 33 38 16 39 1 2 5 2 26 9 10 38 15 39 23 18 29 7 18 21 27 33 0 12 30 8 26 21 24 32 21 13
2638 2987 3335 4533 4843 4415 3198 3210 3666 3562 4176 4980 3825 4317 4079 3037 3552 4067 2633 3224 4501 4395 3461 2590 3210 3161 4004 4562 3825 3017 4903 4105 4999 3306 3114 3541 2903 3780 3292 3697 4789 4433 4590 2670 4029 4305 4712 3333 4827 4001 3427 3756 3402 4338 4706 3778 4576 2632 3188 4644 3744 3310 4247 3069 3504 3534 2865 3962 4480 2918 3733 4094 3123 3553 3266 2587 4955 3774 4996 2798 4756 3599 3949 3192 3306 4082 4576 3539 4736 4427 4194 3623 2748 4761 4256 3357 2541 4813 3532 3998 2628 3728 2821 2580 2556 4331 3980 4571 3078 2728 3908 3529 8 8 5 17 27 39 20 27 25 23 32 17 10 2 31 24 29 16 13 9 21 22 26 5 13 9 33 31 7 32 6 32 33 33 29 35 7 26 30 33 9 36 8 2 27 4 5 24 10 34 27 2 35 30 35 33 20 23 34 30 20 1 15 8 31 19 16 8 15 20 10 39 19 15 10 4 4 30 8 12 13 1 23 30 7 26 35 2 17 29 36 9 9 32 20 22 30 21 11 20 14 36 10 7 0 37 3 2 21 36 1 34 21
2573 3518 4145 4616 4910 2641 4193 3899 3921 3122 3643 4274 2771 3797 3650 3434 4835 2717 4114 3119 2881 2642 4803 4115 3916 4772 4482 4415 2501 3987 2628 16 4101 4087 4198 4505 3377 4942 2995 2803 3374 3364 2773 4924 3240 4647 3351 4368 3362 4157 4114 3818 4920 4897 2541 2567 3844 4932 4575 2813 4923 2998 2760 3116 3308 3912 2839 4504 3369 3038 2853 3128 4426 3114 2818 15 3229 2854 4140 4457 2573 3999 3741 2758 4704 3262 3053 2829 3265 4064 2505 3256 4921 2895 4132 4566 2764 2566 4490 3918 4511 2757 3971 4324 3056 4356 3666 2591 4566 3339 2763 2572 39 29 24 15 25 5 29 21 21 35 30 18 9 25 30 14 38 38 20 20 16 12 16 28 10 36 26 25 16 24 21 9 10 19 39 12 39 28 20 5 28 38 15 8 4 36 29 7 9 13 28 24 39 26 22 27 1 19 20 39 39 3 2 25 23 33 33 14 18 27 1 15 6 14 14 35 3 15 31 11 11 6 25 16 22 9 33 39 27 35 5 32 3 4 18 4 19 17 12 10 14 39 3 1 18 0 5 25 6 32 16 23 37
3282 4605 3244 3751 2896 3192 4369 4235 4897 4788 4421 2723 3844 4761 3014 4277 4108 3025 2568 3783 4003 4679 3341 4739 3290 4381 3755 3916 4587 3078 3887 4617 3647 3993 4251 4162 4177 4049 4117 4020 4351 4257 4178 2588 4338 2864 4518 4380 4053 2906 2793 4133 4413 2591 3528 4765 3779 3075 2731 3366 3109 2757 3203 4651 3084 4715 3378 3319 3012 2842 3201 4539 3144 4116 4888 4341 2789 4403 2975 4338 4901 4642 3489 3467 3983 4630 4765 2690 4171 2611 4250 3241 3451 3224 2826 2894 4936 4880 4046 4285 4125 4580 2627 2614 3340 4242 3339 3121 2632 3877 3088 3530 21 24 23 30 5 22 16 10 21 27 23 14 36 20 20 3 29 35 33 8 3 13 13 10 36 3 33 34 2 15 18 15 24 10 7 27 3 14 20 12 36 28 1 35 24 26 29 10 38 34 6 13 33 36 39 33 4 11 26 30 32 5 11 32 28 39 24 32 30 1 22 17 21 27 36 9 26 13 3 7 22 4 33 33 2 30 2 39 32 31 25 32 26 21 29 30 3 9 12 30 31 29 36 4 17 5 0 15 34 28 36 36 30
3009 4314 3287 3664 4678 4563 3252 4162 2985 4697 4306 4454 4503 3416 4134 4670 2569 3224 4835 2820 2981 2959 4577 2748 4558 3462 4732 2846 4024 4522 3874 2837 3577 3699 3582 3945 3549 2633 4646 4847 3589 2688 3654 2765 4535 4025 3948 3033 4730 4228 2706 2962 3503 4425 4263 4809 3956 3847 4354 3915 3813 4820 2701 3749 3430 4488 3281 4509 3907 4733 2695 3157 3790 4755 2983 4586 4808 4995 3209 4016 3890 2909 4990 3359 4153 4992 2514 3509 4737 3174 4992 4841 3516 3685 3567 4760 2903 3408 3469 4618 2810 3203 3407 3625 4928 3317 3685 3007 4293 4516 4624 3824 38 15 17 6 12 13 27 13 33 4 20 13 37 15 15 8 36 10 13 31 13 27 27 24 16 20 29 34 15 22 25 28 39 27 32 13 19 3 9 24 13 23 22 21 10 38 19 24 13 20 5 15 39 20 18 5 5 20 5 24 13 37 9 26 16 34 10 4 24 39 31 36 17 29 19 32 35 16 21 9 16 30 31 11 22 28 38 26 14 18 6 24 20 2 5 25 2 12 6 17 34 6 19 4 5 24 28 0 17 11 5 23 3
3708 4901 3401 4754 4111 4066 4271 2705 2946 3461 3005 4437 2629 3996 2699 3721 4200 3248 3446 3981 4097 3171 3452 2641 3781 4930 3641 3706 3788 3831 3852 3732 3016 4338 3645 4450 3752 3273 3190 2785 4601 3374 2696 3172 19 2557 4634 3991 3453 2873 3292 3260 4921 4015 3140 3948 3136 4517 4970 3644 4751 3014 4252 3198 4181 3690 3416 3149 4814 4452 3242 4023 4671 3057 3406 3132 3916 4642 4855 3984 3705 2674 2866 3051 4662 2722 4181 4959 3839 4229 3007 3467 4003 2942 2564 2797 3600 3218 3031 3649 4391 4738 4445 4116 2787 4796 3326 3299 4572 3299 3500 3736 17 32 37 13 30 8 39 5 38 6 29 26 32 10 24 29 4 15 25 11 22 17 22 13 6 9 27 12 6 19 25 2 6 11 1 2 10 33 36 38 20 18 5 34 13 29 13 8 16 6 19 19 34 15 25 37 5 11 10 6 30 12 7 13 28 39 6 15 12 30 33 27 34 8 14 21 4 26 15 1 26 12 20 30 23 9 26 9 17 39 27 20 3 37 17 1 5 26 8 37 22 34 24 19 2 35 12 33 0 33 2 30 36
3032 2894 2525 3837 3806 4565 4720 3290 4975 3856 4626 2718 2710 3993 2712 4630 2839 3252 4582 4275 2661 4146 2529 3360 3017 3375 3808 3303 2639 4271 4968 2656 3464 4099 3411 3026 3586 3264 4453 4219 4424 2781 2606 4633 4344 3397 3152 3406 3363 4767 4145 3537 2786 2547 3957 4785 4710 4847 3498 4628 4677 2593 3077 3370 4037 4251 2702 3254 2587 2833 2762 3605 4230 2732 2981 2867 4777 2699 4502 3719 3475 2963 4822 3827 4011 4155 2917 4488 4362 2730 4714 4493 4876 3273 4113 2905 3489 2709 3492 3441 4453 4633 4234 3711 2802 2541 3755 3035 3879 2866 4006 2903 39 36 31 18 7 20 7 31 32 5 36 1 35 6 17 23 32 17 2 24 5 5 1 25 7 2 38 8 16 18 34 12 24 35 39 11 17 21 25 36 23 37 39 2 15 37 32 2 20 3 28 15 6 23 1 9 32 17 7 14 25 11 14 15 23 8 28 28 5 1 20 1 37 2 2 18 33 2 13 18 7 10 16 25 9 29 26 14 26 4 17 39 4 2 34 28 15 36 15 1 7 1 24 21 35 29 18 1 5 0 23 29 15
4773 2571 3450 3950 3383 2711 3201 2887 3953 2832 3300 3730 3786 4802 4429 3295 4736 2962 3545 2815 3152 3183 4875 2651 2916 3387 3374 2787 4991 4986 2896 3453 4014 3670 2728 4634 4183 3657 3396 4512 4522 4010 3334 3495 3971 2997 4793 2584 3488 4550 4980 4537 4227 3637 3025 3404 4394 4836 2987 2584 2929 18 3313 4815 3644 2600 2974 4638 2530 4238 2882 4117 4950 3977 4752 3961 4594 4975 2922 2781 4411 4713 3612 3734 4480 3310 4026 3735 3104 4253 3440 3147 3999 2537 4843 3365 4838 4665 4006 4474 3313 4842 2682 3576 4655 4933 3797 3208 3228 2644 2836 4806 1 39 19 35 21 2 38 20 25 23 17 4 34 19 16 5 22 25 24 31 30 36 32 26 38 5 32 27 5 10 18 27 30 16 35 28 7 29 7 14 35 8 18 21 25 35 31 5 35 26 17 7 15 6 20 20 23 18 17 31 36 20 25 28 38 11 15 34 27 15 6 13 19 32 25 10 16 36 16 5 3 25 35 11 12 15 19 18 22 26 15 9 21 9 26 30 25 14 24 34 19 39 23 25 21 18 4 23 5 6 0 22 25
4900 3351 4191 4681 2801 4483 3922 3449 2767 3574 2538 3516 3081 4775 3042 3296 2859 3969 4394 2997 2582 4779 2702 3422 3103 3186 4170 2785 3121 4119 4250 3073 4510 4545 4883 3449 3552 3443 3852 4834 4421 3481 3391 2550 4042 3547 4904 2818 2649 2586 4935 4054 4814 2768 2584 3864 4331 2606 2916 3439 3744 3521 3696 4441 2831 3078 3094 4890 2796 4806 2589 4317 3048 3289 3388 3326 2883 3670 3762 3126 2534 2897 3102 3694 4560 2796 3876 4012 4604 2942 3423 3203 3618 4947 3719 2544 3612 2906 3481 3412 4415 3693 2743 3164 3250 4917 4455 3134 4032 2567 3195 3021 6 22 33 9 30 34 2 10 12 21 39 30 8 26 31 25 26 8 25 21 26 9 39 16 6 1 30 10 1 24 20 20 14 32 13 34 6 28 3 11 23 15 30 20 17 39 21 26 15 21 26 26 5 39 8 4 1 23 3 24 38 10 27 16 16 7 37 11 14 33 9 28 28 24 18 20 11 30 25 38 38 3 33 12 4 24 25 36 24 30 7 34 5 8 12 29 33 38 29 31 22 13 22 7 20 20 24 38 37 24 8 0 16
2984 2846 4295 3195 4241 3212 2579 4401 4502 4859 4565 2520 3948 4230 4901 2829 4382 3993 3851 3172 4577 4526 4567 3301 4150 3335 4150 4863 2544 4370 2843 10 3206 2932 4467 3122 4303 4487 3360 2698 4459 3096 4412 3292 3327 3229 3458 4635 4830 3044 4184 4746 2647 3938 2950 4665 4563 3500 3614 3469 4519 4395 4067 4496 4594 4291 3295 4741 3136 3657 4550 3172 4884 2538 2994 3670 4348 3513 4591 2504 4779 2786 3611 4418 2856 2907 4317 4595 4310 4567 2972 4855 4238 3143 4678 2508 2771 3433 3320 4771 2762 4178 2664 2554 2841 2877 4862 2922 3208 4891 2668 2942 27 29 7 25 28 33 25 19 29 16 20 39 34 27 28 11 39 9 3 29 23 28 7 5 27 23 30 25 1 22 21 14 33 8 29 32 38 22 38 33 3 14 24 23 30 27 33 21 29 16 24 18 24 12 22 27 17 9 24 11 5 5 15 22 36 6 38 37 16 1 31 37 4 38 11 9 20 19 19 32 5 23 10 18 34 32 38 5 17 16 4 20 32 17 3 3 15 16 2 15 36 19 20 11 31 11 28 31 36 22 2 35 0
EOF
