NAME: christofides_hard_n250_s0
TYPE: TSP
COMMENT: christofides_hard generated explicit tsp
DIMENSION: 250
EDGE_WEIGHT_TYPE: EXPLICIT
EDGE_WEIGHT_FORMAT: FULL_MATRIX
EDGE_WEIGHT_SECTION
0 28 27 20 13 17 21 37 8 23 9 27 31 34 23 4 10 25 11 19 32 25 11 39 26 29 1 17 14 4 30 27 24 32 1 39 26 17 15 33 11 38 28 27 12 34 7 24 12 17 25 6 30 15 36 36 35 11 4 17 13 34 34 30 31 10 2 5 10 15 17 2 10 16 38 34 15 8 23 35 39 32 31 1 1 31 8 32 33 38 19 5 38 26 25 31 10 23 19 2 31 38 13 4 31 8 34 17 21 5 27 2 36 7 8 12 2 14 39 36 2 17 13 19 31 4806 3809 2523 3246 2780 2597 4831 2693 2861 3003 3226 4915 3565 2656 3180 4961 3727 4609 4149 4829 2560 4784 3163 4033 3370 3174 4836 4682 3703 3238 4361 3542 3757 2778 3489 4394 3173 3319 3323 2527 4772 3463 4198 4530 2883 3628 4101 4395 3684 4979 2582 3653 4062 4516 3773 4090 3308 4327 3599 4677 3251 4378 4416 4142 4742 2817 3100 4933 4256 4189 4136 2671 4819 4881 3861 3213 2700 3788 4858 3488 3327 3131 4060 4255 4926 2654 3327 2506 3118 4928 4769 2647 4013 3702 4695 4545 2699 2570 3717 3386 3556 4121 4064 2884 4930 2578 2776 2740 2544 3252 2593 3670 3599 4091 3430 4386 3537 3276 4284 2531 3433 3623 3385 4431 3196
18 0 35 29 31 1 20 39 29 10 5 32 20 16 37 39 25 17 10 19 22 23 33 11 38 13 29 30 24 7 3 34 3 10 21 35 7 25 9 37 38 17 7 9 37 15 22 5 25 4 6 9 27 5 1 33 20 1 12 9 5 14 38 23 14 5 15 10 35 27 19 17 14 23 16 19 27 15 25 28 7 28 2 29 19 39 4 23 31 32 39 19 30 11 11 38 15 36 7 5 15 20 30 30 4 25 3 36 13 8 37 20 22 11 35 20 27 15 1 26 6 7 22 3 12 3520 4654 3876 3323 2705 4656 4837 4655 4846 2811 3225 2943 4447 4790 4472 3223 4836 2721 3340 3630 3694 3054 4212 3675 4991 3598 4841 2724 3802 4364 2628 3777 2580 2717 3356 2706 2779 3319 2700 4128 4096 4376 3345 4649 4481 4331 4269 3719 4370 4085 4608 4927 4398 4173 4889 4148 2694 2660 2956 3156 3865 3917 4728 3906 3765 4890 3113 4312 4853 4239 3200 3975 3988 3492 2774 2678 3713 4075 2713 2807 3778 2899 4859 4980 3264 4763 2691 4826 2746 4358 3372 3149 4068 3787 3565 3583 3299 4166 2938 2504 2820 3844 4023 4834 4616 2899 3588 4711 3055 3147 3745 7 3311 3624 4572 4045 3713 4554 4148 3935 3953 2788 2824 3233 3315
6 35 0 31 20 39 23 6 6 12 30 8 3 12 34 28 17 25 17 33 15 8 18 20 37 14 38 32 15 1 11 25 13 35 37 16 15 31 34 20 29 9 22 6 27 23 1 2 26 14 14 2 27 3 27 36 38 22 38 30 31 31 34 14 9 4 39 10 4 21 31 38 28 9 19 32 16 22 33 31 19 16 8 21 3 37 19 34 26 1 1 12 6 28 10 6 13 33 10 32 23 33 11 27 38 12 9 20 32 19 22 27 32 39 9 2 36 36 13 1 32 39 12 36 4 3960 3917 3013 4543 4832 4577 2595 4654 3006 4389 4804 2821 4438 3032 3393 4384 2749 4424 4742 2773 3403 4141 3671 3481 4836 3644 4398 3883 4247 3047 3910 4071 3745 3582 4456 4056 3331 4321 2634 3315 4769 3456 4858 4369 4445 4630 2754 3813 2921 4442 3729 4184 3283 2972 3337 3924 4403 4583 3951 2787 4683 3353 3085 3430 4127 3526 4216 3218 3144 3967 3213 2768 3164 4504 3194 3800 4141 2892 2722 3647 2616 4580 4344 4266 3713 4081 4570 3575 3126 3354 3254 4494 4838 3450 4516 3463 2534 4097 4210 2873 2563 2606 3519 2515 2679 2610 4718 2761 4835 4926 3487 4992 3106 3767 4699 3624 3625 2910 3498 2890 4000 4486 3475 4737 4165
4 36 5 0 6 13 6 20 34 15 26 35 39 35 1 9 15 32 17 7 23 20 22 26 35 20 24 1 22 7 13 35 36 7 30 33 33 31 35 36 32 16 30 22 9 8 13 11 36 18 35 19 21 34 33 7 32 7 29 11 37 22 22 22 24 12 9 29 3 15 35 33 12 24 1 8 17 39 21 34 19 21 18 6 14 6 35 18 25 9 17 24 30 37 30 31 17 4 10 28 37 8 3 30 30 38 2 6 16 36 25 6 11 36 19 22 7 15 1 13 25 26 4 38 29 2935 4907 4229 2584 4980 4582 4676 3294 4760 2530 3906 2555 3627 3666 4440 2955 3907 4964 3495 3111 4040 3712 3878 3069 2680 3538 3387 4827 4920 3324 2579 3841 4701 4314 4291 4599 4715 3245 4836 3110 4855 4772 4061 4275 3313 4655 4483 3969 3384 2762 3373 4649 4588 3723 3557 4340 4104 3560 2945 2519 2899 4832 4920 3184 3859 4230 2982 4179 4036 3949 2990 3609 4820 4557 3884 3170 3631 3772 4863 3332 4557 4975 3717 4067 4321 2768 4633 4826 3955 3488 4112 4834 2838 2513 4607 4295 4175 3490 4019 4414 3065 4696 4029 4800 4742 3369 4976 4807 4365 2547 2912 3499 3425 4087 2897 2805 3454 4129 4142 4902 4526 3588 4735 3670 4800
18 4 27 18 0 32 27 11 12 7 15 10 1 11 39 23 6 31 27 16 4 18 10 15 24 39 17 5 7 8 2 7 34 34 31 17 1 10 37 14 38 3 7 38 23 5 4 22 11 9 26 38 11 15 20 2 36 34 2 19 27 21 2 14 6 13 35 34 33 25 27 39 23 4 30 24 25 29 5 9 1 17 33 24 13 36 7 24 8 6 14 10 22 14 37 11 16 3 24 31 7 36 22 14 12 36 38 30 18 27 34 11 10 5 4 26 6 11 1 4 12 6 13 28 31 4950 3692 4205 2501 3988 3143 2842 3052 4082 4778 2970 3345 2545 2833 3163 2572 4536 4819 4937 4237 2878 4762 4753 3743 2909 3041 3827 3175 4418 3799 4143 3932 3780 3848 3881 2834 2811 4656 3215 4658 3575 3010 4188 4465 3941 3704 11 3105 3310 4662 3241 2595 3887 4496 3188 4857 3453 3931 2897 3560 5 2621 4958 4528 3295 3771 4095 3428 4412 4702 2697 3570 3771 3892 3988 2977 3638 4509 4129 4286 3203 4273 4400 4455 4014 2853 4710 3925 4458 4765 3306 4256 3184 2679 3739 4238 4356 4056 4792 4935 2782 2844 4289 4333 4539 3577 2605 3223 3107 2524 17 4408 3374 2614 3216 2952 2828 3036 4159 4114 4188 4068 3307 3487 4751
21 30 12 30 20 0 21 36 32 16 18 37 27 4 1 34 10 7 16 2 29 21 39 13 22 10 39 15 3 23 25 20 4 28 37 21 39 12 16 22 24 26 10 4 8 13 17 10 28 18 36 35 9 38 19 19 12 22 37 2 32 11 28 36 27 38 25 25 14 19 15 25 35 2 8 29 18 15 18 26 32 3 26 17 3 33 8 13 1 1 10 38 16 34 9 26 19 29 10 3 4 5 4 17 10 29 7 39 13 28 28 29 28 18 11 28 35 21 20 23 37 38 5 6 14 3377 4301 4945 3280 4528 3763 3101 2751 4132 3316 4911 4811 3194 2909 4071 3376 3216 2819 2914 2595 4290 4511 3545 3827 4134 3365 3996 3710 2987 2673 3704 3827 2611 4293 3307 3965 4899 4325 4452 3874 3661 2543 2589 2999 4580 4440 2605 3294 2543 4473 3850 3252 3505 3766 2989 4828 4528 3401 3297 4731 3596 4663 2881 2909 3696 2839 2935 3622 2928 3664 3476 3263 3987 4340 3445 4719 6 3252 3492 3009 4268 3386 3352 4166 3458 2765 3007 3169 3118 4622 2603 2592 2680 4600 3338 4541 4291 4699 3292 3927 3305 3562 4164 3099 3597 4274 4944 2663 4904 3689 3766 4135 2687 2813 3616 3469 3555 3629 4136 3597 2739 4637 2768 3419 2571
24 10 5 15 9 13 0 28 20 36 21 20 10 32 26 31 30 1 35 38 11 1 12 16 5 19 12 18 13 2 27 12 28 39 8 8 24 13 39 30 38 18 2 30 26 22 8 23 11 30 16 27 35 12 15 34 4 38 5 7 17 17 29 9 15 19 18 33 3 1 26 18 4 24 5 36 19 25 2 30 11 7 12 17 32 27 33 13 25 18 34 1 28 35 33 19 39 39 4 3 8 6 25 23 5 2 24 2 31 37 14 32 38 26 24 23 2 7 21 14 35 4 16 6 12 3697 4395 4092 2933 2585 2511 2542 3026 4555 4327 3588 2501 2933 4239 2699 3945 4127 4681 4056 4472 4175 3962 2997 3272 3219 2897 4296 2841 3254 4276 2938 3687 4153 4750 2714 2730 2531 3770 3470 3367 3912 4468 4913 2577 2645 4593 3822 3151 4889 4931 2779 2642 3494 3734 4045 4175 4354 4556 3441 4921 3993 4536 3093 3125 4144 2671 4375 3418 3211 3677 4541 3736 3584 4973 2537 2678 3066 2633 4317 3255 2566 2918 7 3150 2682 4393 3301 4001 3393 4162 4937 2633 3425 3986 2642 3388 2782 4834 3817 2869 4688 3155 3959 2773 4553 3492 4472 4995 4072 4053 2692 3111 2514 4483 4009 2944 2614 2504 4475 3292 4122 3290 3399 4439 2871
1 24 26 22 30 31 9 0 18 4 33 35 27 11 6 12 6 11 25 11 12 12 28 5 4 25 15 18 2 25 8 23 19 6 29 10 38 5 34 25 30 6 5 18 17 37 27 38 20 8 10 30 11 39 17 22 23 4 14 36 17 23 8 19 28 7 29 7 8 24 9 13 30 30 35 24 34 31 21 16 30 13 35 2 22 6 26 1 37 8 19 23 13 35 18 20 1 32 6 21 35 19 38 35 18 19 26 16 15 38 22 8 18 36 30 28 9 16 36 39 27 19 27 15 23 4288 4564 4502 4498 2949 4422 2856 4073 2735 3614 4806 4847 2973 4153 4801 3777 3597 4526 3279 4933 4078 4541 2559 3236 2947 4882 2675 4479 2576 4793 2909 3335 4323 4432 2803 4876 4938 4415 4485 3640 4175 4603 3371 3615 3077 2746 4403 4878 2623 3580 3604 4346 2739 4566 2888 4630 3531 3822 4199 4266 3384 4176 3931 3899 4477 3217 4756 2892 4968 3114 4018 4213 2987 4690 3851 2790 3784 3926 2752 4077 3314 3452 3385 3291 4174 4019 3480 4423 4382 3392 2511 4763 2780 4786 2991 4510 4997 3841 2587 2546 4963 3222 3116 4042 4931 3134 4020 4097 2999 4543 4844 4989 3901 2864 3266 3458 3213 4545 3008 2880 4874 4323 3389 4783 3998
16 39 9 2 1 9 15 9 0 18 28 24 28 17 9 35 34 10 37 36 29 35 18 28 17 15 10 1 37 13 12 24 38 8 5 34 26 16 24 19 31 25 33 13 15 5 37 33 13 11 2 36 39 31 3 18 8 15 36 17 36 9 35 39 34 38 17 11 23 34 13 34 23 32 16 37 21 5 11 9 5 10 27 26 3 1 14 4 23 28 34 22 15 37 27 34 18 29 23 18 4 14 21 18 28 19 7 11 15 8 19 1 25 19 16 17 21 26 13 21 28 17 25 28 25 4788 3280 4531 3703 4280 4871 4348 2593 3055 4287 3763 3648 4045 4905 3822 2790 3724 2840 2734 4376 3446 2924 4604 4425 2859 3754 3348 2537 4394 3567 4799 3300 3994 3585 2818 3458 10 3739 2538 4747 4980 4474 4015 2654 3382 2902 4945 3733 3091 4730 2969 4690 3239 4129 2834 4995 3576 2596 3217 2936 2645 3106 3331 3014 2782 3850 4225 4132 4069 2709 3722 3799 3770 4783 18 4936 4896 2754 2544 4766 3764 3817 4228 4361 3803 2925 2790 2733 2920 2876 3863 4571 2820 3669 4595 2644 4146 4994 4112 3336 4028 3311 3223 3847 4439 3198 4742 3517 2884 4505 2512 4961 2504 2859 2685 4963 2540 3774 2679 3103 2676 2500 4172 4545 4889
10 7 16 8 38 3 15 31 2 0 39 2 35 5 34 33 23 33 33 16 20 25 7 17 25 23 1 10 20 7 22 11 37 1 20 30 8 14 4 7 27 3 16 37 30 15 27 26 24 19 24 25 13 23 4 31 8 32 9 2 24 11 13 12 8 32 19 28 8 17 1 37 27 12 1 11 39 8 25 34 9 18 36 39 10 21 21 4 4 4 31 34 26 17 39 39 28 7 22 1 38 15 17 30 7 27 1 23 23 15 24 38 25 28 4 34 39 35 3 1 23 35 4 20 4 4363 3704 4115 4720 3138 3683 2813 3834 2572 4323 3058 3157 3592 2760 3173 4493 3823 4747 2908 3715 3765 4387 3470 4469 4878 4672 4284 2665 4532 3682 2620 3136 2512 4776 2890 2589 4479 3816 3986 3157 4449 3005 4463 4971 3702 4536 2754 3006 4303 2532 2717 3900 2840 2819 2957 4877 4092 2959 4487 3070 4694 3336 4183 4522 3985 3078 3071 3176 3512 3978 3499 4698 4257 2901 3203 2623 3900 4604 4321 4337 4293 4889 3596 3298 3044 3673 3054 4790 4031 4563 4974 3574 4218 4427 2998 2513 3919 3378 4734 4739 3276 3782 3683 3154 4744 4087 3483 2571 4708 2956 2547 3134 4027 3783 3003 4922 4965 2936 3991 2638 2609 4969 4885 4653 4729
1 33 20 16 7 2 1 18 5 7 0 33 35 10 24 1 30 15 5 19 17 35 19 27 13 20 28 33 28 25 21 39 30 22 11 5 21 35 25 33 12 9 19 36 28 38 32 7 19 31 26 1 18 9 16 9 19 14 12 31 12 16 18 9 20 19 12 9 21 28 11 6 15 16 5 36 17 4 19 35 35 16 29 33 3 39 33 31 22 30 18 22 33 35 8 14 33 5 10 20 27 1 5 26 5 34 9 26 7 10 26 11 12 13 26 30 36 35 24 6 13 1 38 32 6 4287 3524 2999 3853 3243 3150 2809 2617 4509 2702 2843 3733 3069 2905 2879 4718 2626 4416 3235 2736 2618 2650 2899 4096 4100 4142 2907 4161 3299 3475 3006 3370 4612 3809 3860 3178 4533 3224 3440 4519 4405 4236 4379 3105 2877 4407 4065 4686 3336 4672 4572 4066 3263 4246 2890 4259 3698 3167 3899 4684 4598 3829 3760 4812 4796 2749 4261 4151 3791 4653 4661 3471 3806 3866 4284 16 3530 3874 4945 2521 2837 2636 4002 4449 2705 3605 4796 3818 3397 3884 4977 4092 4238 4458 2573 2890 4402 2908 2601 2842 4984 2836 4400 3874 3424 3358 3169 4060 2855 4519 3037 4946 2613 3923 2773 4266 4735 4254 3975 3758 2559 3853 2916 2733 4160
10 26 2 30 16 35 23 2 19 27 12 0 38 5 14 34 25 23 15 1 30 12 32 13 18 31 3 26 17 8 38 22 13 34 20 6 32 19 35 29 22 26 24 14 30 35 5 35 33 17 34 1 1 8 26 28 9 34 15 8 26 3 1 19 34 34 5 27 23 15 20 33 4 9 12 35 32 35 29 12 16 15 32 38 19 3 30 7 15 27 28 25 18 19 1 38 4 12 31 1 39 20 16 16 30 39 30 14 27 13 8 37 11 38 31 30 37 19 38 24 13 26 25 22 13 4540 3285 2541 4646 3579 3928 3662 3577 4773 3286 4128 2735 3223 4851 4404 3700 2830 4490 4654 4043 3357 3760 2913 3660 3743 3418 3080 4066 4247 4600 4897 3281 3921 4250 2948 4101 2762 4465 4865 3228 3043 4528 3887 4652 3027 4315 4480 2514 4063 4994 4425 3987 2887 3671 4405 3009 4887 3763 4200 2943 3193 4386 3936 4289 4910 4300 3090 3954 3454 3057 2528 4630 2852 4345 4038 2709 3311 2721 3433 4750 4265 4464 4586 4992 3183 4576 2539 18 4109 4215 4573 3148 4424 2702 4630 4548 4827 4189 4965 3554 3389 2992 3030 3317 3390 2731 4755 2630 3915 2540 3120 2938 2677 4151 3393 3815 4863 4397 3316 4497 4704 3340 3769 3912 3446
29 26 27 6 34 18 12 9 29 17 29 20 0 6 37 18 33 24 22 9 38 35 27 19 23 1 17 39 1 2 15 39 5 22 9 16 19 24 9 7 3 17 23 5 31 19 10 29 6 20 8 25 10 32 3 8 17 6 25 1 21 10 34 35 16 19 36 36 22 23 4 2 25 25 9 5 9 3 37 16 7 9 7 15 34 31 39 5 5 24 1 6 22 30 8 19 29 25 38 28 35 28 27 24 35 17 22 34 4 6 19 30 27 12 36 1 26 32 7 7 36 14 2 22 5 4168 3095 3869 3702 2551 4667 3268 3137 3340 4927 3906 3430 4484 4018 4106 4836 4469 4727 3727 3193 4589 3379 3155 4824 4358 3294 3791 3162 4986 4865 3562 4427 3990 4491 3370 4767 3850 4358 3044 3915 3451 4483 3369 2740 3483 2820 4451 4065 2562 2831 4347 4989 4545 3730 3115 4883 3542 2799 2843 3334 2676 4211 4487 4000 3328 2801 4599 3226 4660 3565 4530 3049 4376 4781 2733 4412 3633 4975 3082 3150 4851 4013 4182 4300 4962 4726 4815 4754 2509 3850 3414 3808 2813 4433 3942 4443 3019 4002 4407 2625 3375 3457 3295 4746 4973 3540 2778 4708 3839 4805 4393 4529 4729 3703 4575 4434 2805 17 4188 2901 3440 4838 3923 4154 3521
23 34 9 19 8 25 18 22 18 16 25 7 36 0 2 1 8 34 22 28 4 20 15 33 20 7 34 31 4 30 33 7 14 25 35 33 24 1 27 23 32 26 22 6 32 37 36 14 4 22 4 12 15 26 10 3 28 25 7 17 6 38 7 29 23 4 18 4 37 23 14 6 30 14 11 14 5 19 20 8 18 15 3 6 3 13 34 2 10 35 26 7 38 30 25 7 14 27 5 38 14 14 18 37 14 5 37 3 30 8 25 28 32 2 18 28 17 7 15 10 25 26 3 38 24 4144 4207 4508 3661 3062 2855 3106 3789 3261 4789 4324 4164 8 3629 3507 3686 3044 2509 4583 3073 4510 3353 4926 3663 2680 2992 4885 2840 4947 4789 3078 3210 2656 3541 4544 2879 4902 2880 3976 4081 4191 3000 3172 3715 3140 2946 2810 3343 2523 2589 4083 3228 2644 2544 3700 2742 4500 2695 3638 3719 2743 2887 3845 4547 3837 3732 3760 4165 4642 3173 4543 3596 4777 3387 3690 4641 3084 3587 3494 2673 4166 3291 4506 2550 4298 3942 2638 3096 4577 2853 4545 3601 4975 3412 3565 4910 4852 3246 3999 4216 3746 4250 2779 3393 4816 2913 4401 3898 4834 3717 4132 4937 2592 3178 2850 3301 4064 4469 4462 2785 3653 3767 2991 3495 4428
1 3 21 39 21 7 4 30 29 9 33 5 12 9 0 36 20 28 3 17 21 38 26 7 29 22 35 11 39 30 30 27 5 25 30 13 34 35 22 20 37 27 2 24 27 33 23 11 32 32 8 36 39 10 22 1 14 19 21 32 7 33 13 15 8 1 3 28 7 21 38 2 13 37 10 33 1 26 16 19 25 21 35 6 21 23 1 21 1 14 31 8 22 29 37 10 2 33 38 29 26 14 22 8 13 18 10 5 29 15 10 28 2 26 32 1 11 38 6 26 36 27 38 39 19 2842 3063 3626 3630 2992 3107 3808 2630 2519 3872 4718 4083 3987 4261 3933 3327 4910 4613 3718 2655 2607 3004 2887 4194 4974 3473 3835 4057 3509 4069 4226 4559 4593 4593 3386 3140 3281 3510 4083 2507 4281 2510 3824 4346 3766 3181 4654 2579 3799 4261 2592 3728 4841 4111 4676 3755 3842 2886 4971 3103 4688 3361 2955 4755 2916 4518 4502 4671 3280 2732 3671 3563 4166 4348 2865 4388 2874 2684 2976 2913 4794 3861 4155 3833 3070 3775 4005 2644 4415 4442 3739 3005 4798 2595 3885 2570 3587 4278 3212 3548 3738 3202 3799 2828 3633 4690 4294 2735 4799 4835 4340 4539 4381 3726 3845 2846 2829 4978 4735 4621 4472 2875 2859 4513 3264
1 33 34 5 10 35 4 29 19 19 19 2 33 10 3 0 19 12 35 2 24 21 25 8 25 10 22 26 36 31 16 12 10 7 18 2 16 35 19 16 24 4 30 14 39 6 32 18 35 21 22 24 7 27 37 5 34 3 34 22 29 35 38 17 30 28 20 30 16 18 29 39 30 7 11 17 9 11 34 10 22 25 14 14 8 15 30 19 25 35 6 10 2 26 25 25 15 39 29 19 16 35 38 28 23 29 21 24 24 36 38 20 10 18 21 27 24 12 21 13 29 37 33 19 5 2690 4621 4441 4247 4174 2555 2785 4450 4002 4382 4625 4185 2502 4382 4182 3519 3372 3731 3782 4939 3653 3323 4253 4457 3775 4094 2674 3621 4406 3508 3260 4084 3635 2786 2823 3491 4591 2780 4468 3238 3059 2522 4129 4945 4425 4883 4736 3340 3427 2778 4460 4993 4724 3618 4797 2894 2685 4002 3549 3950 2595 4989 3615 3842 2960 3502 4431 3177 4164 3361 2620 3517 2965 4034 4136 3787 2891 3121 4966 3319 3142 3324 2570 2691 3323 3686 4539 3986 4239 3353 2737 16 3646 4966 3686 3964 4667 4066 4293 4700 4537 4398 4799 2925 4313 2716 4627 3012 3078 4293 4622 2813 3109 2787 3898 3939 3538 4819 3957 4827 2636 3787 2768 3967 3399
29 18 28 18 18 17 28 30 13 25 7 23 15 22 37 32 0 33 19 35 33 36 36 17 6 7 22 13 17 9 8 37 26 30 31 1 36 38 36 38 12 32 6 38 31 3 14 29 20 31 19 6 38 7 37 1 9 17 28 11 9 28 15 19 11 5 5 36 12 20 15 6 27 35 36 1 28 2 22 3 10 33 28 33 23 26 39 7 23 35 14 16 8 32 22 17 8 32 26 8 26 13 16 17 20 13 5 19 8 29 21 28 6 11 39 24 20 29 3 30 9 9 23 11 28 3091 2623 2642 4939 2674 4732 4324 4251 4465 4413 4672 3092 3111 3824 4631 4997 3939 3215 3797 4007 3523 3989 3566 2717 4998 3143 2929 3013 2877 2836 2702 2748 4070 3450 3545 3371 4710 4337 2657 4483 2875 3875 3302 3482 4392 3049 4235 4839 4136 2654 4276 3765 3787 3143 4128 4947 3928 2766 4389 3187 3094 3543 4702 4577 3881 2604 2804 2664 2503 4575 3494 3097 2548 4722 4243 4280 2996 3920 4705 4642 3416 3310 2713 2508 3564 4757 3780 3116 4145 2964 3126 2994 3147 3076 4257 3146 3164 2945 3045 2893 4946 3461 4089 3444 4670 4454 3880 3497 4080 3810 3113 4362 4054 4316 4073 3862 4625 4438 4056 2718 4626 2875 4612 3306 4937
4 18 17 25 39 33 25 27 18 25 34 16 12 5 21 38 11 0 7 26 18 15 37 30 4 6 39 38 31 33 19 28 24 20 22 25 36 2 34 37 16 12 34 31 5 36 36 30 24 13 37 37 30 13 23 22 38 30 23 5 17 28 1 33 6 3 37 8 26 24 16 29 35 1 19 21 2 1 8 25 20 10 4 4 26 14 8 12 26 21 14 5 19 39 28 10 13 30 13 10 35 1 32 34 7 32 6 11 16 29 20 22 9 11 14 36 27 29 2 23 36 9 30 2 9 2946 4600 3024 4237 3617 4573 4394 3695 3817 4616 4881 3004 2522 3990 3940 4951 3492 4679 4054 3064 2959 3350 3136 2840 2520 3177 2808 3242 4198 19 3154 4149 3326 3415 2808 2843 3578 4664 3072 3783 2918 3881 3391 4440 4498 2934 3711 4915 3866 2613 3231 4973 3563 3562 3751 3504 3295 3352 4699 3184 4628 3620 3247 4291 4242 3289 4878 2545 3454 4014 4343 2761 3955 4788 4179 3651 3276 4447 3440 3358 2681 4114 3382 4167 3025 4750 4554 3966 2976 3738 2974 2777 3860 3992 3853 4095 2830 2588 4496 4303 3808 4517 4435 4530 4612 2555 4127 2875 4519 3443 2529 4555 3183 4879 2937 2829 2882 4556 4090 4087 4324 4829 4270 4812 2818
24 38 14 23 11 34 12 8 24 27 26 13 30 20 1 22 29 36 0 38 31 16 13 36 7 37 2 25 29 34 2 9 37 24 8 2 36 27 18 6 20 1 20 22 2 25 35 12 27 36 5 8 39 17 29 20 26 31 31 29 9 22 18 16 20 24 6 34 27 1 15 8 28 4 35 35 9 38 35 36 30 4 24 31 5 30 7 25 7 12 39 26 3 22 19 30 31 16 33 1 21 36 21 18 1 21 14 31 4 16 38 35 16 10 3 19 7 21 38 18 2 16 35 5 21 4582 2958 4662 2915 3049 4831 3462 4000 2850 4770 4824 2750 3260 4887 4355 4494 4989 3452 4755 3707 4294 3235 3520 4266 3378 4592 4971 3349 2704 3077 4959 4453 4849 4131 2577 2969 4574 3555 3485 2898 3595 4829 4639 18 2615 4588 2913 3487 3635 3924 3120 4458 3254 4115 3510 3093 3442 2607 3273 3758 3584 3050 3810 2558 4141 3114 2777 3506 3535 4715 3187 4570 4085 2973 2936 2533 4281 3831 3400 3742 3381 4304 3074 2777 3915 3720 4308 3231 3907 5 4889 4575 4247 4039 4446 2920 2767 3593 3319 2785 3084 3994 4752 4189 3143 4999 4557 3702 4549 3195 3313 4282 3309 4233 2847 4009 2568 4877 3528 4180 2844 3956 3914 3215 4763
32 4 5 29 21 18 10 17 4 18 13 32 23 7 13 39 34 14 21 0 33 36 37 28 25 9 27 29 20 31 12 1 24 1 37 2 12 8 7 38 7 11 17 25 16 7 9 31 16 36 35 12 29 22 7 4 30 3 16 23 2 32 21 24 12 33 30 23 3 36 20 14 7 33 38 14 15 2 36 5 11 16 37 1 20 5 27 21 38 35 33 35 34 12 12 17 13 7 26 2 1 1 18 22 12 10 28 7 15 37 25 26 5 15 36 7 19 8 2 33 24 22 37 18 27 2542 4690 2941 4928 2862 3522 3119 3781 3073 3112 3951 2654 3211 4068 4412 2646 4765 2907 2621 2576 3374 4167 4128 3674 2772 4231 3742 4752 3768 3939 3215 4829 2629 4877 4740 4518 3217 4026 2551 4903 3044 4162 3931 2562 3491 3529 4413 2639 4429 3383 3556 2771 3964 3771 3976 3939 2664 3200 3900 2503 4413 3780 4081 4701 4538 3613 2699 4396 4509 3867 4831 4946 4311 2994 4851 4203 2782 3866 3542 3201 2639 4282 2781 3473 3896 4940 2588 4141 3264 4446 4123 3850 4674 3073 3922 4924 2892 4531 2824 3123 4358 4797 3939 4805 4074 4678 3258 4928 3997 2665 3344 4006 4931 2510 3607 3194 4293 3241 3111 4892 3131 3589 3122 4215 4248
8 8 9 5 23 18 4 39 23 38 17 2 38 28 23 15 15 16 16 15 0 26 8 12 29 10 1 18 33 15 8 21 16 18 15 2 29 16 29 15 32 9 28 26 36 38 14 2 22 7 33 12 25 28 37 17 17 29 8 27 36 11 31 13 28 13 11 38 37 1 31 37 5 4 33 33 2 20 5 26 27 26 33 17 4 12 28 1 36 9 13 30 24 3 29 31 36 32 3 10 20 39 28 39 32 14 7 27 27 16 12 10 24 20 39 26 25 19 18 3 1 14 19 27 23 3732 3601 3703 3807 4089 3408 3421 4306 2695 3419 3246 3248 3138 3162 4687 3911 3670 4725 4202 4452 4293 3000 3149 4288 3658 3686 2806 3170 3439 3308 4012 4972 3295 3064 3323 4938 2518 3296 3240 2650 2678 2854 4443 3637 4973 3119 2742 3022 3184 4943 2500 2738 4089 2834 4991 3273 2565 4607 3169 4799 4548 2742 3476 3500 4956 4449 4848 2780 3577 4521 4072 3395 3825 3788 2895 4326 3051 4793 4710 4835 2558 4733 4388 4287 3136 3815 3857 3281 3938 2805 2522 3571 3104 3147 2863 4252 4379 2997 3668 2616 4080 2979 4200 2720 4407 2780 2944 3495 3608 3916 4438 4837 4652 3073 3443 2507 3500 4850 3338 4057 3613 3081 3307 3323 4251
28 15 11 7 17 11 20 5 3 5 4 5 37 13 22 15 10 28 33 14 39 0 16 9 2 11 27 26 7 31 2 29 5 27 4 9 4 26 25 29 1 27 3 35 20 19 5 9 14 21 5 20 37 27 17 2 20 33 8 23 16 23 29 14 15 18 7 38 32 13 17 35 20 1 22 7 20 10 38 37 1 12 27 30 8 32 6 2 14 31 4 31 13 27 21 20 25 34 5 34 36 10 34 1 23 38 11 15 28 36 10 17 34 10 31 36 15 20 1 3 18 4 11 17 13 4630 3791 3901 4031 2920 3493 4729 4196 4871 2564 2986 3877 4052 2768 2574 3508 4817 2516 4739 13 2536 3346 2712 3938 2737 4895 3618 4986 4497 3880 4718 3757 4053 4945 3891 4299 4373 3505 4521 4445 3462 2867 3288 4873 4517 2592 3108 4110 3402 3299 4177 3467 4315 2540 2738 3354 3081 3528 4712 4245 4172 4524 3837 2758 4819 3997 3597 2558 3612 2761 4336 2529 3400 3707 2653 3017 3459 3386 3915 2680 4861 4274 3815 4042 3978 3278 4435 4947 3671 3110 3938 3138 2960 3908 2686 4056 3918 4064 2921 2857 2685 3981 2939 3792 3587 2502 4393 3931 4921 4014 3015 4418 3728 4098 2959 4940 3979 4404 3437 4207 3719 2653 2813 4425 3813
30 13 5 1 10 37 34 31 25 3 28 31 31 8 36 31 35 21 21 4 2 19 0 15 37 21 33 8 27 39 35 29 7 38 32 19 4 15 36 9 31 38 19 19 31 26 9 6 19 5 1 6 27 10 16 2 33 35 32 31 27 11 25 25 2 12 6 27 27 3 11 23 15 32 10 39 30 2 1 17 35 28 10 39 2 20 19 29 32 27 29 27 28 6 2 29 28 5 39 9 9 19 39 22 37 19 11 36 28 36 2 34 35 17 3 25 15 2 37 30 13 26 34 24 9 4201 3699 4542 3052 2882 4099 3593 3624 2548 2672 4597 4054 3604 4918 2653 4903 2798 4435 3134 4064 4151 3595 3418 3073 3539 3120 3659 3729 2714 2540 2767 3590 3034 3463 3566 3678 4319 3392 3090 2744 2723 4473 4771 3400 3541 3323 4824 3297 4675 3115 4471 4698 3916 3137 2535 4502 3089 2515 2626 4847 4661 3442 3374 4654 3460 4775 2993 3468 4611 3643 4925 3460 4255 4716 2769 3696 3924 4432 3796 2911 4293 2564 4880 4814 2521 2852 3616 4391 2941 4475 3754 4545 3693 2913 2564 3102 3379 4280 3709 4805 2632 4148 3144 2684 3980 3604 4077 3530 3768 3420 2618 4040 3819 4118 4843 4915 2746 3749 3820 3263 3563 4854 2688 3300 4301
17 35 11 26 26 24 29 31 33 31 8 20 6 39 38 13 3 17 34 17 22 19 17 0 2 23 15 5 31 17 20 36 1 22 2 39 37 36 6 13 16 23 37 33 5 14 37 17 24 2 24 39 22 24 28 39 20 1 18 1 36 3 29 17 20 37 34 23 20 28 20 34 6 10 15 6 27 24 29 2 4 38 2 21 6 5 23 18 21 20 24 23 21 38 17 38 34 34 17 1 24 12 17 26 25 38 37 31 4 38 32 17 19 39 21 29 28 8 20 25 26 37 18 36 34 3151 4250 3492 4361 3203 3913 3923 3489 2795 4582 4274 4768 3159 4483 4710 4601 4643 3109 4532 4017 3341 2980 4564 3344 3811 4623 4532 3377 3857 4097 4719 3582 4227 4850 3570 4146 3271 4425 3522 2925 4174 2591 3337 3356 3808 4704 3058 3845 4895 4646 2642 4106 4175 4506 2606 3191 2729 2896 4088 3244 3586 3626 2649 4415 3776 3726 3854 4274 3476 3899 3473 2664 2827 4246 3192 3321 4118 4713 3359 2826 2501 3555 3882 3675 4874 3362 3114 2850 4707 3201 3213 2762 3835 4612 3330 4057 4711 4804 3303 4495 3220 4814 3494 2957 2914 4759 3032 2877 4655 4451 3348 2920 4610 2796 4188 3392 3827 2809 4421 3259 3512 2516 4097 2846 3474
4 1 34 32 29 35 30 8 10 27 26 38 18 1 26 35 27 4 33 20 10 19 32 5 0 1 2 21 38 6 9 29 6 39 20 16 16 36 13 35 8 25 24 8 11 2 35 24 35 21 39 35 6 23 32 6 25 5 2 4 20 2 34 37 8 25 8 35 28 13 14 23 39 11 28 32 3 26 4 17 34 37 25 5 18 38 33 17 39 24 18 10 33 20 35 10 23 19 28 13 1 4 39 32 11 38 16 30 34 31 8 13 39 27 23 7 9 20 6 23 37 5 39 30 7 3906 4979 2526 4047 2552 4414 4897 4636 3889 3519 2649 4037 4842 4803 4153 3138 3313 2622 2865 3122 2601 3535 3094 4402 4544 3708 3589 2583 2915 4478 4830 3416 4292 3273 2579 4180 2967 3574 4635 3104 4713 3203 2914 4917 4625 4737 4161 4420 3792 4248 4516 3142 3872 3724 4838 2692 4919 4225 2987 2627 3020 3049 3951 3624 4768 3625 4485 2691 4252 4394 4387 4289 3005 3074 4486 4485 4349 4425 2757 3071 3138 4016 3638 3586 3484 4396 3090 4917 3091 4322 2517 3319 4533 2813 3422 4652 4726 4736 4873 3287 3914 4163 2774 4058 2953 4233 2558 4692 3081 3140 2736 4036 4506 3357 4731 4294 4133 4827 4910 4854 3358 3466 4774 3609 4768
9 9 29 20 1 28 26 14 36 6 24 24 4 28 13 32 15 11 3 7 32 3 11 37 22 0 31 11 25 25 15 4 29 26 26 37 35 6 32 12 11 25 38 15 30 23 29 24 35 3 18 30 20 21 31 15 24 20 32 16 14 22 32 15 24 39 22 13 16 25 21 21 14 19 21 15 38 36 5 22 25 7 1 16 25 28 6 36 26 22 35 28 13 2 24 22 24 26 15 7 39 21 15 27 21 24 15 14 4 2 9 21 33 7 37 30 25 38 24 25 19 12 9 19 11 3389 3657 3793 3290 3392 4625 4694 4540 3089 3743 3965 4131 4833 4496 4998 4243 4985 2637 4369 2788 4369 3391 4403 4652 3715 2514 3867 4179 4392 2796 3652 3495 3390 2874 4702 3343 3554 4241 3851 4606 4369 2984 4405 2736 4753 3219 4710 3713 4985 4777 4828 4841 2790 4882 3180 4070 3042 4199 3521 4401 4005 2619 3552 3803 3377 3187 4749 4569 3372 2911 2749 2640 3601 4623 4071 4600 4170 3224 4931 4545 4824 3948 3184 2606 4113 3295 4123 2502 3417 3735 3586 2674 4807 3269 3521 2657 2869 4448 2756 4148 4389 2866 3590 2906 4846 4354 3744 4966 4073 2801 3911 3124 3502 3821 2837 4521 3099 4194 4658 4161 3576 3232 2704 3847 4358
18 32 1 5 2 27 26 28 26 3 11 17 35 28 11 27 2 24 25 37 10 19 33 22 16 17 0 10 33 38 24 18 6 21 4 4 1 27 25 24 18 37 19 38 27 8 11 12 7 17 27 33 34 21 23 1 24 14 22 30 37 8 16 29 2 33 22 25 15 16 19 27 35 24 23 37 37 10 12 20 23 6 4 19 18 15 38 15 29 30 8 12 13 34 26 12 8 38 9 4 15 16 10 30 28 31 22 24 2 5 1 13 34 27 28 39 3 34 28 36 18 15 39 27 39 2684 4559 4010 4752 3604 4090 4497 4381 2943 4790 3522 4434 2581 4481 4411 3360 2789 3839 3450 4605 3581 3748 4798 4705 3628 3730 2895 3808 3566 3476 2744 3314 2920 3567 3174 4051 3291 3534 3519 4572 3540 3349 3645 3777 3116 3879 4738 3480 4205 3715 3542 2927 3421 3842 2809 3859 4343 3127 4269 3673 2933 4700 3689 4819 2904 3527 4318 3544 2992 4928 3796 4424 3304 3247 2667 4923 4006 3571 4991 2578 10 2919 3958 4384 4483 3151 3094 4764 2549 4620 4811 2849 2712 4511 2801 2651 2604 3612 4514 4151 3969 4884 3548 3520 3633 4614 3552 2670 3090 2946 3384 2862 2891 4147 4158 3243 4734 4899 4118 3437 3542 4085 4216 2835 3219
19 21 8 25 29 10 5 6 12 19 9 35 38 18 9 11 7 10 30 31 35 29 16 4 38 12 36 0 24 21 5 17 10 33 30 35 38 17 4 39 27 10 39 28 38 29 12 1 4 16 9 34 14 13 17 10 7 23 39 31 11 20 17 32 1 30 17 10 37 30 23 30 30 20 1 39 19 34 33 20 8 3 21 8 8 12 16 8 28 7 24 27 16 3 6 21 2 11 16 30 37 27 14 4 30 6 8 25 30 13 11 29 11 29 24 14 39 6 3 34 19 25 14 11 3 3591 4144 3477 4359 3984 3622 4576 3912 3139 3409 3875 4117 3854 3287 3327 3266 3973 4121 3730 2789 4549 4453 3366 2686 3413 3548 4159 3201 3152 4944 4666 2819 4081 2774 4527 3541 3053 4927 4204 3566 3531 3692 4433 2584 4688 2552 4989 4439 4062 3984 4997 3665 2727 4625 4002 4413 4739 4933 3843 4045 3100 3188 12 3956 2820 4536 2707 3746 4370 4462 4637 3754 3373 4481 4127 3320 4576 4456 4959 3088 2610 4820 4277 4850 4610 4671 4301 3156 3670 3641 4980 3999 4039 2804 3600 4171 3123 2623 3068 2740 3291 4697 4381 4291 3589 4431 3272 3864 3394 4857 3611 4856 3597 4181 3737 4058 2868 4543 2933 2959 4257 3268 3555 4266 3699
36 6 31 30 34 12 19 31 19 11 25 5 12 1 13 37 33 11 17 37 15 33 33 7 31 12 32 28 0 22 39 12 12 20 35 17 20 18 13 24 25 31 38 30 2 26 36 9 20 4 23 28 34 1 27 18 37 16 23 12 8 23 35 18 35 15 32 22 36 26 38 39 9 19 17 16 5 15 24 29 5 28 17 32 1 37 3 17 31 30 15 10 21 29 15 10 34 17 26 29 23 12 12 27 36 39 34 24 11 21 27 26 16 23 7 19 26 9 22 38 29 14 13 6 10 4505 3832 2676 4009 4606 4446 4322 3529 2894 4350 3062 3808 3028 2890 3636 2799 4094 4467 3879 4997 4023 3567 4301 4697 2835 2976 4259 4387 4019 2586 4822 2608 3647 3805 3964 3219 2582 4276 2786 4353 4104 4794 2597 4440 4179 2830 4826 2666 4330 4185 3875 3097 3185 3155 3619 4256 4921 4988 4991 4327 3111 3648 3207 3147 4049 4333 3317 3233 2990 2788 3158 4123 3505 3506 2688 3852 2881 3116 4316 3291 3798 4305 4722 2612 2759 2874 3857 4595 3898 3680 2911 18 4946 2511 3906 3185 3464 4756 4947 4818 3543 3932 4997 4947 2994 4594 3508 4380 3890 2619 4907 4352 3990 4361 3472 3507 4804 2522 3310 2978 3838 3629 3851 3674 2893
1 10 26 27 8 17 27 19 19 8 28 4 22 28 7 31 13 2 8 8 18 38 23 38 22 14 33 33 14 0 38 35 15 5 10 10 13 7 19 37 30 27 39 36 13 5 20 8 1 14 6 20 37 30 27 7 1 3 24 33 36 38 9 35 30 34 2 27 18 15 7 3 2 8 16 8 32 19 24 16 25 14 17 36 5 6 18 20 30 1 31 24 3 8 18 10 14 2 22 31 25 35 4 8 5 30 31 26 23 19 38 5 9 36 35 18 19 13 19 36 37 12 14 5 15 3530 3210 3318 2844 4682 4444 3181 2767 3091 4446 4810 4489 4713 4299 3829 3922 3242 4499 3838 3735 4688 4996 3781 4241 4800 4655 3639 3281 4830 3975 4733 4746 3191 4340 3403 4909 3095 2888 3969 3031 2509 2922 2553 2589 4373 2923 4449 3150 4270 4076 3684 3467 3426 4889 4908 4881 4610 4112 3533 4209 4841 4059 3073 4117 3494 4628 3429 2957 3102 3015 4158 2930 4045 3033 4641 3720 3637 4835 2793 2989 3587 4308 2827 3518 4210 4429 3744 3013 2563 3788 2586 3674 2572 3467 3932 2900 4530 3061 3418 4140 4529 3681 2811 4385 3888 3102 4595 3485 4144 2921 3121 4939 2828 3859 3173 3810 4175 4990 4102 4376 2926 4041 3104 4200 4108
12 3 10 23 39 18 22 30 28 37 24 38 33 16 8 15 3 11 11 25 33 37 7 36 31 4 22 38 34 30 0 36 15 17 15 37 23 25 28 5 2 36 2 31 12 11 17 6 15 16 31 16 9 38 2 5 31 2 7 31 11 1 34 27 32 12 12 16 8 13 25 25 23 13 14 21 22 24 28 19 16 19 39 20 15 9 8 16 13 34 25 10 28 34 39 37 26 27 21 37 11 13 2 32 29 1 38 37 28 29 26 28 12 18 31 4 36 32 6 22 9 7 28 8 6 4366 3842 4668 2641 4039 2988 3224 4323 3323 4182 3078 3753 4446 3622 4595 2993 4365 3964 2864 4926 4257 3401 3680 3806 3311 4816 4823 3252 4475 4715 4182 3621 4574 4044 4822 3725 3218 4742 4713 4442 4072 4401 3648 2985 4819 4563 4757 4075 4152 3144 4455 2831 3843 3729 4055 3350 2547 3023 4139 4107 4879 3175 4489 4568 3835 3700 3404 4443 2515 2738 4167 4180 3261 4607 4896 4869 2892 2732 4595 3192 2794 2987 4099 4905 3832 2637 3218 2714 4659 3791 3559 3890 3512 3548 3274 4779 4116 3267 3127 4575 3171 2556 3230 2516 4442 3832 3564 4056 3564 3542 3637 4280 4178 4357 3624 3752 3970 3611 4414 4160 3887 3274 4722 2976 4622
37 5 1 17 31 16 2 35 16 6 30 31 39 11 20 35 7 2 17 17 11 12 33 9 17 24 32 2 9 18 15 0 24 6 29 7 33 39 29 27 3 11 10 11 37 24 1 7 24 33 39 37 26 30 37 16 21 13 6 1 4 34 13 12 1 32 21 32 39 12 15 16 30 14 36 35 25 11 12 22 35 25 5 2 8 39 21 28 19 12 12 27 3 2 33 30 8 7 14 35 23 16 38 24 4 14 6 34 23 30 27 27 37 35 35 14 15 11 29 11 2 24 5 27 10 3674 3788 3786 3463 3833 4397 2619 3831 4953 4441 4138 3535 3967 3744 4173 3468 3441 4799 4067 3882 2631 3438 3317 3845 3350 3469 3254 4070 4965 3126 3896 4918 3429 4528 4101 4991 3188 3369 2789 2558 2924 2678 4228 4735 3596 4740 4938 4286 3437 3205 3899 3242 2966 4124 3680 4549 4713 4111 2584 4192 3120 4283 3021 3814 3660 3677 2643 2584 3999 3442 3763 3523 4230 3044 3017 4068 3507 4701 4620 4765 3954 3863 4844 4880 4393 3693 2640 4450 3383 2994 3615 3224 4555 4486 4844 4275 2808 4366 3437 4008 4503 4245 3725 3020 2776 3100 3694 3463 4846 4744 4820 3062 3158 4983 3088 3535 2517 4609 3989 4293 4107 3921 3597 3989 2582
1 18 24 15 15 8 17 29 28 16 32 3 26 9 4 34 28 25 32 28 33 33 12 33 11 3 30 31 39 38 5 22 0 18 23 21 30 5 35 27 36 7 7 1 27 9 2 5 1 29 25 39 1 25 35 10 10 10 30 22 35 23 17 23 12 14 29 16 3 28 2 12 24 33 13 28 25 12 26 36 35 33 34 26 16 4 1 23 27 21 13 22 2 20 8 39 13 17 5 25 5 16 18 2 2 17 14 4 16 1 33 8 35 24 22 21 17 11 18 37 15 9 18 19 22 4623 3909 4966 2506 3830 4266 2701 4119 4479 3186 2772 4328 3800 3886 3688 4005 3010 3056 4013 4964 4381 2802 4158 3088 4615 2752 4033 4388 3122 3547 3497 3711 4020 4872 2664 3691 3141 4819 2633 2529 3600 3151 3693 4946 3635 4748 4777 2525 3525 3512 3525 2509 4615 2677 3655 4492 3961 4809 3314 4320 3289 4475 3461 3073 3382 2718 3329 2805 2805 4510 3387 3489 2574 4491 3162 2757 3155 2715 3607 4125 4021 4827 4426 2545 3904 3229 3781 2683 3973 3232 3452 3259 4309 4454 4563 4907 3266 2708 3781 3561 3365 3339 3369 2620 4696 2704 4962 4830 3966 4923 4287 2531 3245 3367 4367 2805 3496 2697 17 3979 4487 2901 3746 3702 2905
32 27 19 25 4 29 20 17 12 16 4 27 25 16 19 16 23 6 34 28 35 23 5 15 5 21 24 11 7 38 14 39 12 0 16 30 39 31 16 24 28 36 8 14 21 31 36 2 38 25 14 15 36 21 13 39 23 16 17 3 35 29 1 8 25 21 26 16 27 22 34 27 13 10 28 31 4 28 11 39 10 17 3 29 21 24 24 37 20 32 7 34 11 24 25 32 33 26 36 38 5 39 27 7 14 20 18 26 15 27 15 23 33 30 30 3 10 32 31 23 11 25 16 9 17 2803 4704 4950 2567 2844 4327 2829 2616 4154 4787 3184 4328 4775 3208 3605 3465 4560 3395 4177 4403 3289 4639 2707 3924 4114 4445 4665 3348 4469 2946 4244 4349 3295 2855 4590 4336 3373 2504 2839 3560 3530 2641 4766 3498 3358 2686 4673 4407 4624 3515 3182 4041 3096 3509 3450 3968 4103 4657 2986 3705 4980 3449 2808 3103 3027 4402 2640 2931 4718 3486 3373 4398 4763 3078 2698 4342 3475 2572 3757 3915 3655 3600 3083 2765 4192 2867 2579 4945 2610 3845 4587 2837 3561 4950 3309 4454 3112 3496 3407 3815 3616 4440 4625 3627 3108 4466 3267 3167 4257 4698 4382 4026 4160 2767 3183 3384 2956 4909 3724 4978 4375 4715 3755 4504 4030
26 5 25 26 26 34 15 25 34 22 18 28 23 9 34 10 2 13 27 25 24 32 30 16 20 16 29 34 39 38 30 4 32 9 0 16 12 14 22 22 15 26 26 21 22 22 8 39 10 4 33 19 19 37 28 29 26 30 30 31 12 20 9 6 6 34 3 34 8 1 28 3 23 15 27 15 16 20 39 24 34 16 16 7 29 18 33 9 12 18 11 7 15 12 5 29 39 37 4 15 21 22 23 7 37 2 1 1 38 9 28 19 36 7 38 26 21 3 34 34 39 17 8 37 25 2680 4081 2716 4631 4720 4704 2726 2952 3135 2554 3276 3493 2653 3677 2713 3725 4731 2796 4424 3016 3358 2737 2943 4153 4233 2812 4452 3652 3454 4301 2982 4381 4487 3196 4376 2524 2707 4961 4661 2562 4285 4791 3730 4851 4556 3924 3802 3445 3265 3606 3498 3556 2727 4555 2751 4305 4162 4521 3545 4943 4039 2661 3749 3766 2842 4788 3470 3925 3454 4055 4501 4530 3934 3009 17 4740 2696 4213 2799 4381 2501 4912 4367 4434 3212 4325 4153 4885 3758 4466 4005 2848 4211 2502 3790 3455 4044 4815 3238 4289 2783 3710 3852 3169 4278 4409 3991 2511 2754 3596 3793 4217 3825 3028 3627 2854 2610 3927 2771 4746 4444 4606 2895 3535 4440
27 25 12 29 38 38 9 17 24 8 37 17 13 31 26 16 29 16 3 18 1 17 19 10 22 35 15 24 25 12 23 11 2 12 32 0 14 28 37 9 4 21 22 39 28 29 14 23 37 6 17 39 20 8 34 39 19 16 5 3 37 36 6 23 31 23 14 16 38 18 36 22 16 9 7 21 3 10 30 23 4 2 34 38 17 17 36 28 27 23 31 15 4 35 39 27 22 30 16 7 19 33 35 13 2 22 30 10 14 6 13 19 20 32 33 2 27 29 36 14 2 18 32 19 34 2774 4423 4598 3104 2763 3662 4850 2686 4621 3820 3504 2526 4649 3841 2766 4495 3206 3109 4989 4876 4341 4981 3174 3917 3693 4243 4914 3754 2965 3228 3511 3222 2911 3342 4099 3366 4879 4454 3475 4624 3944 4292 2878 4370 4170 2788 2946 2536 3703 4576 2910 3697 3840 4915 2619 4926 3466 2606 3670 3410 4114 3056 4517 4339 4652 3638 3715 4818 4431 3610 4661 4939 4881 4429 3669 3409 2818 4159 4797 4437 2684 3396 3453 3889 4989 4924 3942 3159 2593 2979 4389 3724 3725 3283 4233 4737 4112 4495 4145 2947 4090 3677 2553 4758 4079 2528 4451 3265 3037 4495 2639 2689 2704 2967 4702 3911 3465 3620 4930 3737 4111 3545 3090 3782 4865
29 12 5 27 3 27 4 6 25 9 2 15 31 17 9 39 39 6 8 3 32 18 20 27 1 29 27 38 27 31 10 18 17 21 17 28 0 20 9 6 30 28 3 1 19 33 25 18 27 4 16 22 1 31 23 2 28 3 23 13 3 5 35 24 11 19 23 30 19 30 6 20 12 21 38 38 38 21 5 1 15 27 28 6 7 23 38 29 20 5 6 36 20 39 23 5 11 3 19 27 25 8 5 16 17 16 15 25 36 31 15 6 30 3 18 36 5 25 1 12 30 4 17 30 39 3175 3396 4971 4542 4072 4924 4833 4712 4677 4580 4843 4928 4669 3433 4123 2538 4967 3533 3337 4253 4554 3573 4224 3021 3331 4142 2721 3357 3558 4548 4600 3635 4758 2857 3758 4566 3739 3250 2958 3293 4516 4180 2942 2869 4298 2830 3171 3483 2551 3061 4587 4167 4140 3300 3653 2565 3287 2886 3104 2792 2775 4337 4467 3916 4091 3962 3985 3118 2591 2954 3361 4768 2986 2532 3286 3666 4163 4405 3784 2520 3587 2742 4464 3974 2664 3915 4499 2808 3518 3079 2590 3524 2573 4595 3128 2917 3183 4538 4977 3061 3397 3840 3757 4930 2959 2602 3524 4587 4352 2642 2913 2500 4483 4773 4578 3823 4512 3945 3239 2794 4439 2845 3778 3009 3420
18 5 12 3 28 8 27 10 12 39 5 8 22 1 24 39 30 27 27 31 24 27 21 17 2 14 36 28 17 21 37 12 26 16 12 33 1 0 34 9 34 39 32 30 9 37 22 23 34 12 11 24 5 14 13 6 9 26 26 2 14 10 27 38 9 26 35 15 16 29 16 16 2 2 12 10 29 27 11 30 36 32 26 24 29 22 39 18 8 38 19 8 12 17 37 19 26 31 26 17 5 8 19 20 5 16 6 20 3 17 13 5 33 35 10 21 12 6 14 27 3 28 26 2 12 4611 2568 4710 4310 4525 3683 4297 3742 3136 3107 3489 4004 3534 4984 4103 14 2719 2922 3366 11 3958 4226 3398 2657 4510 3873 4751 4356 3314 4354 2814 2726 3792 4649 4486 3334 4412 2684 4824 4563 4308 4874 2955 3442 4017 2809 4622 4977 3767 4165 4628 3747 4596 4206 2829 3378 2687 4954 3641 4519 4912 3136 3723 4039 3913 4620 2653 4413 3441 3263 2956 3185 3389 2943 3523 4485 3123 3855 3329 3389 4714 3662 4501 3122 4354 3493 4646 2617 4054 4590 4661 3044 3059 3908 3916 4374 4254 2982 2755 3283 4753 4450 2879 3022 3454 4456 3404 3143 2693 4579 3241 4567 3311 4743 4020 3647 3999 4742 4756 3117 4022 4406 3973 2539 4170
3 23 33 17 29 15 5 38 21 14 34 23 39 33 29 9 4 1 29 17 6 20 4 4 16 10 38 29 6 28 4 4 34 4 35 38 31 2 0 1 35 16 7 3 11 14 22 19 5 25 28 17 20 1 36 37 8 16 9 35 30 14 11 19 35 7 27 13 15 21 13 18 36 35 5 22 6 33 3 26 29 9 34 18 15 21 19 34 35 24 5 29 33 14 31 14 21 32 31 33 23 7 35 8 8 26 28 7 39 23 30 10 7 22 6 29 38 21 8 12 34 32 31 27 4 3642 4448 3494 3617 3217 4316 4356 4826 3623 3247 2522 4373 4626 3162 4920 4233 4629 4092 3342 3348 3204 3001 3308 3501 4820 2635 3441 4414 2824 3641 3818 3772 4857 4829 3286 3378 2946 2715 3852 4984 3540 3065 4236 4625 2563 4887 2919 4779 4143 4567 2851 4356 4642 3316 3948 3910 3819 4814 4148 3423 4326 4907 4126 3027 3114 3678 3665 4638 3266 4571 4264 3358 4415 2845 3127 2949 2681 2600 4178 4454 3546 3646 4211 4257 3164 3854 3463 2864 3080 4704 4680 2570 4534 2905 4968 4483 4238 2667 3004 2892 3514 3322 4039 4212 2761 2948 3392 3119 4813 3664 3283 4311 4899 4631 2607 3128 4885 3437 4208 3088 3404 3659 3407 2908 4606
18 18 29 7 18 24 6 10 11 19 39 20 10 27 27 31 18 2 32 21 6 27 2 15 26 11 22 34 5 27 10 3 3 8 24 38 26 28 34 0 32 24 24 24 13 31 32 6 6 13 24 7 36 24 39 39 34 12 22 34 12 36 24 8 24 33 18 34 24 12 4 24 28 11 36 11 22 37 38 33 3 17 4 36 23 22 29 26 23 9 25 19 15 38 12 1 18 38 29 8 39 28 28 16 6 18 2 25 3 23 35 22 7 29 36 13 1 34 36 31 10 25 31 9 23 4577 2673 4232 3714 4646 3234 2987 4645 4706 3554 3985 3661 3598 4189 3965 4658 2511 4634 3053 2884 4776 3623 4575 3818 3438 4524 3278 4687 2866 4370 3892 4561 3889 4701 3283 4377 4958 3019 3818 3662 4279 2674 4622 2936 3098 4178 3392 3564 3565 3865 2940 2891 3665 4963 3387 2909 2670 2634 4801 3896 3696 2733 4503 4442 3915 12 3864 3138 3627 4075 4253 4513 4200 3711 4066 2610 4207 3192 2886 4280 4758 3899 4368 4572 2940 2621 4981 3422 4108 3158 2554 2711 3431 3435 3298 3518 4805 4228 2868 3223 4363 4232 3179 3512 3341 3004 4352 3907 2515 3104 14 3198 3647 2614 4719 2910 4408 4443 4216 4675 3555 4796 4554 2900 4435
4 21 18 33 6 10 31 8 37 19 24 29 11 31 22 15 4 5 18 11 27 25 12 14 6 8 17 31 32 8 37 22 21 26 11 17 27 14 3 27 0 23 36 28 34 10 11 9 2 25 32 32 15 9 8 30 4 13 1 17 32 13 18 4 1 19 21 18 1 32 30 15 36 16 32 16 1 9 9 36 4 30 1 32 35 26 34 26 35 28 33 1 38 30 3 17 23 12 6 5 4 4 18 4 28 33 5 9 4 24 17 10 30 29 14 5 32 22 21 32 8 23 4 29 8 5 3105 4347 3021 3597 4071 4236 3560 4846 3737 4567 4654 2743 4772 12 3453 4653 3571 3620 3929 3619 2662 3898 4255 2756 2991 4818 2895 4198 4753 3230 4507 3197 3082 3120 4843 4432 4529 4863 3049 4578 4045 3806 4579 4249 3691 4415 3780 2885 3583 3096 3017 4661 4679 3745 3115 2632 4592 4913 3466 2824 4088 4375 3038 2501 3898 3341 3619 4967 3992 4246 2598 4937 3674 2594 3315 4598 3033 3307 10 2915 3362 3394 3084 3964 4311 4418 3280 2617 3927 3067 3809 4843 2515 4632 4537 4812 3297 4211 4922 4293 4168 2591 4994 3038 4892 3839 4339 2685 4341 4024 3477 4767 4746 3227 4241 4649 3999 3709 4086 4297 3103 4784 2961 3527
6 1 17 15 7 25 36 38 8 8 25 21 16 3 8 3 23 31 36 22 6 2 34 11 20 9 33 4 10 29 8 21 29 28 22 25 18 20 32 39 19 0 20 32 3 36 25 18 14 25 31 37 33 37 15 16 4 6 19 18 27 14 20 10 13 20 24 33 12 13 1 27 7 17 30 8 25 5 1 38 26 39 15 9 4 29 34 39 9 15 38 2 36 6 6 17 15 39 38 5 13 14 22 39 14 31 11 34 29 29 15 10 4 6 34 6 26 14 1 3 10 21 10 36 25 4540 4307 3047 2975 2861 4186 2876 3783 4754 3588 4284 4747 3000 4333 3033 4955 2769 4001 4651 3850 3034 4379 2865 3774 4879 3952 3663 3439 4815 2849 2604 3856 3869 3932 3498 3327 3284 4142 3131 2818 4529 2610 4477 4992 4688 3969 3947 3201 3334 4190 3506 4489 2588 4457 4786 2637 3395 3161 3438 4292 4215 3644 4859 3021 3298 4194 4515 2917 4270 3754 4722 3881 3946 4197 4585 4378 4218 4947 3984 4070 4664 2805 4057 3820 4280 3556 3091 3967 4386 3056 4605 4448 3601 4121 3254 4263 4675 3006 3463 4154 2557 3981 3859 4889 4622 4205 4734 2714 3208 3766 2875 2948 3715 3398 4948 3867 4970 2915 2689 3150 4058 3378 2672 4362 4274
32 39 11 27 39 4 3 23 18 2 21 30 3 36 5 19 33 16 31 35 38 14 22 4 10 3 4 24 9 2 27 12 35 26 23 29 18 27 7 29 7 12 0 35 29 17 13 10 16 17 9 9 5 25 12 34 17 10 10 7 30 10 34 39 36 7 11 12 13 20 9 19 29 6 29 23 4 38 37 39 12 32 9 24 14 24 21 23 39 16 11 15 12 36 1 14 8 23 12 8 21 20 17 16 6 21 11 5 22 26 31 9 5 29 18 31 30 8 34 19 27 15 13 5 29 3550 2853 3658 4974 2840 3492 2846 3049 4052 3075 3169 4557 3763 2952 3859 3960 3575 3711 2817 4025 4871 3175 3350 4991 4777 3029 2963 3307 4226 14 3373 2953 4419 4925 3650 4227 2730 4747 4349 4358 3983 5 4695 2811 3804 2694 2576 3338 4835 2972 3769 3082 4790 4348 3169 2927 4216 4459 3457 2610 2640 4372 4892 4633 3466 3280 4128 2831 4961 4640 4510 3023 3603 19 4798 2621 3936 3487 4192 3796 4894 2557 4815 4140 3155 3965 3071 2671 3972 3738 4392 2831 3040 2880 2742 3583 2763 4823 4080 3687 2824 4282 3466 3949 3010 3531 3368 2811 3437 2709 3255 3314 4939 4916 2634 4445 3255 3708 4716 4683 2582 3287 3996 4061 3238
5 1 17 12 28 15 18 1 17 33 5 12 28 35 18 11 20 2 25 22 34 35 27 14 29 30 37 32 18 19 22 20 25 30 19 34 22 7 15 36 13 24 18 0 14 34 3 7 39 24 22 31 7 3 2 39 15 18 18 14 29 37 29 30 14 11 6 38 28 17 38 16 33 15 17 19 10 30 22 31 4 14 8 14 29 29 8 29 26 15 37 10 5 21 15 35 27 34 6 10 1 12 23 13 39 39 35 39 15 22 28 11 7 12 27 6 4 22 16 11 24 28 21 36 8 4298 4602 3961 4691 4905 4393 3624 3964 3701 2984 3512 3599 2761 3880 4738 2810 4485 3982 2519 4155 2619 3924 4431 2874 4241 3940 4567 3720 2668 3069 4116 3311 4058 4031 2728 4798 4796 4216 3744 4028 3085 4781 3426 2899 3700 2870 3940 3424 3138 4449 3508 2840 4561 3921 4710 3774 2630 4573 3089 3966 2837 4499 4396 3490 2767 3767 4759 4733 3156 2623 3770 4262 3454 3210 3629 3645 4372 4284 4557 3960 3507 4538 4512 3597 4727 2557 4678 4916 2698 4893 3665 3925 3642 3088 3913 3113 3679 2761 3652 3893 3960 4342 4513 4107 4077 3558 4497 4406 3937 3857 4139 4376 3287 4647 3037 3577 3172 3581 4556 3847 2867 3418 2753 2783 4442
23 6 10 21 39 27 13 2 24 24 28 16 9 27 11 39 39 4 14 12 26 24 15 6 35 2 16 23 5 11 13 2 3 27 4 35 24 2 15 21 20 31 31 22 0 32 33 34 9 2 9 30 18 22 17 5 3 34 1 24 12 31 14 1 31 20 10 19 11 9 37 21 17 24 30 16 17 7 9 17 27 25 33 15 28 3 3 8 3 9 28 25 16 28 35 4 28 10 22 35 25 38 36 30 24 20 33 34 18 10 5 27 5 21 32 19 38 14 35 23 29 28 11 25 39 3100 4448 4653 4056 2945 3714 4340 4344 2932 3045 2993 4625 4931 2698 2816 4801 2586 3416 2956 4416 3625 3517 3079 4251 4745 4505 3091 4205 2724 4992 4521 2752 3047 4807 4889 4507 3838 2764 2959 2572 4096 4361 4238 2592 3059 4320 2980 2561 4248 2982 2719 3619 4241 3970 4439 3344 3820 3380 4728 2755 4604 3550 3798 3626 4809 4445 3134 4193 4227 3877 3981 3167 4788 4863 3486 3524 3148 3009 4001 3340 4168 2964 4772 2887 4120 2581 4453 3598 3781 2619 3438 3693 4987 4812 4914 4912 3368 3287 3895 2635 3749 2991 4325 3443 2666 2846 2507 3904 3426 3719 4633 3967 2604 4858 4392 4210 4029 2986 4824 3823 4363 3788 3681 3232 4011
27 2 1 4 32 25 15 4 7 39 14 20 35 4 14 31 12 11 17 23 25 37 12 5 5 21 1 39 24 23 23 10 34 15 27 17 16 5 35 32 4 33 1 26 30 0 33 23 24 19 9 29 26 25 31 2 14 30 34 1 24 20 18 4 28 11 13 15 33 18 1 29 37 21 17 15 30 28 27 27 25 39 26 36 30 7 37 6 7 18 15 2 31 2 24 39 34 32 23 2 1 20 19 38 6 10 16 7 37 10 10 30 24 37 34 39 32 16 28 18 8 25 37 38 18 4554 4791 4351 3533 3499 3845 4485 3601 2557 2675 4142 3300 4093 4775 3479 3712 2751 4681 3573 3243 4940 2980 4420 4362 4884 2941 4631 4952 4263 7 2939 3635 3220 4602 4457 2932 2931 3217 2740 4268 3990 4642 4334 3657 3044 2686 4947 4254 4606 3699 3915 3926 2829 3095 4604 2508 3169 4457 4077 4570 3143 3071 4279 4550 3231 3190 4046 3800 4884 3666 4341 3905 3753 4520 3904 4706 4257 4599 2586 5 2998 3725 3776 4847 4198 2506 4018 4784 4214 4194 2588 4893 3911 3570 4051 3132 4383 3255 2976 3036 4503 2913 3466 3423 3431 3865 4220 3430 4586 4232 2893 3202 2562 3463 4538 3404 4635 4564 4054 3348 3175 3545 2799 4206 4015
38 10 1 23 2 24 25 34 26 18 13 20 24 16 33 13 27 16 15 1 16 9 22 29 39 13 3 8 12 39 6 25 27 5 15 16 9 11 5 30 17 20 8 15 36 25 0 2 27 3 33 36 39 19 1 2 37 3 16 28 7 16 3 17 8 6 34 5 38 35 2 9 36 5 26 17 34 11 6 13 7 17 38 12 30 26 27 9 32 38 2 21 27 4 6 6 28 28 16 28 11 24 30 36 36 30 1 27 24 28 27 35 33 16 37 25 13 26 1 9 30 14 28 18 27 2728 3775 4443 3552 4299 3050 4427 3152 4339 4902 4931 3480 3678 4196 2969 2863 3444 3344 3243 2656 4984 3417 3988 4615 8 3560 4060 2958 4581 4779 4880 3651 4694 4541 2595 4556 2548 3611 3552 3492 2914 4759 4366 3631 2736 4557 3192 4152 4132 4106 4025 3105 9 4030 3257 2690 3030 3801 3546 3768 4461 4932 3995 4803 4085 2857 3706 2662 4258 4543 2677 2889 2802 4413 3088 3420 3951 3282 3593 3986 3508 4881 3947 4478 3411 2767 2744 4960 4038 4745 3212 2636 2962 2745 3765 4298 3787 3625 4202 2522 4467 4561 4522 2508 3709 3466 3381 3805 4321 2806 2883 3094 3792 4211 4932 3390 4475 4931 3485 4609 4515 3310 4319 4337 3532
32 37 6 13 4 11 36 5 2 29 1 22 23 24 36 21 13 31 27 20 35 22 14 16 23 11 9 23 9 21 35 31 4 31 27 19 26 8 13 25 19 26 3 26 17 2 39 0 32 20 36 24 15 9 38 27 35 29 34 3 20 37 10 37 34 35 28 13 15 30 28 29 1 8 15 25 27 11 19 21 19 37 19 31 25 10 16 2 26 24 20 4 30 36 2 25 9 5 32 35 21 17 26 1 34 38 29 15 11 19 13 10 26 17 33 30 2 34 10 21 35 8 20 11 7 3917 2704 2865 2607 3201 3775 4871 4505 4038 4429 3792 4578 2806 4857 4597 2942 3725 2788 4323 10 2924 11 3361 3424 4689 4499 3951 3808 4771 4180 2624 2656 3111 4845 2966 4145 4742 4494 4406 3055 4297 4818 4501 4595 2642 3115 2511 4471 2970 4167 4666 3685 4697 4319 13 4612 4230 3188 4196 2965 4055 4924 4334 3363 4201 2576 4210 4596 3569 2525 3149 3453 3795 3290 2851 4179 4845 4739 3939 2885 4654 2850 2564 2505 4762 4246 3087 2511 3211 2506 4963 3302 3624 4674 3821 2853 2504 3557 2550 4729 4979 3636 2819 4349 3737 3075 15 4844 2744 3967 3664 4021 4513 4691 4499 3108 3020 3260 3975 4235 4986 4264 3155 4652 4979
37 13 20 24 10 13 2 5 29 6 37 26 38 4 3 13 23 34 25 19 16 13 2 2 30 36 6 4 12 6 37 20 9 3 7 26 8 13 12 24 23 26 2 37 2 37 12 20 0 21 23 6 24 1 10 9 19 39 32 7 17 32 36 20 25 10 18 9 10 34 19 3 37 18 14 19 27 4 38 20 25 16 22 30 32 8 22 4 22 38 1 7 28 39 33 6 37 14 38 13 6 24 28 7 18 3 7 33 37 39 9 15 8 10 29 16 4 9 9 27 39 34 39 26 17 4325 4532 4324 4963 3625 4567 2646 4212 3836 2661 4060 4529 2982 4887 4545 3653 4178 3872 4311 3916 3369 2616 3173 4329 3934 4202 3121 4765 3691 3973 4562 3918 4072 3587 4437 2784 4906 4046 3141 3008 3820 4692 3877 2729 3740 2895 3989 2993 4951 3069 3679 2912 2777 2809 3825 4947 4001 3413 3591 3388 3617 4608 4951 3622 2922 4614 4208 4194 2589 4947 4556 3568 2550 3047 3574 2579 2623 3876 4968 2795 3080 3892 3270 4679 6 2800 4911 3322 3483 4109 4968 4211 4439 2955 2613 4580 2547 4287 4929 4154 2672 2572 3802 3898 2908 4102 3503 2702 3626 2809 4176 2959 4123 3258 3890 4306 2908 4718 2598 4080 2925 4981 3940 4270 3218
6 21 24 10 14 21 14 9 14 33 21 1 25 26 36 3 20 1 11 30 29 20 14 15 33 3 8 32 9 6 5 37 28 21 2 21 16 2 38 33 11 36 20 5 19 1 26 38 17 0 28 34 8 19 34 33 32 12 19 29 27 39 29 7 5 36 4 22 38 39 7 4 23 18 25 33 3 18 33 29 38 12 12 1 37 17 19 21 12 10 11 36 32 31 22 38 26 30 4 6 20 31 11 8 29 18 2 31 7 29 28 30 33 6 38 7 35 28 34 27 28 27 26 6 17 4240 4846 3322 3799 3289 3073 3273 3172 4919 4561 4293 3480 3926 4332 4617 3504 2919 3332 4360 3266 4863 3174 3762 3015 4880 5 4605 4514 3072 4979 3302 4602 3017 2515 3978 4823 2517 4635 2503 2787 4860 2851 4411 4040 3398 4869 11 4074 3755 2937 3889 3340 4606 4134 2501 2579 4562 4033 4437 2780 4708 4194 4487 4154 4300 4389 2683 4401 2948 4853 3263 4454 3174 4194 3646 3635 3033 2699 4172 4373 4753 3505 3558 4321 2921 3665 3475 2662 3310 3824 3042 2808 4842 3987 3307 4396 2846 3427 2869 4568 4259 4214 2657 4816 3196 4494 3086 3820 4015 4598 4475 2958 4224 4663 4720 4362 4789 3733 4768 2597 4303 4737 4327 4505 2864
28 14 33 21 13 28 8 4 36 37 13 29 22 35 36 4 8 10 23 33 11 32 28 32 39 29 2 26 9 31 2 34 6 19 22 27 17 21 38 22 12 20 14 16 16 38 2 3 11 16 0 11 13 16 19 27 3 30 37 31 25 11 30 27 10 29 6 34 23 2 39 11 11 28 12 28 27 2 6 18 32 33 19 4 28 25 6 31 30 5 2 37 19 5 37 39 17 9 19 1 26 23 32 29 23 31 32 37 24 14 27 9 22 24 31 20 24 33 38 34 31 23 30 29 19 3762 2648 4344 4263 4240 4480 3642 2745 3795 3264 3782 4828 2618 2691 3845 4873 2811 4975 4146 3739 4874 4048 4258 3616 3157 4614 3819 4781 3343 4213 4663 3290 4355 2536 2990 3419 3771 3040 4367 2577 2750 3364 4079 4882 4221 2676 4599 3444 4954 3428 3651 4346 4453 3712 3013 3593 2942 4694 4746 3731 3318 4765 4505 4659 4861 4411 4197 3915 4770 3053 3106 3472 4423 3115 4996 3583 4190 4003 4215 4201 2601 3216 3477 4112 2954 4569 4728 4349 3235 4122 3156 3173 3828 4863 2634 4569 3366 3535 3473 4284 2871 2883 4045 2663 4770 2973 3603 2808 3442 4882 4781 3269 2562 2539 4433 4829 3433 2810 3811 2642 4249 4056 4625 3258 4802
28 16 7 33 5 13 37 17 23 22 34 24 9 13 2 4 15 12 21 28 24 37 20 26 9 10 11 12 5 15 16 31 29 33 27 27 13 34 4 6 33 7 21 27 25 26 5 11 3 30 31 0 24 32 6 24 18 7 5 3 35 38 17 38 32 1 15 5 34 18 23 39 31 34 22 7 3 6 18 22 22 7 36 11 37 24 7 23 13 7 14 23 15 6 14 34 25 33 22 10 1 15 14 3 39 7 27 33 21 15 9 18 18 9 10 35 26 24 36 18 11 25 16 4 23 3638 4403 2506 4797 4891 4669 3210 3081 4900 3120 2562 2721 3501 4867 4958 3405 4712 4260 3542 4475 4531 3115 3793 2624 4210 3700 3456 4526 2902 3787 4241 13 4306 3067 4996 4561 2648 2914 4770 2566 4850 4737 3378 2546 4680 3040 4894 3416 2737 3368 3535 2526 3377 4603 4005 3519 4897 4835 4285 4669 4041 2917 5 4383 4786 3119 2807 3009 4234 4340 2648 4452 3641 2758 3965 2743 2929 3028 3374 2892 4545 3338 3206 4760 2907 2876 3981 4617 4736 2791 4779 4353 3022 4836 2529 2558 2855 2691 4407 3249 2738 4625 3110 3820 4266 3547 2743 4928 2570 3266 4856 4112 3505 16 4418 2530 3397 2968 4364 2872 4218 4081 2537 2560 2969
35 30 23 34 34 16 6 18 31 10 34 2 33 39 16 1 10 24 2 4 2 9 16 1 1 31 12 28 31 5 15 14 21 37 6 33 22 6 3 22 17 10 28 6 23 24 32 11 9 4 26 1 0 33 35 11 3 3 23 15 39 4 2 10 28 29 5 24 15 5 39 32 20 8 33 14 27 12 28 21 32 32 17 7 34 28 39 15 9 19 4 17 19 10 23 3 3 14 5 34 28 2 38 4 36 29 8 5 12 28 17 27 18 23 7 23 4 4 24 33 28 24 31 21 14 3668 3921 2771 4857 3579 3027 2566 4778 3972 4237 4375 3259 2996 3531 3161 4464 3742 3842 3771 4396 4178 3633 4424 4953 2607 2924 4801 2831 4432 4688 4082 3939 3004 3455 4954 3889 3205 4420 3159 4227 4732 3751 4246 4974 3558 3788 3390 3572 2540 4216 3896 3164 4311 3034 3968 3680 3170 3571 4018 4197 4752 3992 4135 3208 4561 2602 4540 3634 4731 3856 4150 2581 4403 3593 4755 3925 3584 3713 2960 4732 4265 4483 2959 2653 3178 3120 4050 2826 3012 4301 3623 3435 4674 2864 4850 4770 2547 4362 3382 2562 3594 4196 2707 4456 4512 4232 4037 4825 4057 4954 3672 2829 4498 3446 4725 4902 3345 2821 4542 3670 3382 2821 4904 4517 2865
25 38 23 16 14 4 35 37 24 8 9 30 25 21 23 24 11 25 7 3 28 28 37 39 1 7 32 39 5 34 36 32 10 3 35 16 9 11 34 11 32 2 30 14 15 17 14 33 26 17 24 24 9 0 10 29 1 33 32 2 35 33 20 7 37 28 31 18 7 21 33 13 34 12 29 20 3 26 35 34 8 21 26 12 3 5 39 2 9 16 23 3 1 26 33 11 39 5 32 2 6 10 8 19 19 4 24 14 21 11 31 25 5 20 28 17 11 1 34 28 39 1 29 2 25 2722 4176 4311 3458 2962 3158 3838 3459 2918 4575 3555 2561 3202 4196 4623 3668 4772 4019 4234 3505 3619 4620 3320 3330 2680 3871 4978 2539 3008 4091 3656 3994 4549 3681 3794 2699 3084 3326 3658 2834 4567 4954 3782 3713 4777 3025 3530 4153 3756 2848 4249 3595 3243 3811 2551 2651 2755 4216 3405 2515 4671 3142 3462 4342 2910 2833 4251 3334 3765 3578 4091 4467 3659 3709 4514 4552 3943 4344 3510 3836 2776 4844 4456 3450 2651 2530 3865 3115 4827 3662 4656 13 2925 3960 3970 4758 4877 4346 4290 4123 2930 4811 4167 4749 2710 3448 2799 4619 4866 6 3461 3114 2566 4183 3155 4601 3540 3326 2667 4667 4750 4169 3930 4609 4469
3 16 23 17 16 32 7 2 38 8 25 12 2 38 4 30 20 37 24 31 10 18 12 20 3 16 30 19 4 39 19 6 8 15 35 8 26 35 13 8 21 6 34 12 30 19 21 19 35 24 24 32 20 11 0 5 30 31 8 34 23 15 24 1 32 10 19 32 4 20 6 29 1 17 34 2 19 26 9 25 38 8 6 11 8 35 29 15 38 7 1 31 7 26 22 38 33 2 5 10 28 17 8 35 7 20 12 14 22 8 8 1 15 2 22 29 38 13 29 21 34 18 12 7 2 3108 4715 4914 4734 3005 2648 3246 3955 4201 3797 4930 4526 3591 3032 4388 3963 2561 4103 3437 2961 3236 3300 4254 2822 3812 4619 4927 3111 3799 4802 3518 4216 3021 3004 4246 4875 2701 3938 4742 3884 3753 4986 4459 3914 3477 3365 3918 4346 2781 4600 4415 3924 2883 4283 2523 3743 4582 4410 4462 3959 4964 2944 2959 4363 3908 3937 4095 4179 3833 3523 3587 4020 3595 2771 2533 3903 3201 4214 3454 3660 4505 4868 4439 4299 4984 3200 3960 2551 3060 3651 4019 4996 3391 3575 3872 2814 3958 3147 3006 2717 2755 3298 4928 3318 3698 3445 3873 4447 4978 4346 3152 2726 3566 2614 3022 2523 4390 3084 3082 3753 4617 2851 4297 4655 3698
37 1 27 19 21 16 11 25 7 8 35 36 24 18 32 15 16 10 39 18 8 31 3 23 27 24 14 3 6 6 4 14 31 39 39 25 27 11 9 8 38 7 13 38 19 8 39 10 38 31 26 20 33 12 25 0 11 34 13 32 36 5 14 12 32 18 32 36 10 32 17 22 5 29 15 32 3 4 21 26 27 1 39 9 1 5 34 22 31 11 21 2 17 30 23 31 37 14 5 17 32 8 31 29 2 34 1 5 31 28 39 33 29 38 28 16 15 24 31 29 36 13 17 19 30 4713 4423 3424 3719 4059 4668 2895 3386 3309 3551 4186 4055 2997 4023 4218 2949 4468 3100 3212 3258 2753 4860 3033 3491 4780 2722 4482 3691 2604 2706 4613 3893 4247 3398 3597 3019 2653 4201 4217 3212 4210 4995 4884 4265 2724 2571 3799 4010 3920 4348 4355 2743 4167 3851 4694 4578 4287 4960 3415 3266 3967 3611 2823 4566 2590 4267 3526 3839 3567 3218 4972 4904 4812 3651 3693 2555 4782 3889 3481 2590 4108 3179 3595 3214 4980 2765 4028 4682 3802 3238 2654 4222 3559 2691 4930 2853 4853 3556 3154 2915 4196 4015 4707 4810 3168 4590 4439 4714 2759 2972 2790 4933 4990 3053 2727 3850 4977 3422 15 3731 2792 2671 3719 3956 4443
22 20 28 22 11 12 13 20 21 39 33 32 26 13 5 25 29 29 35 28 30 34 35 18 22 26 17 22 29 9 10 17 2 38 18 23 36 13 17 31 22 4 28 20 11 30 10 7 12 12 23 22 16 27 32 1 0 4 23 31 28 18 7 29 37 2 11 25 22 23 33 2 27 1 14 6 36 26 20 15 35 10 30 10 34 27 29 30 32 12 19 24 27 34 22 21 2 29 8 25 36 39 26 2 5 39 17 20 7 21 33 12 33 35 18 14 4 10 25 36 23 15 22 7 17 4823 2796 3146 3634 2597 4639 3836 3500 4972 2565 2989 3149 4944 4758 3079 4078 4354 3630 3223 4442 3870 2682 3771 3139 2679 4334 3211 3418 3864 3002 2871 4579 4424 2865 4111 3762 3768 3173 4826 3312 3492 3622 4513 3814 3013 4099 4275 4126 4451 3318 4737 4644 4281 4134 3579 4372 3326 4250 3569 3098 4278 2676 3965 2813 4874 4436 3147 3401 4679 2759 4177 3779 4896 3387 4940 2804 3955 4345 2947 2549 4102 4042 3253 4158 3143 4044 3745 4382 3154 3966 4373 4064 4103 3026 3281 4981 3179 3759 3502 3342 4818 4014 3157 4281 3395 3429 17 3371 4920 4965 3757 3769 4009 4991 4747 4042 2691 3771 3039 3130 4816 3808 4178 4759 3631
38 12 19 8 3 2 39 18 39 39 39 31 24 27 39 13 37 17 33 36 10 7 10 34 26 31 34 8 34 4 38 12 7 10 9 10 23 14 13 27 7 27 21 33 20 33 12 36 13 25 21 37 32 8 39 22 22 0 7 24 19 30 38 33 10 15 4 27 8 38 39 19 37 26 35 18 11 21 14 24 17 31 18 23 21 1 12 29 12 12 29 3 17 34 5 23 37 17 21 6 1 24 11 14 17 7 2 13 15 30 29 34 5 10 30 7 11 39 8 18 9 35 17 14 9 2782 4322 3746 3497 2960 4882 3986 3602 4753 3363 4237 4700 2771 3026 2791 4604 3469 3204 4818 4620 3837 4883 3956 4228 4229 3251 3643 3461 3467 2861 3638 4506 2845 3908 4126 3309 4676 4725 4525 3784 3066 3796 3016 3688 3479 3769 4380 2970 3872 3620 4917 4152 2822 4318 2862 3714 2673 3574 3565 4998 4904 3964 3824 4415 3350 4928 4682 2937 4189 3089 2531 4439 3413 3035 2749 4720 3640 3836 3828 4277 4032 3950 2686 3377 4916 2809 2525 3393 3322 3258 4128 3693 3512 4591 3485 3452 3070 3003 4479 4684 2764 2668 3590 3879 3895 4881 4689 2873 3216 3455 4340 3566 4738 3188 4768 4449 4970 2788 3218 4636 4336 4995 3266 4745 3370
26 9 2 10 15 20 26 6 8 30 17 26 26 29 33 32 35 39 14 36 13 16 7 25 36 31 19 37 31 5 15 10 9 9 7 15 39 30 23 29 14 32 28 27 28 16 22 36 9 28 28 23 38 35 16 28 30 22 0 27 24 15 12 26 10 33 23 5 29 25 25 31 18 20 31 33 38 31 38 30 37 38 2 38 30 23 10 30 13 13 23 13 6 16 1 22 24 9 6 19 7 10 11 28 4 32 4 29 29 26 12 36 38 38 31 6 33 27 4 24 15 6 9 30 21 4021 3789 4000 4487 4496 3816 3408 4181 4122 2637 4143 4750 4179 2568 3571 3546 4781 4520 3894 3502 4783 4793 6 3943 2913 3524 2596 2912 4529 2638 4357 3028 4706 2726 4640 3466 3751 3295 3375 4835 2898 3445 3810 3049 3551 3019 4982 4941 4713 4880 2659 2762 2652 3816 4656 2811 3929 4843 3240 4539 4262 3102 3179 3272 3481 2960 2617 4404 2986 4212 4307 4115 4064 4629 4295 4554 4965 3425 3740 3618 3310 2709 3799 3120 4751 4931 3355 2725 3833 4820 4012 3902 3087 4321 4385 3354 3144 4108 3124 3606 4927 4993 2535 4760 4843 4542 3079 4893 2713 2809 4218 4819 2742 2559 3316 3058 4007 2748 3960 2690 2590 3984 4880 4772 3957
7 15 32 37 36 30 12 36 13 31 32 25 18 22 38 2 15 7 24 3 37 8 1 23 23 27 35 31 36 35 9 2 12 32 21 15 14 32 7 4 38 22 31 38 33 30 20 22 5 20 12 38 39 14 30 8 35 31 27 0 22 35 35 12 12 14 7 13 6 21 5 39 6 32 34 35 1 32 30 39 33 17 31 14 18 31 21 10 37 28 37 39 37 25 39 17 39 22 39 33 28 12 38 10 38 11 11 21 2 3 20 14 20 39 11 19 21 17 3 32 38 8 1 5 4 3799 2816 4676 3964 3630 3817 3040 3036 4985 3670 3468 4584 3332 2590 2559 2666 4301 4849 4535 2526 2510 3127 4353 3773 4744 19 3464 4960 4805 3737 3251 3660 3119 3082 4126 4313 2825 4465 4941 2950 4201 3735 4375 4037 4391 4108 4447 4365 3588 4109 4798 4429 4580 4177 4664 4921 4625 2640 3260 3938 4672 2507 4431 4942 4812 3521 3708 4752 4120 4882 3973 2932 4165 4714 3864 3565 3042 2785 4764 4420 4554 2769 4696 3338 3286 2679 2592 2572 4659 4512 4334 4412 2959 2954 2712 4274 4842 4578 2919 4507 3735 4273 3622 4547 3882 3144 2730 2832 2978 2565 4712 4821 3836 3325 3516 2506 3933 3173 3800 3773 3313 4683 4662 4647 3944
11 15 30 34 20 7 36 8 6 12 7 3 25 18 38 7 34 1 3 13 1 25 9 22 32 19 21 30 25 13 13 6 32 25 3 21 32 37 37 15 15 19 25 14 39 14 23 18 8 19 16 19 33 5 38 19 3 25 15 13 0 7 20 4 38 31 30 5 29 2 25 13 23 5 7 12 5 8 28 14 20 25 2 21 12 27 3 4 22 20 31 16 9 15 29 31 26 8 8 34 21 10 38 34 15 34 17 4 13 9 9 18 25 24 9 11 5 26 35 19 39 25 23 17 21 3271 3844 3754 4042 4018 4870 3966 4141 4789 3923 4644 4734 3406 3662 4494 3212 3924 3677 4685 3291 3808 3652 4856 2656 4256 4897 3002 3532 4683 3464 4005 4660 4558 3783 3278 4280 4318 3085 4160 2923 2692 3059 4917 4628 4511 3007 4295 4526 3862 3415 2520 4992 2795 4275 3027 3885 3101 4500 4188 4216 2962 4521 9 3275 4534 4318 3911 3687 3399 3115 4230 3915 3689 4214 2588 3896 3730 4558 4074 4180 3965 2668 2535 4683 4093 3655 3663 3198 4399 3687 4628 4440 4169 2551 3479 3875 2638 4121 4176 3793 4364 4342 3131 4787 3334 2943 4973 4494 4733 4797 2576 3448 3226 4970 3226 4976 4680 3687 3426 2504 4688 2520 4671 4236 4539
23 10 34 19 10 11 4 22 14 4 19 28 22 18 22 1 26 23 9 30 30 1 12 21 15 26 6 31 7 18 12 23 17 9 11 25 14 29 27 21 28 16 9 4 28 34 30 39 16 20 37 5 11 37 18 31 32 19 13 14 19 0 31 15 30 16 15 33 33 28 4 23 10 28 33 21 25 31 10 18 31 4 8 39 17 6 20 23 21 38 34 13 22 2 3 30 28 25 37 27 10 20 36 23 4 16 13 5 22 3 36 6 10 35 23 39 24 22 13 29 9 6 20 19 37 2786 3172 4612 3354 3574 4822 3972 4769 4109 3346 2788 4626 3098 4947 2650 4768 4917 3302 4822 4478 4082 3409 2592 2903 2756 4395 3789 2716 3052 2556 2829 2767 4428 2501 3599 4845 3561 3225 4375 2831 4953 3161 3756 2902 3831 4939 3007 3985 2649 4145 4494 4310 3363 4319 2790 4375 3679 3970 4491 4199 4352 2768 4934 4881 3147 3352 3537 4669 3211 3817 4817 3492 3735 4964 4689 2621 4950 4243 3532 4053 4270 2685 4337 2621 4216 4832 4661 4500 4944 4747 2940 4185 4479 2863 3175 3352 3399 3212 4358 3092 2671 4156 2815 4754 4586 4506 4694 4574 2747 4231 4153 3371 4191 4739 3317 4182 4892 2540 3470 4542 4076 4658 3616 4724 2811
8 12 32 31 31 31 18 5 10 27 5 23 36 21 20 5 20 21 11 22 33 18 8 9 4 34 34 34 14 32 30 9 8 6 1 37 18 15 37 11 7 4 5 38 12 35 27 39 11 32 20 28 18 18 21 10 12 14 13 6 8 39 0 13 18 12 3 20 15 28 6 18 38 6 28 6 2 4 2 18 9 4 16 6 37 36 1 2 24 28 7 39 32 27 4 25 9 22 25 25 4 16 3 27 12 13 7 4 26 12 13 5 18 1 17 5 13 2 5 31 19 29 9 14 3 4422 2624 3373 4197 4280 3483 2805 3733 3531 3034 2729 3708 3266 4529 3915 4849 4065 4602 4319 3721 4260 3596 3380 4348 4564 2864 4207 3233 4377 4956 4026 3767 2752 3721 3706 4234 3051 3798 2529 3973 4408 3694 2888 4179 3951 3417 3314 4448 3286 3618 4856 3362 2908 2545 4556 3918 4690 2869 2503 3303 3617 4263 4454 2698 3101 4518 3319 3699 4857 4272 3264 4180 4122 4858 4225 4185 3535 4775 4404 4056 2589 2768 4557 4440 4527 3164 2680 2947 4363 4374 4001 4588 2709 4302 3133 3627 4071 4762 4053 3530 4852 4411 3614 3985 3374 3750 4191 2982 4585 2766 3245 4078 2836 2905 2875 4320 3373 3236 4706 4749 3496 4814 3162 4223 2720
2 23 5 20 18 36 13 1 10 10 19 36 31 23 24 31 10 22 10 21 15 18 1 29 12 38 32 21 35 17 17 3 34 10 31 20 5 34 39 3 6 22 8 25 31 12 14 22 1 39 14 11 26 6 14 5 19 2 39 24 31 21 24 0 39 10 39 37 36 35 20 39 31 34 16 31 8 12 34 17 33 39 19 11 38 34 5 1 10 23 2 25 17 37 25 37 10 36 26 7 34 11 33 37 30 24 1 34 31 14 10 35 28 14 10 17 27 3 21 32 20 22 14 23 10 3829 2897 4234 3655 3464 3525 3484 2703 4079 3635 2640 4755 4056 2746 2574 2536 3783 4334 4674 5 4942 3802 2774 3248 3814 4984 2912 3756 3980 3368 4563 2902 2975 3711 4881 3941 4626 3939 3819 4951 4820 2908 3515 4327 2813 3136 3789 3146 3064 3448 2959 2912 3386 2875 4124 4650 4390 2617 3558 3853 4453 2761 4636 3240 2585 3239 3487 3495 4700 3941 4899 4099 2621 3304 4964 3728 4885 2929 3745 3641 4481 2664 3127 3524 2680 4361 2711 4150 4892 2761 2939 4092 2785 2796 3843 3420 3074 4171 2611 4470 2612 4865 4334 4400 2783 4595 3486 2541 2941 4580 2564 4011 4235 3097 3412 4432 3538 2930 3030 4969 3904 3343 3893 3803 3487
29 35 35 15 24 31 34 36 5 3 28 7 23 5 5 19 4 17 26 38 6 14 31 27 15 37 11 28 17 10 19 39 25 8 16 27 30 21 18 6 5 24 7 39 12 39 28 27 4 13 19 10 3 37 34 36 12 10 30 27 30 31 4 5 0 17 30 33 35 15 18 9 28 31 13 21 13 36 28 20 38 8 39 2 1 13 14 39 10 16 32 39 27 13 15 20 19 6 35 20 21 16 16 29 27 13 10 39 2 12 16 20 2 8 17 13 6 10 4 10 30 36 35 32 5 3510 4917 3620 3545 3961 4250 4204 3826 3798 3406 3325 3440 3734 3895 4981 3004 4776 2631 4691 4417 13 3645 3116 3738 4326 4866 4564 4358 4085 4316 3881 3985 2585 4069 4743 3103 3640 2943 4379 4502 4534 2970 3409 4526 3950 2942 3160 4013 11 4036 3772 3975 2740 2989 3282 4438 4077 3858 3548 3220 2835 3211 4069 4531 8 3930 4872 3095 4637 4006 4097 3130 3899 4213 4760 3513 3188 3195 2739 4495 3316 3043 4634 3126 3077 4190 3507 4373 4869 4678 3665 4161 4882 3087 4682 3954 4158 2949 2685 4575 4039 3176 3287 3291 4641 3888 2677 4097 4557 3113 3853 4512 3884 4248 4096 4182 4641 4744 4182 3982 2673 2843 3063 3338 4923
31 27 38 12 20 21 32 1 1 30 22 38 13 23 26 6 12 18 32 8 4 3 23 33 32 7 35 3 38 33 17 33 29 35 13 37 28 38 29 11 4 19 22 27 16 34 10 4 19 11 4 30 39 35 28 26 24 6 35 33 32 18 32 9 28 0 5 38 20 36 6 36 29 26 14 2 14 21 8 37 27 12 17 21 19 20 36 22 23 3 18 14 3 23 8 17 9 25 38 15 38 9 3 18 36 17 19 6 8 6 11 26 31 12 34 13 14 1 3 20 13 19 13 18 32 2508 2539 2874 4373 2677 4174 2679 3918 2638 2890 4458 3633 4091 2544 3004 3305 4666 4637 3557 2502 4588 3025 4203 3684 4354 2526 3333 4299 4053 2888 3654 4460 2907 3450 2599 3495 4473 4486 3402 4684 3578 3737 4393 4568 3807 4145 3721 2980 4671 3058 4017 3444 4641 4411 2770 2533 2883 4985 3324 4956 3951 3586 3950 3205 4667 4065 3363 4074 4318 3989 3844 3871 3982 10 3581 3159 3722 4404 4456 4393 2619 4042 3784 4799 3296 3706 3696 3930 4037 4036 2723 3417 4161 3721 4668 4340 2721 4505 3132 4616 4361 4460 4861 3678 4809 2557 4386 4733 4940 4237 3475 2742 3725 4996 2555 4181 4588 4314 3611 3145 3607 4257 3294 4308 3417
37 1 11 31 21 27 4 9 30 36 22 2 39 19 15 31 5 34 34 22 36 11 12 37 15 38 19 1 12 14 23 14 39 29 1 11 11 1 35 8 27 15 34 33 20 27 23 16 2 30 10 3 38 37 1 32 17 13 36 6 1 27 19 32 38 16 0 28 11 28 32 20 36 34 23 16 29 24 15 7 21 18 17 37 14 10 5 7 27 38 28 33 18 34 36 33 29 24 35 30 20 23 3 34 4 6 21 16 25 1 8 22 35 18 17 26 25 19 25 13 27 37 23 38 5 2839 3045 2647 3811 2838 4251 3368 2774 2931 3619 4261 3197 3551 4106 3919 3951 2862 4212 3397 4327 3357 3375 2562 3259 3719 3079 3957 3763 2744 4698 4101 3700 3301 4106 3973 3787 3033 3825 3994 3470 2984 2590 3090 4583 3061 4744 3353 4466 2894 2743 4165 3417 4435 3401 3442 4803 3790 2879 4924 3093 4992 3232 2563 3739 4605 3625 4492 3372 4024 4638 2798 4784 3266 2858 3781 2728 2679 3185 4065 2761 2834 2980 3583 3481 2649 3847 3941 3969 4761 4852 4364 2907 3468 3355 3942 3239 2895 3187 4718 2739 4024 4501 4042 4405 2865 4296 3476 2737 4435 2531 3752 3209 4547 4953 2534 2623 4477 2562 4300 4249 3077 3849 3821 3689 2599
36 16 15 7 29 16 32 2 1 14 9 13 11 34 15 32 33 18 5 30 5 6 39 28 25 27 28 29 10 18 37 11 1 20 20 9 20 33 25 17 26 9 35 13 31 39 1 18 22 39 32 28 11 15 39 12 29 16 29 2 13 33 29 31 26 39 25 0 20 14 15 10 21 10 34 19 3 5 32 22 26 20 14 9 25 19 13 21 31 11 10 19 30 8 11 35 3 3 4 6 37 38 13 36 6 20 30 33 22 18 26 10 25 15 23 27 23 36 13 6 12 36 3 39 3 4608 2707 4421 3561 3958 4505 4793 4450 3458 4134 3336 2617 3645 3627 2552 4050 4221 2740 4481 2762 3283 3120 2626 3462 3611 3340 3512 3922 2696 4849 4249 3150 4525 3893 4871 3805 4633 2704 3888 4923 3952 2616 3609 3883 4596 4312 3402 3594 2586 3171 3828 4683 2718 4118 3289 4512 2948 4033 3157 3883 3188 4257 3738 4949 2755 4606 2543 2765 2820 4056 3027 4075 2884 4022 2668 3280 2813 2784 2658 4898 3647 3092 4417 4449 3665 3718 3371 3527 3257 3276 2707 2686 3562 4587 3319 3949 4595 3404 3686 3444 4998 3480 2517 3277 3595 2584 3905 2556 3795 4349 3281 4189 4243 3946 4305 2505 3604 3700 4771 3437 3248 4045 2848 2634 3710
4 34 15 27 6 28 14 6 8 4 11 21 37 6 29 29 30 29 25 30 23 28 39 30 2 38 26 15 8 2 18 30 36 36 24 12 37 10 10 24 5 29 20 39 36 21 4 19 32 29 19 12 32 5 22 33 34 20 21 29 12 17 12 23 14 4 20 33 0 17 31 28 30 22 27 15 9 8 19 15 17 33 4 38 30 2 36 35 33 17 3 8 33 10 35 2 19 19 31 31 14 29 21 26 8 23 31 16 38 31 25 2 39 11 22 27 27 29 24 34 12 6 12 39 32 4974 2567 3205 4575 4638 2620 3106 3369 4528 4603 3931 4302 4842 4643 4298 3645 4693 4989 4462 2536 3358 2750 4608 3950 3416 3667 3223 2836 4680 2544 4594 3430 3181 4796 4292 3347 4307 2747 2506 4131 4808 2570 4583 4914 3985 3439 4620 2594 3268 3579 4697 3812 4944 3449 3137 4324 4886 3302 4381 3385 4176 2834 2748 4098 3506 4334 3683 4922 2515 2775 4418 2960 3234 2757 4645 3550 3813 2663 3977 4406 4446 4268 4913 3050 4967 3337 2663 3408 4126 4441 4787 3153 3004 2925 4182 2866 4996 2572 4305 4020 3878 3527 3992 4855 2983 3066 3964 3496 4450 2730 3708 3893 3845 4190 2778 4560 4080 3071 2548 4883 4739 2744 4082 3813 4241
8 4 17 32 6 19 38 38 21 18 30 14 35 33 18 14 10 29 29 5 17 38 35 15 2 38 18 8 18 36 21 29 33 14 27 16 5 4 7 33 21 19 9 32 17 22 27 31 2 12 16 8 1 31 11 34 36 17 23 28 3 2 30 2 15 30 38 5 23 0 10 4 7 30 27 27 36 15 19 37 33 24 20 29 7 37 21 11 26 9 5 3 35 27 22 32 10 38 2 5 23 34 32 32 26 24 39 1 34 7 4 34 19 24 6 31 4 29 2 28 31 27 1 36 34 4504 2536 3828 4012 2978 2973 8 2888 2943 3311 4407 4936 3895 2745 4795 3179 2595 3897 3847 3010 4714 4967 4855 2869 4003 4542 4453 3220 3723 4429 3451 3812 2752 3971 3554 4934 4490 3664 2757 4703 2809 4792 4126 4543 2904 3236 3936 3398 2596 4827 3282 3583 4763 4263 3307 3858 4166 4688 2685 3474 3339 3966 3938 2688 3637 3237 3944 4025 2658 4409 3114 4987 4408 3410 2943 3157 4180 4603 3047 4312 2662 4987 2696 3285 4932 3267 2523 2843 4301 2586 2636 3175 4215 4795 3686 4591 4337 2954 3244 4758 4184 3214 4310 4119 4017 4036 3102 4530 4456 2529 2572 2845 4525 3803 4872 2930 3563 2600 4663 2789 3974 4747 3585 3294 2976
29 13 3 31 26 34 28 5 12 15 15 39 31 29 29 3 4 34 18 24 13 22 20 3 39 1 17 9 32 38 28 21 27 12 37 32 24 13 34 19 26 3 32 14 8 5 38 19 26 11 1 24 34 29 4 30 6 25 11 22 3 10 24 30 24 24 16 27 39 31 0 17 7 32 1 22 1 13 28 2 18 34 38 15 9 35 6 20 8 38 6 17 27 27 3 11 22 1 36 7 38 24 26 2 11 37 9 10 2 10 31 23 30 6 32 31 25 14 20 13 8 17 34 18 21 3040 3493 2960 3397 2539 4128 2663 3380 3459 3232 4259 4384 4847 2578 4426 3557 3089 4985 4342 4669 4740 4322 3352 3739 2777 4636 2671 3717 4353 3250 4606 2723 4889 3166 4154 3921 4459 4615 3435 4361 3076 3721 4712 3193 4909 4402 3432 3816 2857 4316 4424 4090 3099 3842 2608 2938 4009 4151 3923 4806 4291 3149 2523 3158 2695 2564 4263 4335 3051 3632 3764 4725 4852 4593 3808 2795 3483 3091 3041 3992 3490 4186 2642 2874 3122 2732 19 4561 3291 3790 2658 4330 4791 2768 4023 4570 4674 4104 2935 2538 2808 4607 4271 4222 3835 4525 4501 4038 3709 4646 4999 4579 4358 4820 4354 4732 3509 3489 4367 3775 3231 4422 3654 2984 4990
30 30 18 38 3 39 12 4 38 34 37 28 27 10 20 3 25 28 10 39 33 33 18 17 31 38 7 39 18 5 36 6 1 36 34 21 3 15 10 1 18 27 34 24 34 39 18 27 6 20 37 4 34 28 12 29 25 15 29 30 9 4 16 22 11 17 14 24 6 11 27 0 13 9 18 33 28 1 32 36 23 3 27 13 21 32 21 37 35 12 27 34 1 6 18 1 4 26 14 11 28 31 16 4 20 6 1 20 26 2 7 2 17 7 2 26 3 21 2 14 31 7 38 36 4 3337 3448 4046 4097 3233 3974 3414 4825 4440 4195 4863 3908 3049 3837 3731 2910 3355 4735 3546 4050 4963 3895 3464 2680 4881 2547 3301 3539 4586 2550 3954 4473 4517 3618 4858 2759 3516 3532 3484 3584 3188 3448 4213 18 4015 4140 3517 3776 3837 2614 3025 4685 4491 3374 3113 3935 2947 2670 3478 3243 3534 2701 4045 4796 3180 4566 3705 4168 3216 3848 3740 4986 4274 3360 3633 3921 3474 2851 4236 2680 4557 3241 4215 2916 4596 3742 4270 3971 4588 3383 2984 2708 4682 4721 4220 4984 2950 4139 4554 2517 4043 2704 4361 4375 11 2956 4701 3180 2510 4730 2805 3882 4131 3319 2554 3167 4691 3407 3161 2984 2900 2987 3246 2899 2697
30 16 5 7 21 31 3 20 23 34 13 1 23 26 25 38 36 6 31 10 39 22 33 15 3 26 20 9 17 35 27 26 38 39 12 32 38 25 39 12 19 22 10 37 20 26 29 10 17 15 18 14 33 20 39 4 4 12 32 30 32 24 7 25 9 30 24 6 18 22 2 28 0 29 33 28 14 18 32 15 30 7 9 20 37 31 2 29 38 2 18 9 26 32 17 20 17 38 13 27 22 1 25 9 15 9 14 12 31 13 24 1 24 15 30 37 6 19 31 36 34 26 26 26 31 3266 3378 3543 4184 3870 4449 4122 3622 2734 4341 3039 3991 4488 3275 4029 2724 3424 4044 3006 2971 4263 4831 4794 3303 3877 3246 3836 3108 3129 4949 4550 3288 4030 3030 3356 3244 4734 2607 4974 3628 4718 3322 3257 3303 4175 3438 3048 3107 4771 2868 3724 4802 3947 4557 4749 2668 4621 2642 3560 4575 4615 3083 4860 4497 4884 3768 4594 4663 3770 4804 4623 2817 4458 4757 4086 4910 3307 3906 3454 4733 2813 3456 3803 3762 4597 3934 4617 4707 2621 3186 3518 4879 2605 3815 4319 2799 3218 4251 3470 2795 3863 3478 3789 4306 3639 3736 3419 3932 3654 3537 4602 2886 2506 2628 4202 3928 3224 3279 16 3108 2895 4664 3664 4487 2747
4 7 7 2 19 20 14 17 35 24 21 12 27 34 17 3 32 24 14 26 3 11 19 39 36 6 10 26 37 22 14 37 13 11 35 32 11 35 19 12 32 11 30 1 6 27 25 23 20 29 9 2 37 2 34 25 12 17 30 19 28 9 23 15 33 32 27 19 4 1 25 2 32 0 3 3 28 26 7 10 4 24 28 6 17 18 7 38 11 14 26 28 29 14 24 38 4 7 26 13 25 29 16 23 11 26 7 24 29 7 34 3 39 18 35 27 34 7 19 24 26 4 36 11 37 3610 4351 4748 3369 4579 4612 4622 4415 4968 4359 3118 4070 4692 2850 3589 2718 3370 3812 3719 3768 4054 4618 4009 2788 2647 2896 2709 3814 4856 3107 4181 3203 3506 4322 4302 4659 2622 4577 3557 4334 4323 3240 3815 3922 3170 3383 4579 3693 3467 3280 4205 4594 2916 3646 4863 4169 3385 3375 3863 4584 4220 3100 3287 2910 3023 4716 3531 3970 3688 4225 3538 9 4639 2579 3047 3868 3225 3648 2606 2764 4309 8 2970 2849 4175 3598 2553 3642 2657 2804 3952 3233 2673 2607 3007 4105 2690 2942 4694 2778 4342 2508 2729 4516 4104 2980 4445 3532 4350 4592 4199 3427 3171 4150 3538 2903 4787 3158 3232 3189 4733 3353 2538 2794 4898
38 24 26 30 3 19 12 8 12 23 15 1 29 39 11 1 17 35 34 14 22 29 20 29 13 11 33 25 32 24 25 7 23 3 19 32 7 12 16 28 13 20 36 14 25 8 12 20 38 6 6 32 35 16 18 16 30 9 36 7 7 5 32 8 23 3 27 3 1 21 28 26 3 35 0 9 29 5 13 3 4 38 2 30 26 23 38 9 31 11 22 10 29 39 18 38 22 17 38 38 23 13 12 25 26 34 31 4 13 1 4 35 8 32 5 39 32 23 18 12 23 25 20 21 26 2616 2694 2979 4361 3103 2912 3434 4496 4109 4896 3836 3952 4055 2835 4481 4330 3614 4909 4307 4758 3914 4574 4900 4227 4152 3247 3549 2979 3646 2811 4182 2819 4368 3089 3689 4866 4332 4126 3193 3558 3938 3333 3089 2952 4813 4330 4060 4984 2748 4708 3227 3436 4632 2830 4830 2505 3916 2991 4152 3980 3515 3610 3857 2658 3508 3816 4399 4049 3216 4492 2543 2607 4316 4119 2967 4261 4562 4351 4934 3535 3321 2576 3426 2930 3987 2867 4220 3648 3185 4435 3122 2611 4182 2998 4296 4276 4277 3202 3050 4735 4426 4331 4195 2683 4361 2896 4315 4139 4673 4904 2850 2776 2875 3606 4749 3196 2669 3958 3250 4335 2823 3131 3427 3410 2574
14 31 6 32 30 31 25 29 28 14 37 25 16 32 19 16 17 15 34 33 13 28 16 36 8 26 1 4 4 12 16 14 24 12 10 22 21 24 31 29 25 9 8 1 7 9 24 34 20 38 23 16 3 12 37 16 8 5 39 5 2 36 7 19 27 33 16 31 34 10 36 3 16 18 3 0 23 16 32 13 19 12 26 26 23 14 39 14 6 5 8 2 18 8 21 18 15 9 29 14 12 9 30 9 32 19 21 32 11 4 33 31 22 13 3 25 4 4 29 5 3 14 9 9 3 3816 2684 3524 3924 2717 4151 3991 2691 4740 3391 4201 4302 4357 4759 4862 4389 4369 2935 2615 4259 4415 4075 4975 4677 3401 2985 3892 4438 4644 4619 2579 4291 4975 3688 4610 3548 3868 4861 3047 3508 3161 2633 3305 4365 4676 2947 4243 4123 4629 4443 2729 2994 2974 4886 4611 3461 4156 4459 2986 2603 2759 2991 2758 4345 4643 3434 4061 3583 4264 4836 4697 3694 4755 4718 4966 3799 2994 3653 4823 3673 3583 3578 3983 3984 2807 3436 4277 4806 3625 3298 3153 3455 4032 3766 4557 4489 3336 4797 3539 4511 4860 2529 4629 3896 4913 3001 3239 3206 2510 4839 2695 2522 4757 4024 3195 3507 4276 3947 4480 4632 2949 2754 3679 3011 3432
6 34 21 1 16 5 22 26 18 34 21 30 18 3 16 31 4 18 3 27 12 16 5 8 28 9 1 10 24 10 2 11 16 25 19 36 35 14 6 15 24 17 34 39 10 34 19 3 6 34 24 36 20 18 13 32 7 14 14 2 8 12 32 14 5 15 5 29 11 25 15 27 37 33 17 26 0 3 19 31 12 37 31 26 15 36 23 35 12 9 39 32 6 34 1 33 27 6 1 16 14 10 5 23 3 13 28 15 10 14 10 21 34 12 22 33 18 5 3 27 19 3 25 7 11 3143 2738 4314 3823 4957 3624 3626 4806 3015 4743 3935 3169 4033 3805 4492 3170 4980 2984 4998 2840 3273 3101 4650 3237 3237 2912 4265 2572 4661 2743 3202 2585 3019 4965 4437 3440 18 4691 3066 2732 4444 4815 4522 4271 4082 4884 6 4905 4278 4969 3263 3367 2512 2563 3940 4651 4923 2917 2977 3093 4646 4323 3893 2600 4363 3757 4598 3263 4495 3426 3104 3622 3935 3115 3657 3983 3124 3033 3454 3488 2857 2838 3258 4178 3852 3012 3384 3818 4430 2579 3425 4240 2970 3579 3283 3250 4544 4290 2657 3535 2974 4733 3880 4884 3243 3035 3684 4480 4210 3506 4315 3180 4480 4797 4238 4268 2651 2622 2827 2930 2503 3707 4460 3810 3071
2 31 35 14 38 3 33 25 21 34 27 33 35 19 21 39 33 31 23 5 13 22 21 38 25 12 36 25 38 31 3 22 20 35 29 31 1 22 35 11 12 31 7 5 13 23 18 35 15 7 14 34 7 28 7 25 38 25 16 38 38 39 34 3 11 32 10 35 36 20 26 6 29 8 3 22 30 0 3 13 37 2 16 18 7 12 7 5 2 3 27 33 37 18 31 11 32 34 12 33 28 19 20 29 6 11 37 32 14 4 4 4 14 7 26 15 7 5 29 15 1 39 24 4 28 3382 3872 4632 3843 3306 3483 4780 3357 2583 3180 3544 2948 2950 3942 3835 3911 4766 4874 3368 4546 2916 4608 2818 3078 3078 3209 4586 4273 4149 3875 2757 3164 3047 2596 3845 4136 3137 4865 3751 4194 4756 2905 3957 3675 2528 3055 3773 4013 2958 4900 3339 3454 4319 3774 4228 3593 4524 2851 4952 3893 2682 3921 4777 4433 3878 2778 4012 4103 3407 4669 3753 2730 4841 4883 3439 2691 3572 4550 3016 2985 3601 4729 2677 3989 2614 2809 3730 4437 3997 3643 4075 4510 4331 3866 3835 2999 4409 2629 3350 3346 3606 2567 13 4432 4537 2828 2905 2827 4939 3960 2794 3690 4932 4834 4563 3126 3338 4704 2853 4731 2534 4775 3511 4528 2977
21 8 26 32 35 36 18 24 38 9 3 31 35 5 6 25 6 13 28 26 39 31 6 27 25 31 13 29 26 35 16 15 13 30 16 26 16 19 23 20 17 7 16 23 32 21 5 11 30 34 14 30 8 24 13 26 32 33 1 12 18 9 34 26 4 3 3 29 32 39 2 33 15 15 35 32 22 39 0 10 22 11 14 20 35 20 30 13 11 34 21 12 20 28 28 37 10 14 29 7 18 20 27 8 19 13 18 5 25 11 25 26 23 3 17 35 27 38 35 38 2 9 26 24 22 2831 4777 2564 3771 2505 2999 4030 3839 4699 4887 3467 4085 2833 4110 3839 2747 3327 4922 3937 4980 4500 4074 3495 3229 4536 4287 4312 3910 4641 4130 3983 4129 4911 3858 4854 4446 3441 3076 3983 4210 3495 4648 2822 2708 4377 4331 4583 3128 2687 3374 3817 3622 2568 4936 4873 3223 3966 3434 3895 4996 3957 4811 3610 4867 3263 3023 3625 4787 2670 4426 3062 2846 3388 18 3113 4247 3519 2913 4336 4070 3216 4251 4429 3916 2821 4073 2862 3433 3249 4408 2866 4583 2615 4174 2818 4993 2752 4465 3206 4225 3187 2619 4580 3505 2717 2871 4051 2891 4197 2788 3932 4656 4564 3546 3092 4927 4222 3228 3284 4894 2547 2730 4648 2695 3977
30 22 38 15 6 39 5 30 31 16 26 27 25 6 19 22 19 5 12 15 19 12 27 30 34 32 24 36 35 13 34 5 33 24 2 29 25 12 37 10 13 34 24 32 33 7 11 3 36 28 33 15 32 30 13 27 24 27 15 28 35 38 20 35 13 10 17 16 29 23 13 28 9 22 7 21 35 4 39 0 28 18 37 22 25 31 12 27 7 24 12 34 13 8 2 20 35 21 31 34 1 36 19 31 29 8 35 32 19 18 20 18 29 28 1 22 30 37 33 11 16 27 3 34 12 4896 4799 3462 2816 4228 12 3961 3065 2764 4725 2673 3140 4962 2738 4523 4186 2640 2919 3302 3352 3072 4616 2945 3545 4775 3419 2587 3735 3174 4461 4573 2619 3832 3044 4296 3968 4947 4451 2771 4710 4234 4187 3271 2838 3480 2942 3895 2762 4732 4691 2636 2589 2668 3834 3263 4411 4762 4332 3075 3903 4268 2518 3728 3321 3236 4515 3586 2917 2657 3745 2689 3846 4483 3025 4852 2658 3560 4328 4658 3870 4129 4386 4398 3919 2932 4167 2769 4364 4571 2614 3192 2644 4568 2580 2657 4787 4243 3952 4999 3519 4530 3468 3857 3430 4323 2541 4827 3115 2957 3216 4791 3959 19 4863 3465 2506 18 2561 3713 4573 2634 4831 3972 3483 3262
39 4 12 15 8 32 24 14 14 8 36 21 12 6 17 21 20 30 29 4 37 33 22 22 39 6 30 25 2 21 18 10 3 32 35 6 15 4 30 7 4 10 5 21 29 9 11 19 1 17 9 14 11 20 38 33 16 10 32 17 3 13 3 1 32 24 4 28 15 37 34 9 26 1 20 37 34 9 28 39 0 12 14 13 33 32 39 32 16 7 33 5 4 9 33 33 9 24 27 32 4 14 26 10 14 31 14 11 8 20 11 27 19 26 13 19 4 20 20 38 19 37 34 10 39 3702 4126 4077 3360 3075 2971 3043 4087 2781 2658 2811 2838 2772 2621 2574 3850 4444 3126 2955 2911 3675 4595 10 3162 3273 2712 2790 3468 2829 2884 4165 4557 4845 3869 2673 3570 3784 3398 3556 2668 3145 3108 2743 3097 3129 3005 4319 3480 3013 4728 3847 2800 4723 4574 2711 2507 4106 3415 3610 4197 2783 2540 4249 4361 2612 2728 4497 3109 2786 3503 3106 3181 3348 3893 4130 3899 4006 4147 4976 3668 3378 3768 2929 3864 4520 3528 4986 4853 2514 4326 3748 4127 3448 4488 4488 3843 3649 3152 2620 2816 3318 4911 2933 4609 2689 4042 4842 2617 3378 4476 3595 3183 2685 4003 4689 2962 3370 4467 3813 4676 3351 3179 4201 3900 4629
12 6 36 5 22 1 36 19 8 10 25 18 20 13 4 33 24 2 3 16 23 29 30 1 31 26 34 21 1 6 1 33 2 17 16 20 32 29 15 27 4 8 9 3 10 27 6 30 36 8 9 37 13 7 31 6 15 38 11 16 14 32 39 33 29 27 39 21 24 34 19 27 21 13 26 34 12 14 12 5 2 0 17 30 36 4 38 15 11 33 33 5 28 27 37 21 24 9 28 19 31 35 19 39 18 31 5 1 29 36 23 39 31 14 18 8 14 39 25 23 5 14 9 6 15 4025 4339 3676 3273 3294 4551 2780 4200 3763 4091 3490 3988 4456 4727 3702 3713 4403 3808 2892 3146 4665 4737 3577 4653 3195 3909 3607 4143 3644 3130 2805 4341 4709 4064 2558 3491 3312 3148 3873 4459 4395 3277 3056 3863 4642 3153 3346 4174 4796 3685 3311 3103 2666 3262 4927 4432 4113 4415 4642 4886 4334 3421 3523 4043 4786 3492 3925 3226 3163 3455 4532 4585 2700 4034 3656 3668 4918 4665 3520 4077 3437 4358 2949 3179 3362 4897 4627 4507 3692 4020 4624 3679 4106 2907 4688 3655 2916 4620 3171 3547 3472 4218 4341 3919 4172 4899 4649 2717 4003 3079 4161 2569 3487 3381 3534 4800 3771 2997 4329 4754 3461 4464 3654 4941 4883
35 6 4 10 23 33 36 12 8 7 31 30 33 23 34 31 39 4 6 35 31 18 7 36 33 39 8 32 13 31 1 10 9 4 4 5 14 33 9 28 24 8 19 16 15 27 25 30 39 5 22 23 25 3 39 24 30 33 3 34 11 18 7 27 1 25 29 23 19 3 20 29 20 23 2 7 30 10 29 10 17 22 0 8 16 26 19 5 5 19 11 7 38 22 26 37 29 4 8 4 38 17 37 31 25 24 9 20 15 13 39 8 12 22 22 27 29 12 16 17 28 27 22 4 26 2969 3505 4969 4030 4682 3474 4111 3779 3268 4444 3846 4957 4528 4383 2970 2898 4128 3181 3650 3809 2931 3216 4561 3531 3094 3266 4303 3261 4192 4831 4725 4488 4264 2566 4329 4918 3554 3779 4481 4902 2898 4911 2553 4627 3949 4608 3390 4125 2665 4570 4676 4100 2783 3467 4590 2633 4113 4171 3906 3177 4429 3673 2869 4732 4076 4376 2870 4483 4107 4453 3299 2882 2635 3532 3613 2812 3899 4429 3165 3314 3455 3852 2515 10 3218 4470 3657 4997 3032 3518 4632 2883 2515 4324 3199 2648 3020 3906 4965 17 2810 4774 2830 3110 4021 4193 3548 3017 2922 2552 4501 3638 2749 3123 4544 4836 3843 4167 4457 3848 4330 4673 2536 3282 4953
27 21 26 18 3 24 18 38 39 15 2 22 6 33 17 20 36 11 18 27 13 1 31 35 2 39 17 23 15 3 27 21 35 1 37 2 21 6 13 2 18 20 12 20 19 7 3 28 6 34 29 19 19 12 29 13 17 13 36 33 28 33 7 15 22 16 29 15 20 17 36 35 13 29 33 4 15 1 15 24 12 26 15 0 34 18 11 35 6 33 8 37 17 34 1 1 5 22 5 34 1 14 31 17 27 7 12 10 22 11 2 21 23 32 26 20 23 4 17 16 24 12 17 34 32 3611 4693 2729 4111 3070 4392 3038 4664 4602 4698 3670 4567 4000 4782 3553 3969 3024 3051 3291 4014 2759 2896 4305 3533 4976 4685 4808 2775 4222 4247 3745 3093 4516 3789 3056 3358 4939 3934 4743 4216 3033 2586 4947 4950 2709 10 3670 4799 4157 2573 3954 3739 3891 2998 4748 3934 3230 4493 4364 4616 3425 4786 4210 4592 3888 3676 4630 3383 2751 4026 2856 2614 2863 4214 4611 2755 3957 3130 3269 2508 3707 3008 4933 4983 4058 3134 4357 2520 4528 2610 2852 2775 4755 14 4057 3559 2844 3385 4669 3911 3090 3315 2723 4800 4274 3641 3188 4980 4022 2562 3626 4587 2991 4435 3216 3985 4916 3709 2969 4814 4981 3506 4598 3192 4565
25 35 2 16 24 21 6 8 15 21 30 8 32 17 39 17 23 19 20 2 25 32 20 15 12 10 5 15 10 3 8 6 12 1 30 10 13 1 26 20 2 22 13 35 11 34 3 25 26 7 24 4 26 20 12 16 25 17 23 6 27 4 35 3 11 14 37 30 30 22 14 32 35 12 7 15 22 39 36 35 22 11 2 23 0 14 39 18 19 8 21 31 24 22 6 32 31 28 22 38 4 27 32 36 10 6 34 15 15 4 33 23 9 15 19 33 11 16 29 1 11 4 19 12 15 3294 4667 2560 4280 2512 3942 4151 3277 3758 3276 3625 2748 2633 4079 4626 4438 3100 3111 2676 4504 4324 3127 3341 3428 2983 2886 4132 2755 3917 3306 2903 3312 4114 3272 3653 2785 4371 4472 3715 2534 3753 4162 2630 4366 2583 4253 2979 3761 4864 3543 4331 16 2999 4798 4303 2698 3292 2592 2630 2513 3835 2847 4169 3752 3501 2500 4335 2729 2741 2918 4918 3598 3293 3586 4705 4003 4727 4879 3262 6 4059 4872 2988 4948 4255 4489 4380 3027 4609 4002 3101 4963 2997 3832 4398 4650 2513 4222 2950 3480 3364 4983 2513 3321 4161 4049 2945 3583 2668 2952 4963 4154 4319 3528 4956 2851 4286 3537 4546 3739 4400 3246 4684 3896 3928
3 20 15 4 2 20 14 28 28 2 28 27 29 5 37 36 1 33 12 26 15 19 8 15 24 26 29 39 22 25 8 8 16 21 9 28 34 20 14 36 36 8 39 12 1 23 14 9 28 13 37 28 36 20 28 14 25 26 22 39 38 17 21 19 9 35 22 25 4 10 36 3 24 28 12 36 16 22 19 24 16 1 26 17 17 0 8 10 38 4 11 7 18 30 2 36 32 12 28 7 27 31 32 36 32 14 30 2 11 27 18 39 30 6 1 39 31 13 8 21 11 15 22 34 26 2935 2546 3375 3650 4762 2846 3054 4282 3368 11 4255 3697 4624 4805 3702 4930 3451 3179 4759 4045 2963 3465 2707 2534 4048 4747 3618 3308 2723 2730 4112 3575 2954 4649 4972 4748 4518 3088 3350 2873 4249 4053 2508 3842 2686 4631 2922 3217 4505 4220 4423 2645 4753 3029 2812 4652 4742 2745 3723 4902 3952 3053 4304 3938 3722 4266 3488 4379 3709 4422 3212 3992 4553 3278 3526 4950 3669 3408 2974 4912 4049 4837 3169 2576 3818 4199 3899 4794 3284 2778 4629 3223 4305 4609 4824 4910 3916 4948 3547 2588 4587 3230 3110 3121 2723 4124 2714 4840 2957 3308 4979 3434 4643 4160 3829 2733 4560 3202 4440 7 2949 4681 4904 3734 3574
22 34 34 7 25 13 3 27 16 22 4 32 29 32 21 37 16 31 13 32 39 32 31 22 11 38 25 28 19 36 15 32 3 25 25 3 13 38 19 28 6 30 5 5 3 7 16 18 11 1 39 39 9 36 30 22 31 10 9 28 3 20 9 32 15 31 12 34 28 8 33 22 39 11 22 2 7 36 10 21 20 26 38 30 27 37 0 30 11 23 4 33 12 13 29 3 30 21 22 32 1 30 31 38 18 16 18 24 33 31 36 8 25 37 21 35 31 2 37 39 13 25 37 19 9 4723 2867 4800 3385 3452 4782 4595 2929 4179 3982 2504 3252 3102 2661 4326 3389 3708 4398 2954 4891 2569 3187 3324 3937 4240 4065 4707 2829 4447 4060 4886 4689 3107 3593 2770 3462 4884 4256 4798 4343 4500 2918 4826 4495 4503 4014 3595 4645 3995 2532 3056 4666 4147 2830 2837 3867 3716 2799 3597 4652 3158 2988 3719 4103 4467 2744 2667 4167 4907 2771 4963 4683 4391 4638 3276 3944 4470 3533 2666 3109 3812 3641 2518 4313 4509 2849 3696 4261 3661 2739 2794 4129 3272 3244 3848 4486 4050 4449 3842 2564 3839 3301 4159 3088 4392 4802 4361 2683 3408 4872 2579 4446 4720 4466 3926 4130 4735 4148 2575 3166 4029 4841 4688 4621 3539
6 7 9 8 32 37 20 11 4 15 25 39 9 33 38 5 4 31 34 20 31 27 8 17 8 16 13 30 16 12 28 29 37 19 8 11 27 21 28 19 25 12 20 2 37 5 24 37 35 28 13 39 8 7 6 21 27 38 13 26 19 19 18 16 7 2 20 20 28 23 10 35 33 3 21 15 14 13 22 21 29 25 2 20 19 13 29 0 2 22 14 33 3 19 5 17 14 31 5 13 23 39 14 33 32 17 39 30 24 36 3 36 1 16 34 21 6 34 28 10 21 24 14 22 38 2769 3216 2697 2596 3583 3550 3802 4322 3795 4104 4028 4949 2598 3078 3651 3831 3488 4391 4123 2971 3915 4401 3084 3789 2808 3208 3487 2936 3185 4288 2891 3874 4115 2532 3538 4731 3684 3373 3236 4056 4441 3098 3766 3546 2875 3457 4451 4093 2539 3753 4626 4565 3923 4048 4649 3765 4375 2693 3629 2784 3393 4962 4808 3996 11 2565 2643 2612 3177 4061 2573 3766 4324 4028 3750 4429 3870 3362 4617 4746 4010 3058 4941 4965 3041 3643 2763 4562 2504 4650 4072 3613 4652 4747 4375 3162 3288 2725 3015 4087 4352 2584 2626 3895 4475 3114 3786 3780 2961 4218 3190 3118 4511 4466 4462 3267 4712 2633 3309 3656 4763 2661 4036 4340 3633
16 15 33 17 26 29 12 32 19 33 9 6 17 22 30 31 2 6 5 30 6 34 7 34 26 35 20 38 12 19 14 6 4 33 1 21 32 4 38 37 4 10 19 25 16 13 6 39 5 39 36 29 4 16 11 38 32 5 32 3 26 18 38 34 9 28 20 30 20 34 13 35 31 24 24 32 11 15 17 27 22 13 9 12 10 30 33 39 0 37 11 4 29 22 18 12 17 39 37 13 27 17 9 3 24 18 25 15 30 23 28 11 16 17 24 33 16 26 24 25 7 29 10 16 24 2764 3004 2793 4901 3316 2950 4660 3791 4959 2725 4482 4625 4161 4767 4903 4457 3503 3486 3984 3771 2711 4743 4591 4125 3182 3116 4681 2753 2983 3917 3584 3726 2776 3453 4410 3342 4607 3018 2701 3512 4834 4234 3100 3905 3114 3607 3490 2734 4413 3968 4504 2539 4867 3180 2794 2981 3397 3819 4850 4643 2608 3956 3417 3190 4678 4416 4072 3679 3134 2643 4003 3703 4217 3537 2899 3940 2710 3041 3635 3270 4874 4649 2539 4994 3913 2649 4552 3745 3577 2915 2757 4145 2947 2915 4133 3466 4067 2827 4947 4804 4422 4740 2882 3234 3223 4133 2732 3111 3645 4507 3031 3306 4930 3028 3689 2545 2668 3082 2976 2685 4920 2988 4976 4945 3382
23 26 18 3 20 17 29 25 9 15 12 33 14 34 36 18 3 14 5 5 13 28 24 19 10 29 26 25 24 2 21 5 3 5 18 23 16 33 23 31 23 19 8 4 22 19 21 1 3 33 16 9 13 1 25 20 33 34 9 27 14 27 5 32 23 11 37 31 16 28 7 31 11 35 18 26 10 3 18 23 27 21 26 18 4 9 37 13 20 0 29 15 9 29 11 1 22 31 20 1 3 9 19 28 18 25 37 37 12 22 22 11 14 24 24 15 38 1 8 32 9 7 19 19 32 3475 4328 3349 3708 4709 3254 3566 2601 4752 2890 4058 3297 2939 3388 4987 2829 3629 4398 4999 2787 4976 4928 3112 2789 3105 4078 4433 4616 3059 3282 3383 4365 4382 4244 4231 4042 3403 4952 4377 4334 2701 2581 4665 3666 2608 3120 4451 3966 3682 3532 2507 4105 2960 2909 4280 4446 3832 3096 4249 3071 3610 4004 2865 4669 2723 2979 4387 4165 3354 2804 3132 4837 3891 2609 4869 4779 3017 4809 4503 3427 3908 3945 4146 2635 3720 4111 4779 3651 2671 3653 3320 3705 3777 3041 4656 3888 3038 4118 4595 3930 2585 4653 3599 3874 2664 4091 3932 3483 4193 3482 3117 4698 4958 4840 3957 3734 3951 2943 2768 4688 3199 4791 2556 3734 4599
25 5 13 20 38 22 1 5 8 3 8 2 10 38 21 18 2 32 20 1 20 24 9 23 16 27 28 5 4 14 26 30 7 15 16 2 22 25 20 27 34 4 7 31 4 35 4 7 36 14 32 37 27 3 8 19 27 39 33 30 12 35 39 38 31 10 18 31 17 16 24 37 25 3 11 35 33 17 20 29 7 20 13 26 11 19 32 31 37 19 0 22 3 26 7 23 16 33 30 20 13 17 34 12 23 31 27 34 6 32 9 7 14 29 30 1 23 3 34 2 4 13 5 22 8 4439 3620 2605 4039 4845 3692 4180 2552 4672 3019 2757 4606 4125 3026 4045 2637 3727 4463 3292 4083 17 3077 3294 3138 4747 4299 4219 2555 3102 4563 4555 3101 4507 3370 2504 3881 4862 4108 3281 3497 4658 3842 4619 3674 2925 4827 2977 4630 2749 3527 4224 4263 4293 3426 4516 3641 3235 4976 3334 4848 2688 4298 4048 4938 4438 3522 4333 4048 3381 2782 2671 4564 3944 3188 4729 4239 4538 3994 3752 3920 3723 4187 3955 4497 4035 3098 2542 3010 2754 4146 3063 4816 4388 3787 3317 11 2792 4570 3535 4484 4435 4367 2821 2656 4314 4186 4506 2911 4466 2703 3548 4339 4004 3302 4477 4118 3177 4728 3384 2795 3253 4933 3878 4762 3219
34 12 21 21 9 14 38 3 20 29 19 33 11 10 37 20 29 16 6 25 34 39 17 29 39 7 6 39 9 33 22 20 5 19 13 14 21 3 5 28 7 15 33 2 22 12 11 26 3 36 5 37 34 29 28 38 31 27 13 36 10 19 20 3 29 37 11 16 39 16 21 27 13 20 11 23 22 11 39 38 31 6 36 14 6 23 12 39 26 7 29 0 25 25 8 23 19 7 25 11 24 24 20 21 38 18 12 5 18 35 18 34 25 18 31 36 39 1 2 15 15 38 38 4 38 4915 3315 2926 3272 3858 3826 2896 4418 4448 4459 3085 2751 3562 3224 3006 4262 3833 4453 2721 2566 4678 3824 4175 4956 3484 3702 3392 4246 4091 2563 4573 3328 3097 4757 3270 4732 3849 4383 2942 4754 4010 3268 4706 3655 4245 2614 3133 2939 4390 4768 4285 3765 2654 3708 3292 3862 3687 2883 3694 3997 3809 3276 2992 4278 4829 2771 4602 2527 4192 4260 3423 4949 2920 4187 2880 4598 2614 2555 3086 3875 4687 3305 4399 3918 3684 4981 3517 3607 4284 3042 4471 4129 4278 3913 9 3918 3859 3732 2906 3252 4139 4166 3496 3966 2972 3845 4611 3259 3792 4952 4402 2531 3220 4697 3430 4974 4221 3354 3825 4251 3559 3054 2861 4374 4379
28 34 19 9 27 29 33 32 14 5 9 23 12 4 5 1 8 37 23 1 16 20 4 27 24 6 26 24 25 19 11 13 24 33 31 39 17 13 34 35 9 17 37 28 25 1 3 20 23 6 14 13 38 35 22 34 33 15 4 32 28 6 5 27 7 13 11 16 12 25 37 21 25 12 2 23 16 3 36 25 7 10 16 1 16 14 10 9 18 25 32 3 0 7 9 7 7 25 29 31 28 33 34 34 33 25 19 22 20 6 6 35 13 27 1 27 19 3 24 21 21 35 26 23 24 2697 2792 3143 4880 3312 3296 4727 4296 4467 3856 3128 3919 7 3547 4350 4731 3864 4844 3898 2842 2767 3084 3285 3162 3103 4973 4109 3228 3422 3812 3076 3404 4727 3884 3501 3532 3268 2509 3298 4623 2835 4591 3041 4025 3593 3127 3902 4593 3566 4548 4071 3248 2714 3736 2582 2900 3142 2532 4600 2803 2609 4453 3063 4837 3268 3510 2695 4825 4548 4228 4783 4907 4018 4892 2966 2718 3264 4853 4733 2556 3787 2934 4538 2894 4923 4201 2749 2973 4847 4534 3292 4343 3857 3860 4681 3009 2929 2599 2818 3781 2788 4045 4828 3927 3718 4127 3751 4366 4878 3102 4166 3667 8 2716 2937 4598 3037 2926 2535 3427 4178 3346 4668 4187 3224
13 16 38 1 18 22 18 6 5 24 22 12 15 29 32 20 38 4 4 34 6 5 18 21 30 1 28 26 10 32 34 4 15 8 34 5 5 31 35 13 1 12 1 22 10 7 8 23 9 33 6 31 27 16 15 13 29 11 20 39 9 6 19 23 20 32 23 8 20 39 12 4 5 26 28 27 24 28 8 2 31 19 19 29 24 37 29 18 36 10 15 17 9 0 16 20 28 34 1 14 25 24 37 39 32 18 24 19 1 30 20 38 20 39 33 32 15 17 33 18 12 33 14 5 32 2556 4634 4253 3081 3635 3683 3896 2848 4694 4591 3850 3806 3974 4384 2806 2914 4555 3996 2785 3523 4739 3238 4788 3047 4916 3246 2722 3899 4779 4882 4017 4412 4671 3325 4525 4994 4514 4488 4302 3651 3722 2713 4154 4608 2812 4843 3440 4596 4147 4291 4822 3145 3066 3514 3789 3995 3116 2802 4567 4897 3472 4554 3221 3816 3976 2856 3916 3142 4826 3572 18 4570 4083 3912 2724 4894 4310 4297 2960 4484 3337 3298 3727 4590 3696 2855 4222 3202 4899 3212 3552 4938 3287 2737 4869 4950 3183 2847 4317 3084 3745 2594 2847 2627 4829 4260 4484 2955 3989 4999 2572 4718 4908 3691 4391 3438 4392 2836 2842 4001 3015 3787 2534 3719 3055
35 34 11 15 7 33 19 21 6 34 22 9 13 30 27 28 27 35 7 38 13 39 16 30 11 35 34 17 8 25 10 5 34 38 36 33 5 21 11 22 6 8 21 29 16 20 25 3 28 33 4 30 20 22 38 5 30 9 35 22 6 21 31 7 5 38 3 26 10 3 21 30 38 18 2 14 27 5 1 21 32 26 33 8 2 16 4 3 9 7 12 5 9 21 0 11 15 17 38 19 22 1 17 34 30 32 24 35 17 30 39 19 11 17 23 37 24 22 9 3 10 34 1 1 17 3219 4628 3617 3916 3367 2705 3601 3583 2556 4405 2726 3880 3109 4327 2641 2716 4434 4697 4063 4438 3929 3805 2891 4086 4643 3991 3424 3139 4406 3672 4276 4221 3702 3768 3649 3905 3018 2952 4277 3204 3267 4834 3744 3760 4399 3682 3957 4453 3714 3984 3248 3971 3857 4811 3000 4364 3956 4889 4304 4509 4454 3129 3209 4440 2844 4992 2906 2670 4513 2660 3162 4824 4064 3321 4764 4753 3931 4514 4073 4009 3625 3121 4476 3221 2978 2747 3705 2807 2727 4549 3696 4017 4634 4578 3074 4692 2844 4925 4043 4216 3817 3497 4731 4543 3092 2630 3727 4110 3373 3986 9 2805 3409 3940 2690 2727 3757 3931 4054 4133 4468 4831 2895 4506 3418
35 25 18 29 24 17 8 33 35 26 21 11 23 10 37 8 5 16 36 34 2 31 15 9 29 32 6 7 5 38 14 26 4 14 35 35 28 1 9 2 13 9 25 13 9 1 39 25 35 13 13 14 2 18 10 29 6 25 19 34 25 3 12 3 22 35 29 28 33 2 9 19 13 18 12 9 6 35 15 13 24 18 34 20 25 33 5 25 36 18 10 36 13 19 1 0 27 18 22 10 7 8 35 22 6 32 25 16 36 23 25 17 27 39 6 7 23 32 3 23 26 36 20 37 29 3218 4853 3543 4692 3700 2512 4401 4011 3925 3320 2548 3906 3291 4755 4356 4040 3608 4615 4576 3615 4968 4271 4230 3150 4095 4838 3411 4827 4644 4568 2812 3724 4849 3683 3684 2872 3208 4008 2961 3125 4618 3593 3438 4543 4906 2604 2568 2760 4007 2679 2990 4064 2790 3153 4477 2842 3298 3839 4712 3002 3411 2567 2910 2813 3437 3535 2649 4665 4966 2628 3055 4458 4978 19 2653 3824 2624 4915 3861 2695 4339 4155 4996 3088 2986 4539 3798 4949 3981 4766 4612 3140 4544 3372 3091 2982 2916 3776 4067 4776 3939 4644 3286 4669 3362 4682 4225 4944 3197 3023 3762 3053 3305 3333 4398 4991 4699 2548 4715 4754 3762 4173 3959 4398 4041
24 10 8 32 37 36 16 12 16 34 30 34 36 19 27 33 32 33 10 19 5 13 20 9 35 8 5 15 38 11 35 30 17 16 25 16 39 13 8 26 19 1 8 8 27 19 6 28 19 14 34 5 19 22 29 9 18 32 38 22 23 19 36 21 8 25 27 27 10 33 19 39 35 8 27 8 27 6 28 32 22 11 5 13 1 21 8 14 12 7 31 33 27 36 26 38 0 4 27 11 19 25 33 3 21 5 39 33 33 21 11 17 28 3 12 38 32 38 10 36 13 27 2 16 11 4986 3044 4699 4523 4119 4920 3287 3051 3829 3669 3390 3289 2600 3547 3235 4321 4170 4298 3063 3706 3419 4739 6 3411 4210 3531 4412 3664 4678 4776 3212 4190 3795 4258 2664 4331 2911 4876 2535 2508 3646 4232 3879 4947 4608 4398 4603 4920 3214 3351 3841 3352 4123 4586 4541 3372 4911 2777 3201 2657 3775 2854 2913 3434 3812 3379 4279 4845 4216 2678 3418 3745 4358 3741 4415 3993 2873 4648 3764 4300 4343 3209 4585 4833 3085 4454 4664 2917 4677 4553 3297 3588 3986 3149 4346 2800 4107 3376 3938 3959 3291 4946 3913 4598 4111 3177 4509 2947 4198 2874 4408 4166 4621 3720 4337 4457 3469 3244 3053 3516 4235 4440 3357 2969 2857
22 25 3 16 5 19 29 27 29 37 18 6 5 2 37 35 34 23 37 3 2 28 6 34 5 34 35 16 13 11 22 12 25 33 6 3 28 4 24 21 9 29 28 39 39 9 37 3 37 12 13 27 8 14 20 1 17 37 18 22 36 27 38 27 33 14 1 10 10 25 31 9 30 6 7 24 25 26 2 11 5 4 27 34 36 36 18 29 6 23 6 39 2 13 4 28 15 0 12 13 16 23 27 13 16 25 28 14 4 26 36 34 10 3 16 26 28 24 12 29 20 4 23 18 35 2888 3269 3986 4667 3025 4382 4588 2957 3611 3770 4882 2937 2642 3875 4815 4405 3202 4520 2809 18 3772 2611 2760 3840 2974 4068 3621 3656 9 4821 4728 4775 2668 3387 4524 3682 3298 3948 4608 3980 2516 2564 4068 3750 2573 3417 4606 3032 4611 3004 4030 4235 2941 2700 4640 4143 4549 3515 4673 3316 4424 4538 3387 4564 2526 3824 4154 4563 3569 4038 3751 3829 3143 3289 3841 3293 4915 4483 2663 3732 3579 4998 3703 2922 4665 2998 2953 4207 4530 4655 4754 3290 2628 4833 4267 4754 4688 3133 4037 4875 4768 4323 2890 3388 4449 2653 2704 4264 3511 2909 4193 2830 4886 2771 4086 2885 3139 6 4762 3390 4705 4110 4848 3575 3506
14 24 35 2 20 23 26 6 6 36 34 21 15 9 18 16 6 5 27 26 15 1 33 38 16 39 1 2 5 2 26 9 10 38 15 39 23 18 29 7 18 21 27 33 12 30 8 26 21 24 32 21 13 8 8 5 17 27 39 20 27 25 23 32 17 10 2 31 24 29 16 13 9 21 22 26 5 13 9 33 31 7 32 6 32 33 33 29 35 7 26 30 33 9 36 8 2 27 0 4 5 24 10 34 27 2 35 30 35 33 20 23 34 30 20 1 15 8 31 19 16 8 15 20 10 4240 2652 3422 3929 4067 3321 4704 4523 4266 4224 2894 4634 3012 4156 3013 4544 4594 3689 3052 2748 3780 3750 3156 4860 2777 3065 3053 2589 3341 3280 2688 4418 3042 4076 3781 3740 2964 3075 4727 4865 2705 3909 2981 4207 4843 3974 4168 2900 3427 3822 4030 4670 3198 3048 4517 3249 4183 2821 4524 2812 2860 4347 3942 3409 2671 3891 3121 2534 2812 3938 3430 2620 2816 2869 2698 4422 3004 4934 2794 3982 3695 4516 3675 3097 4014 4564 4229 3359 4440 3187 4415 4673 3602 2981 3292 2612 3965 2605 3445 2903 3981 4762 2642 3258 3682 4292 4425 3115 3871 2990 4151 4125 4651 2966 3007 3123 3247 3254 3047 3130 4269 3348 4539 3909 2995
39 19 15 10 4 4 30 8 12 13 1 23 30 7 26 35 2 17 29 36 9 9 32 20 22 30 21 11 20 14 36 10 7 37 3 2 21 36 1 34 21 39 29 24 15 25 5 29 21 21 35 30 18 9 25 30 14 38 38 20 20 16 12 16 28 10 36 26 25 16 24 21 9 10 19 39 12 39 28 20 5 28 38 15 8 4 36 29 7 9 13 28 24 39 26 22 27 1 19 0 20 39 39 3 2 25 23 33 33 14 18 27 1 15 6 14 14 35 3 15 31 11 11 6 25 4022 4972 3082 4763 3853 3047 4179 3454 4738 3255 4498 4309 4191 4665 4662 3437 4856 2687 3532 4843 4040 3501 4283 2794 4041 4573 2503 4868 4478 4476 2884 4867 4359 4716 3844 3481 4531 4822 2802 2838 2762 3826 2680 2776 4503 3460 4729 4489 3455 4829 4686 3395 4309 3919 4736 2654 3494 4358 2575 3352 4701 4606 3070 3944 3123 3679 2664 2682 4667 3660 3439 3281 4832 3848 2716 3826 4800 3714 4341 3097 4842 3774 3190 4626 2866 3107 3655 2708 3778 4126 3855 3667 3101 2799 4005 4166 19 3653 4604 3714 4762 4433 4509 3200 4825 4241 4127 4528 3918 3149 3576 3268 3046 6 4147 4981 4413 3537 2623 3392 4412 4998 3820 3051 4128
16 22 9 33 39 27 35 5 32 3 4 18 4 19 17 12 10 14 39 3 1 18 5 25 6 32 16 23 37 21 24 23 30 5 22 16 10 21 27 23 14 36 20 20 3 29 35 33 8 3 13 13 10 36 3 33 34 2 15 18 15 24 10 7 27 3 14 20 12 36 28 1 35 24 26 29 10 38 34 6 13 33 36 39 33 4 11 26 30 32 5 11 32 28 39 24 32 30 1 22 0 17 21 27 36 9 26 13 3 7 22 4 33 33 2 30 2 39 32 31 25 32 26 21 29 3125 4316 3700 5 2874 3533 3578 3071 4586 4597 2840 4072 3527 3230 3973 4082 4321 4955 2977 3179 4273 3944 3893 3708 5 3633 2806 3152 3988 3812 2759 4319 3938 3057 4997 3340 4022 4785 2710 3458 2823 3600 4518 4077 4091 3773 3339 3353 3329 4802 4977 3126 4612 3602 3593 3811 3387 4700 2762 2885 3289 4838 3369 3142 3875 3318 4618 4245 3206 4420 3764 4840 4248 4563 3113 3108 3578 4190 4798 4173 2921 4474 2732 4586 4817 3828 4162 2654 3902 3633 2972 4374 3954 4056 4555 4836 4804 3129 3951 4735 4873 4716 4186 4453 4170 2910 4918 2847 3090 3633 2737 3852 3344 2715 4808 4918 3644 2977 4183 3252 4778 3563 2563 4968 3713
30 3 9 12 30 31 29 36 4 17 5 15 34 28 36 36 30 38 15 17 6 12 13 27 13 33 4 20 13 37 15 15 8 36 10 13 31 13 27 27 24 16 20 29 34 15 22 25 28 39 27 32 13 19 3 9 24 13 23 22 21 10 38 19 24 13 20 5 15 39 20 18 5 5 20 5 24 13 37 9 26 16 34 10 4 24 39 31 36 17 29 19 32 35 16 21 9 16 30 31 11 0 22 28 38 26 14 18 6 24 20 2 5 25 2 12 6 17 34 6 19 4 5 24 28 4373 3736 4921 2960 4772 4404 2556 3677 4048 3730 4295 3543 3116 2835 2590 2745 2994 2777 3157 4947 4684 2880 3644 4975 4266 4639 3584 2579 4027 3590 3370 3011 3032 2859 4451 2709 2886 2655 3162 3086 3940 4653 4285 3571 2752 4150 4751 2770 3978 2832 4854 3419 2889 3648 3239 4739 3707 3730 3389 3472 3749 3716 3784 4984 2700 3379 4069 4288 3917 4803 4571 4538 3181 4484 4409 2594 3878 2952 3855 2887 3623 3658 4231 3120 4148 3034 3715 3905 3155 4734 3521 3229 2947 4085 2704 2839 2833 2970 3173 4642 3861 3372 2785 4289 4007 3864 4971 4237 4028 4106 10 4590 3156 4362 4868 4807 4558 2767 3353 4029 3197 3780 4221 3057 3714
17 11 5 23 3 17 32 37 13 30 8 39 5 38 6 29 26 32 10 24 29 4 15 25 11 22 17 22 13 6 9 27 12 6 19 25 2 6 11 1 2 10 33 36 38 20 18 5 34 13 29 13 8 16 6 19 19 34 15 25 37 5 11 10 6 30 12 7 13 28 39 6 15 12 30 33 27 34 8 14 21 4 26 15 1 26 12 20 30 23 9 26 9 17 39 27 20 3 37 17 1 5 0 26 8 37 22 34 24 19 2 35 12 33 33 2 30 36 39 36 31 18 7 20 7 3551 4709 4749 4328 2884 4813 2830 3461 4759 2708 4030 4208 3087 4564 3326 2998 4324 2581 3510 3846 4301 4586 4671 5 4974 4305 4796 2507 3647 3012 4317 4106 3442 4022 3625 2975 4371 3727 3219 2768 2622 3671 4368 3196 2568 4341 4863 4172 3945 4157 3017 3000 4911 3342 3373 3415 3031 2778 2568 3169 4698 4592 4203 3579 8 3264 4995 4884 4194 3884 4587 2912 3878 4392 3288 3068 4395 2903 3939 2687 2663 2636 4850 4293 3703 3198 3358 4962 3929 2656 4820 3748 2989 3034 3113 3525 2786 2838 3921 3199 4415 4307 3346 4428 3982 3746 3151 3881 2502 4265 3792 2980 2959 2693 3611 3759 4856 4603 4667 4837 4622 4098 3092 3156 4639
31 32 5 36 1 35 6 17 23 32 17 2 24 5 5 1 25 7 2 38 8 16 18 34 12 24 35 39 11 17 21 25 36 23 37 39 2 15 37 32 2 20 3 28 15 6 23 1 9 32 17 7 14 25 11 14 15 23 8 28 28 5 1 20 1 37 2 2 18 33 2 13 18 7 10 16 25 9 29 26 14 26 4 17 39 4 2 34 28 15 36 15 1 7 1 24 21 35 29 18 1 5 23 0 29 15 1 39 19 35 21 2 38 20 25 23 17 4 34 19 16 5 22 25 24 4871 4017 4502 2614 4628 3392 4798 4883 4927 4412 4931 4427 4743 4097 3292 4156 3568 4250 3596 4955 3367 4528 2816 3987 3454 4388 3527 4767 4528 2655 4676 2587 4176 4907 4402 2761 3795 2630 4188 2776 3265 3720 4415 3711 4762 3570 4357 2552 3881 4591 2938 4492 2568 2903 4600 3528 3474 3103 4493 3930 3448 2729 2994 4759 4194 4144 3170 2654 4466 3139 4235 2778 3507 3806 3934 3089 4830 4329 4294 2814 3379 3038 4826 4343 4538 4542 2998 3055 3033 3208 4006 3326 4017 3491 3629 4082 3531 3684 3797 3372 4626 2831 4651 3294 4755 3410 4116 4343 4898 3831 3780 4011 3228 4443 3796 3160 3782 2752 3941 3131 3387 4849 3226 2882 4680
31 30 36 32 26 38 5 32 27 5 10 18 27 30 16 35 28 7 29 7 14 35 8 18 21 25 35 31 5 35 26 17 7 15 6 20 20 23 18 17 31 36 20 25 28 38 11 15 34 27 15 6 13 19 32 25 10 16 36 16 5 3 25 35 11 12 15 19 18 22 26 15 9 21 9 26 30 25 14 24 34 19 39 23 25 21 18 4 23 5 6 22 25 6 22 33 9 30 34 2 10 12 21 39 0 30 8 26 31 25 26 8 25 21 26 9 39 16 6 1 30 10 1 24 20 3440 2932 3641 2933 2514 3274 2854 4441 3257 4438 3214 4450 4774 3726 4086 2752 4578 4560 3522 4637 3137 3902 3217 2522 2515 4031 4681 2649 4763 4774 4026 3463 4638 3994 11 4781 17 4789 3594 2748 4801 3751 2936 4289 4364 4845 4523 2693 4157 2972 3740 3658 4464 3461 3212 3703 4411 3590 4162 3438 3793 4283 4670 3243 4988 4882 4713 3826 3490 2760 4337 4452 2770 4774 4587 2525 2829 2721 4290 4849 3850 3426 2706 3400 4397 4744 2798 2586 4856 3216 2814 3224 4350 4411 2764 4120 4252 4012 2705 3333 4290 4497 5 2852 3842 3090 3136 4596 3252 4149 4862 4684 2561 2889 2784 2978 3187 4569 3869 3347 3338 3648 2975 4131 3403
20 14 32 13 34 6 28 3 11 23 15 30 20 17 39 21 26 15 21 26 26 5 39 8 4 1 23 3 24 38 10 27 16 16 7 37 11 14 33 9 28 28 24 18 20 11 30 25 38 38 3 33 12 4 24 25 36 24 30 7 34 5 8 12 29 33 38 29 31 22 13 22 7 20 20 24 38 37 24 8 16 27 29 7 25 28 33 25 19 29 16 20 39 34 27 28 11 39 9 3 29 23 28 7 5 0 27 23 30 25 1 22 21 14 33 8 29 32 38 22 38 33 3 14 24 3734 4158 4977 3347 3149 4625 3411 4925 3060 4139 4495 4596 3288 3482 2546 3487 4027 4271 3540 4527 3449 2657 4717 2881 4619 4717 4452 4203 3687 4007 3622 3114 3203 4867 3002 3035 3332 4112 4694 2511 3451 3081 2892 3065 4086 3689 3077 3873 4159 3677 3779 4067 4527 4312 4277 4050 4788 3695 2918 4750 4546 2832 4844 4298 2770 3718 2511 4421 2901 3304 4572 4831 4617 3954 3694 3225 4560 4829 3435 3664 4733 4585 3561 2657 4252 3699 4830 4133 4961 3341 3994 4829 3305 3816 4335 3886 4985 4810 4838 4692 4972 3609 3896 2958 3226 4743 3847 4011 4136 3024 4765 4088 3410 2966 3378 3674 2829 4849 3459 3417 3754 3751 2680 4067 3145
23 30 27 33 21 29 16 24 18 24 12 22 27 17 9 24 11 5 5 15 22 36 6 38 37 16 1 31 37 4 38 11 9 20 19 19 32 5 23 10 18 34 32 38 5 17 16 4 20 32 17 3 3 15 16 2 15 36 19 20 11 31 11 28 31 36 22 2 35 7 38 25 20 22 38 37 2 2 30 37 31 2 35 4 15 10 22 8 17 37 26 18 11 15 1 14 18 6 38 3 4 39 6 10 38 11 0 35 17 6 12 27 34 7 17 30 23 15 3 35 1 3 26 30 34 4666 4739 3542 4984 3641 3038 2894 4079 3450 4557 4193 3725 4080 3122 4857 4438 4684 4329 3026 3904 3310 4621 3462 3867 4287 4260 4052 4353 2934 4285 3613 3661 3441 3152 3862 3234 2740 3524 3896 2626 3174 3224 3070 3645 3106 3191 4615 4133 4313 4906 4982 3455 2581 3031 3869 4763 3210 3747 3413 4946 4643 2503 4898 4328 2810 4387 4243 3924 3348 4918 3703 3101 2891 4814 3464 2539 4639 2918 4407 3274 3575 2724 3300 4260 3312 3500 3131 3703 3536 3828 4730 4258 3447 4348 4297 12 3031 4238 4143 4335 4972 2608 3839 3197 2637 4432 2947 3391 4629 2960 4548 2939 3287 4078 4983 3834 3124 3608 4021 2515 3519 3668 3600 3374 3074
37 31 30 35 36 29 18 37 29 37 24 33 27 22 13 14 2 29 10 20 31 30 4 16 22 12 37 31 13 24 35 1 36 3 13 6 20 37 15 18 39 30 9 15 26 38 36 1 39 3 2 13 8 19 9 36 38 8 34 18 31 35 18 24 29 19 30 6 29 7 38 10 6 1 39 23 7 38 9 39 12 32 9 28 38 12 10 15 2 18 21 24 22 22 14 27 32 29 12 4 3 5 37 32 10 37 30 0 5 6 35 32 16 15 27 15 7 33 10 3 3 18 10 36 3 4645 4041 2791 3657 4560 3298 3477 2852 3063 2777 4739 4732 2653 2868 4448 4674 4406 3816 3863 3162 2959 3215 3993 2864 4877 2677 4294 4019 4803 3115 3379 2879 3197 4367 4279 3866 3975 4032 4523 2812 4878 4802 3302 3797 3543 3838 3207 3606 4749 3416 3844 2584 3144 3580 2950 4306 3081 3973 4007 4217 3522 4663 3159 4303 4833 3677 4651 4666 2752 4017 2948 3228 4003 4223 4289 4463 3290 4276 3891 3401 4025 4417 4986 2772 4004 3964 3422 4482 2930 2927 3050 2830 2944 3184 2803 3265 3071 2588 2587 3289 3519 2524 4983 4371 4451 4144 4143 3324 4534 4404 3928 3618 4942 2620 3525 3070 3540 4205 2573 4993 4715 15 2647 14 2616
30 38 15 25 36 8 20 9 27 7 32 24 21 22 3 4 22 2 18 19 30 20 20 13 5 5 37 32 18 26 6 17 28 25 30 22 34 27 8 16 33 29 38 7 2 14 6 35 36 20 22 8 32 1 16 36 9 31 14 8 7 32 24 14 22 21 19 27 37 20 27 21 28 39 23 3 16 32 4 9 27 22 28 16 38 15 30 29 14 27 25 1 37 12 22 38 12 22 9 28 11 1 3 11 34 14 18 3 0 6 38 14 20 3 21 38 32 31 16 29 9 32 34 17 17 2502 4195 2590 3426 3879 2594 4697 4087 9 2761 4800 3758 4885 2842 4925 3744 3583 3846 2522 3709 3500 2616 4386 2517 4165 2729 2713 2551 3274 4045 4881 3881 4631 3428 4153 3272 2581 2875 3250 3349 3743 4014 3239 3167 4599 2708 4774 3791 4004 4784 3610 3482 4816 4033 4216 5 4183 2706 3582 4996 3925 4075 3585 3744 4315 3199 4571 4667 4635 4655 4954 4071 3979 3622 2869 4641 3011 3766 4108 3488 4962 2881 4652 2922 4235 4791 3433 2949 3313 3672 4110 3233 8 4187 3204 2826 3312 2635 4066 3466 2882 3203 3502 4786 3668 3735 2658 4397 4492 3368 4725 2857 4197 3881 4363 2593 4332 3921 3210 4763 16 2513 3166 4105 4622
26 32 38 17 26 19 17 30 9 20 12 36 14 24 21 20 29 30 39 35 29 5 3 39 28 33 32 14 26 12 13 15 1 15 27 29 24 36 24 12 38 2 5 38 27 1 1 18 27 7 26 33 22 27 38 1 28 17 13 20 15 37 13 38 18 17 37 27 20 16 33 36 5 28 13 35 7 9 29 6 32 6 35 25 14 35 24 12 36 16 20 36 20 15 23 4 39 9 22 30 33 35 21 25 3 5 15 29 16 0 11 10 27 12 4 3 28 7 39 10 38 6 23 9 4 2927 3321 4021 4667 4925 3630 2599 2704 3598 4700 3637 2956 4971 4143 4005 3781 4936 3108 2870 4563 4845 4018 4686 4913 3093 4847 4816 4274 3707 2963 4490 3230 3081 3341 3325 2680 4304 4141 2888 2890 4006 4882 3037 3690 4957 2933 3770 4123 2750 2839 4258 3668 4795 3780 4412 3003 3900 3766 2822 4687 4994 4870 3089 3369 4256 4693 3023 2732 3256 4748 3180 2681 2990 4259 3867 3223 2691 2707 3379 3182 4588 3754 4895 4317 3957 3722 2620 4075 3566 2543 3972 3308 3091 4802 2973 4078 4875 3072 4349 4367 4689 3943 3804 2952 3775 3091 4287 4678 3582 4003 4201 4813 2522 3020 4475 4363 4503 3184 3555 2578 4229 3395 4112 3748 4679
15 28 6 12 6 19 26 2 18 18 27 34 17 22 12 29 32 34 20 19 36 21 23 35 11 7 31 24 10 36 4 19 33 22 20 31 14 15 20 28 25 12 4 20 31 12 3 22 18 8 19 25 2 37 33 34 6 22 4 17 26 21 12 31 38 33 38 31 34 4 24 4 29 34 34 20 15 18 34 22 20 6 33 16 38 35 3 8 24 10 13 13 30 35 15 15 8 35 24 5 34 11 10 6 15 26 29 26 10 15 0 28 38 26 34 17 34 36 11 9 19 19 15 17 30 4772 8 3123 3539 2698 4710 2710 10 4320 3689 4909 3133 2879 3419 3813 3008 4518 4037 3117 3456 2510 3399 3723 4347 4220 3690 4468 4413 3515 4425 4517 3614 3898 4181 4011 4459 4601 3147 3827 3091 3423 4703 4707 3467 3719 2997 4071 4853 2657 3324 2983 3412 4880 4044 4139 3687 4566 4113 4522 4023 4278 4303 3586 2862 3644 4287 3828 4502 3293 2631 2528 3186 3941 3691 4504 4973 4782 2989 3624 2560 3535 3453 3920 3014 3829 3677 4425 2680 4876 3985 3970 4349 2942 3373 4135 2838 3226 4717 4011 2751 3280 4300 2941 4000 3942 3281 3637 3686 2781 2569 4419 3232 2526 2938 2929 2763 4094 3208 4143 3865 4056 3391 4362 4639 4250
14 19 10 22 39 37 38 7 34 26 21 14 5 28 2 14 39 16 6 36 36 22 8 30 5 15 3 36 39 25 23 29 21 23 22 10 31 25 4 29 3 24 33 17 15 35 25 37 4 14 35 7 10 14 30 7 19 23 19 33 18 1 25 30 19 13 26 3 30 26 24 38 11 38 32 30 5 4 4 35 26 9 20 14 37 22 11 31 14 13 14 17 19 8 11 5 25 22 25 34 14 18 37 2 37 21 36 13 28 25 5 0 29 29 16 18 39 37 23 30 3 11 33 25 33 4237 4378 3061 4896 3851 3670 3885 3299 3006 2581 3102 3233 2585 3701 4367 4293 3214 3145 3862 4075 4388 3150 4225 4877 3464 4093 4831 4149 3328 2821 4502 3724 3672 2510 3602 4653 4122 3874 4041 2723 3090 3705 3028 3387 3223 3976 3671 4691 4858 3816 4710 4945 2860 4974 3831 3780 2891 3828 3618 2540 3140 4952 3502 5 3158 2939 4232 3402 4693 4782 3135 2994 3412 3768 2731 4438 4456 4433 3255 4583 3255 3194 3747 4692 4335 2795 2723 4434 4132 3168 3014 3865 4141 3915 3310 4597 2978 4905 2569 3340 4764 4527 3874 3044 4462 4998 4658 3443 3076 3192 4851 4744 3095 3537 3124 2779 2930 3381 3061 4616 2574 4881 4114 4485 3173
4 31 12 17 28 34 34 29 24 29 37 25 23 38 4 34 10 27 3 1 8 21 39 18 5 27 19 23 28 21 26 29 32 15 1 19 14 18 19 22 9 35 36 39 30 27 33 17 30 13 30 38 9 39 13 17 11 11 19 36 28 11 16 8 34 12 36 34 30 16 31 10 38 22 2 6 31 25 33 6 4 16 1 34 25 2 2 32 38 25 4 31 26 18 5 27 20 8 29 7 11 13 36 37 30 32 25 11 27 30 12 28 0 35 11 23 2 25 19 29 21 33 36 3 16 4954 4262 4369 2873 3955 2871 4443 3955 4382 2754 4888 3384 4713 4937 4795 3510 3029 2778 4163 3323 3292 3619 3407 3700 4690 3154 4106 4506 4623 4950 3365 2640 3157 4382 4598 4272 4461 4597 3183 3071 4562 2515 2541 3518 2693 3110 3907 2991 4928 4865 3545 4951 4275 4198 3387 2650 3532 2903 3522 3034 3268 4289 3908 3736 3249 2699 3235 4341 3809 2896 4309 3963 3316 3255 4922 2837 2661 4984 3871 2999 4279 2582 3118 3210 3287 3603 2799 4976 2991 2703 4661 3809 4419 2837 3264 2741 4020 2851 2743 3750 4768 2888 4336 3879 3342 3922 4933 3837 2914 4700 4196 3211 2907 4431 4137 4936 4866 4438 4678 3609 4760 4109 4022 3501 2994
31 20 10 22 14 1 7 25 6 33 26 25 23 20 17 31 32 29 25 39 1 3 9 17 29 36 1 33 38 23 20 18 1 5 37 3 18 10 30 20 12 12 22 32 18 17 36 29 5 21 4 38 28 28 27 17 38 14 31 24 30 27 20 14 30 14 21 36 3 39 31 8 32 19 8 37 26 7 28 17 1 11 36 8 36 15 39 14 23 3 34 12 36 18 32 3 12 22 28 26 4 13 7 15 30 35 1 37 19 20 5 29 31 0 36 6 32 30 8 33 39 30 4 7 11 2831 4333 3073 3983 4969 3754 4843 3440 3867 4784 4323 4075 4210 4233 3622 4012 2817 4530 4027 4206 4383 3096 3253 4402 4458 4243 4658 2859 4310 4311 4007 2687 4291 4717 4523 3412 4523 3253 2635 2951 4827 3622 2661 3805 4270 3204 3200 3004 3343 4858 2818 3311 2716 2934 4855 3994 3455 4818 3232 4516 3453 4283 4913 4652 3650 3260 2985 4801 3953 4124 4752 3788 2749 4484 2517 4360 3938 4301 2795 3235 3334 2900 3993 2615 4892 2678 4024 4392 3452 2883 3480 4171 4935 4929 4455 3083 4537 2618 3894 4456 2831 2687 4889 4960 3662 2798 3066 2686 3678 4802 2679 3993 3832 2557 4059 4061 3358 4625 4894 3758 2603 4928 4094 3456 4760
27 26 21 3 20 19 37 4 33 38 15 3 4 25 37 3 19 15 31 6 34 28 33 39 17 37 4 20 25 27 23 21 15 8 35 7 17 22 7 13 17 24 17 2 37 14 25 25 11 39 29 10 20 23 16 15 36 27 10 4 4 5 37 8 36 13 36 30 8 15 25 6 6 37 10 10 27 31 12 20 18 36 21 18 15 19 23 38 8 7 39 23 5 32 4 31 3 5 22 16 19 11 19 39 31 24 6 24 39 30 4 30 32 26 0 24 8 35 16 30 36 11 30 25 11 3462 3206 3854 2920 4885 2636 4203 4155 4337 4541 3283 3040 3176 4523 2912 3813 4338 3917 2792 2575 3315 2541 4982 3993 3821 2753 4641 4161 3022 3127 4215 3334 3227 3835 4956 3990 4319 4480 4907 3100 4473 4928 3300 4370 3037 3935 3961 4886 4896 4145 3133 4082 4158 4730 3106 4287 3418 3143 4740 3436 2961 2650 3141 2693 4207 4677 3828 3383 3957 2730 3760 4313 4614 2756 4209 3546 3656 4791 4299 3616 2618 3483 4599 3444 4081 4529 4078 4407 3119 2674 3553 4639 2667 3778 2542 4075 3610 3482 4383 2500 4133 3854 4997 2848 3669 4428 3077 4770 3133 4699 3114 4783 3920 3675 3092 3604 3773 3127 3563 4677 3559 3086 4289 2637 3662
33 32 30 4 5 15 27 24 25 27 7 6 15 5 20 32 22 33 17 28 21 1 22 17 7 5 22 5 28 10 2 38 5 5 10 2 13 25 13 36 12 39 16 15 35 13 15 25 21 21 3 33 6 24 7 39 30 5 36 13 19 17 20 1 14 20 10 37 18 17 29 39 11 12 17 10 36 35 15 22 6 17 37 21 1 29 29 16 25 7 4 34 13 22 39 19 37 29 9 19 31 25 26 29 35 18 9 29 23 36 38 18 6 14 14 0 2 24 8 17 2 33 24 10 20 3201 4797 3700 2667 4065 4769 3705 2534 4358 3141 2684 4584 2536 2965 2584 3076 3107 3052 4065 3858 3702 2652 3281 4732 3166 2617 2713 3427 4883 2998 4927 2523 3280 2731 3161 3536 3082 4822 3872 3213 4127 3565 2550 2842 3601 2926 3584 3968 2582 4231 4697 4293 2677 2624 3680 3694 4550 3498 4845 2881 3262 4765 4080 4190 4254 4496 2933 4833 3312 4431 4457 4281 2917 3934 3901 3775 2569 2721 4321 4443 3763 2803 3373 3189 4353 2503 4518 4643 3392 4714 3062 3958 2585 3679 2785 2779 2575 2562 4951 2693 3096 3637 3475 3254 4623 2688 2856 3550 4255 4446 3561 2673 3311 4999 2863 3723 3883 4750 3941 2702 2847 4030 4494 2886 3022
11 36 29 25 17 18 20 39 5 2 33 36 9 4 25 23 14 2 36 17 34 2 26 15 25 28 30 39 20 24 33 10 24 29 11 2 17 24 33 37 17 31 23 13 22 6 11 4 39 32 31 36 1 32 6 14 12 20 12 16 35 36 24 27 18 30 29 8 34 13 1 33 23 31 16 25 37 15 23 38 30 22 5 29 9 22 29 20 6 22 5 3 33 14 11 28 4 16 20 16 21 20 25 30 36 29 27 32 35 35 9 17 33 8 28 39 0 14 13 6 19 14 27 22 23 4638 4317 2999 3103 4725 4178 3194 3288 3339 2791 2517 3193 4114 3599 3297 2804 4059 4865 4425 4192 3081 3625 2894 4033 4339 4631 4605 2768 4753 2525 4752 3500 4687 2639 3475 2689 2883 3735 3964 2878 2867 4514 4680 4275 3740 3547 3742 4005 3584 2512 3564 4125 3051 3481 4059 2788 4676 3583 2862 3951 3179 4229 2920 4936 4469 2712 2551 3507 3050 4121 3996 3534 3716 4802 3415 2923 4042 3276 4799 4789 4354 4149 4420 4922 2639 3070 3264 4952 4487 4477 4905 2758 3855 2656 4174 2758 4928 3156 3589 3917 2729 3178 4954 2526 2549 3086 4218 3998 2699 2592 4689 2909 2570 4776 3352 2973 3650 2564 4726 3099 4680 2954 2979 4214 4096
20 38 39 14 27 22 25 24 31 18 17 33 14 30 31 13 3 5 5 35 15 16 2 5 32 4 39 7 1 9 1 24 10 36 15 10 23 27 22 35 35 34 8 39 36 6 27 7 34 31 36 22 39 28 4 31 31 4 20 16 1 14 36 8 24 26 30 1 5 3 13 23 38 20 9 28 15 10 38 23 30 18 21 7 24 1 9 19 16 27 24 8 16 9 2 5 21 25 32 31 29 32 35 35 15 34 39 29 35 11 11 22 35 19 29 8 29 0 31 23 24 8 19 17 12 3719 2991 3097 3892 2943 4010 2528 2886 3171 3642 3940 4977 3988 4508 3580 4560 2729 3533 2824 2500 3816 4302 4056 4933 3638 4295 2656 4265 4017 4582 3372 3070 3354 3631 4990 4587 3964 3429 4827 2743 3787 3338 4669 4361 3733 2584 2935 2724 3756 2949 3612 4673 4918 3113 3368 2987 4039 2914 3738 19 2556 4646 4708 3747 3144 4061 3949 2991 2847 2537 3822 4888 3534 3353 3287 3100 3468 2771 4871 2676 4396 2527 3917 4866 2670 4101 3133 4734 4307 3885 4948 4366 4670 3550 3348 4665 2557 4344 2888 3448 3393 4843 2854 4137 4653 2963 3624 3046 3745 3877 4672 3803 4005 3432 4208 2668 3652 3775 3602 4552 4207 3137 3336 3725 3233
1 21 2 31 32 11 36 16 36 22 30 3 31 3 9 3 5 32 23 19 22 9 17 12 36 22 26 35 18 1 36 10 23 30 7 33 34 34 12 3 25 21 5 21 32 3 4 21 10 23 37 38 13 24 12 25 23 19 22 15 17 4 34 7 35 33 9 6 20 39 5 20 21 12 13 4 6 31 37 15 27 1 33 7 35 24 38 39 22 37 9 37 39 13 39 15 7 2 16 1 28 9 14 21 3 13 9 20 37 33 23 17 8 11 23 2 17 30 0 28 32 30 14 10 14 4285 4477 3951 2773 2816 3489 3523 4441 3431 3371 3981 2613 3306 4450 2648 3184 3290 4197 4316 4921 2574 4600 4518 2620 3463 3727 3247 4502 4609 4509 3471 4897 4355 3368 3185 2734 4672 2535 4847 3716 4784 3110 3347 4055 2552 4487 2703 2829 4886 3737 3481 2793 3689 4691 2817 3064 2552 4165 4652 4422 4528 4844 3038 4260 2899 4063 3227 4440 3689 2676 4992 4427 3679 3986 4619 2576 4355 4803 4558 3726 2969 3205 4448 3941 4555 4230 4189 2734 4958 4174 3468 2871 3172 4885 4045 4321 3499 3798 3892 4426 4844 4364 2827 2642 4193 3652 7 3379 4319 3427 3200 2573 4862 4947 3780 4505 2903 2992 3495 4539 2722 3822 3282 2957 4280
13 6 15 31 34 37 2 27 4 16 12 29 14 32 13 7 23 4 39 4 32 5 12 26 34 2 7 8 35 6 29 21 36 15 24 24 36 36 27 5 38 39 20 25 1 20 20 5 32 36 36 31 4 36 4 16 36 25 15 32 4 12 10 30 3 33 1 9 35 17 6 33 21 11 4 20 28 39 25 9 17 39 38 33 27 15 29 32 28 18 32 24 13 16 10 32 22 6 29 9 21 38 15 12 29 10 12 8 33 16 15 38 6 24 35 19 22 20 18 0 11 32 4 26 19 5 4006 3987 3227 4359 2684 4470 3242 4867 4933 4531 9 2689 2861 3724 4131 3252 3753 3411 3148 4395 4212 3275 4544 3184 3230 4377 4603 3173 4680 2620 3978 3282 3259 4313 3015 3717 3060 3213 2710 3368 2683 3597 4479 4977 4378 3717 4184 3886 4853 3240 3998 3107 4377 4157 4907 3203 4314 4151 3875 2915 4030 2933 4560 3640 4246 3093 2730 2925 3569 3625 4462 4466 3080 4944 4516 4149 4904 4284 4748 4580 4349 4878 4470 3360 3236 3875 4132 4053 3756 3882 3637 4076 2684 3632 2762 3755 4288 3246 4153 3821 4628 2575 4439 3206 4478 3916 4385 3360 3137 3971 4465 3357 4400 2533 4474 2559 3660 3262 2747 3029 3456 2554 2951 3194
12 16 16 38 16 18 30 36 24 32 4 28 39 15 23 31 1 1 3 25 18 9 26 4 4 31 9 38 28 7 36 4 21 2 29 14 31 17 26 18 35 24 3 37 8 29 35 1 29 9 30 13 34 4 38 34 23 33 12 33 27 24 2 27 39 5 39 25 39 9 30 16 28 15 12 5 34 33 19 8 4 13 39 10 20 15 30 8 22 3 4 7 15 19 21 18 33 9 27 3 21 39 32 37 21 35 7 28 31 31 19 35 29 25 4 32 15 14 16 4 0 6 20 23 20 2889 2907 4505 4486 4386 4013 3330 3757 3350 4087 2674 3910 4337 3332 2694 3644 3131 4061 3724 3621 2683 2737 4026 3587 4727 3954 3258 3864 3811 3504 3438 2828 3424 3222 4508 3073 2951 2667 3007 3811 2729 3621 4239 3938 4394 2833 3272 3531 2865 4900 3650 4360 3644 4032 3638 2916 19 3848 4529 2731 3996 4772 3446 4346 3600 2732 4836 4533 4929 3442 3905 2567 2699 3956 3390 4872 3042 3614 4776 2886 4201 4362 3564 2860 3463 3078 4688 3914 4260 2679 3212 4449 3151 2897 3901 3478 2628 4382 3866 4631 4854 2523 3189 3650 4210 4994 4956 3617 4534 4811 2926 4255 3236 3838 2611 2648 2618 2731 2882 2920 4570 3198 3055 3939 3517
6 6 37 17 25 27 34 19 9 15 28 34 20 34 13 13 6 39 24 26 8 24 11 5 4 30 25 6 27 15 6 2 33 7 29 10 31 31 16 25 39 2 32 33 19 18 19 20 12 7 19 36 8 9 11 23 22 36 36 21 15 29 39 3 23 24 7 32 28 28 18 14 19 33 27 34 39 12 35 14 19 18 11 30 18 17 25 27 22 8 26 18 38 31 38 30 20 17 16 12 5 18 1 20 21 17 9 35 16 2 1 14 3 15 23 35 6 18 36 11 35 0 17 37 26 4909 4306 4260 2819 3099 3175 3247 4090 4319 3050 3777 3516 3467 2703 4718 3432 3294 3209 3077 3456 3595 4351 4311 4800 3367 3842 3984 3489 2596 11 4317 4763 2901 3611 3081 4691 12 2652 4608 2838 3588 4527 4182 2866 4399 3771 3517 4620 3532 3223 4334 3290 4307 4830 3929 3877 4055 4292 3560 4995 2999 4842 3653 4412 3139 4780 3485 4523 3533 4434 4910 2917 4133 4967 3101 2771 3229 3666 4910 3117 4338 3633 3620 2952 2738 4219 2618 4799 3794 3999 2877 2838 4912 3564 2687 2843 3397 4618 4671 3077 3441 2899 4667 3494 3871 2677 4539 3650 3876 4098 3187 4163 4547 4850 4245 2800 4212 4736 2633 3289 4614 3881 3245 2614 3571
2 27 6 35 6 30 19 4 3 5 2 38 10 35 7 32 39 8 33 4 4 11 32 18 15 9 32 29 23 35 17 30 5 3 8 12 6 28 26 4 2 20 8 37 34 5 33 14 9 18 21 16 25 29 25 13 16 15 27 1 9 15 38 9 19 14 11 12 30 23 38 35 14 15 28 1 39 24 7 26 38 12 17 16 1 30 33 23 18 3 9 32 31 31 13 12 18 38 15 11 13 20 2 35 18 10 38 22 19 8 25 4 9 12 12 12 8 23 24 39 31 39 0 19 22 4836 4651 4889 4563 4406 2892 3234 4053 2670 3692 3887 3111 3360 4525 3336 4799 4411 4734 2937 3901 3470 3180 2542 2919 4877 4419 4496 2999 3728 2687 4271 4087 4582 3308 2621 4882 2953 4232 3123 2789 4564 3296 2967 2889 4984 3052 2959 4766 2978 3152 2695 4497 3132 4597 4775 4682 3527 3233 4117 4640 3326 2947 4540 4963 4220 2909 4308 4492 4955 4807 3728 4564 4073 4698 3570 3978 4611 4795 3202 3756 4495 4859 3918 4353 4349 3947 3756 3581 2667 4430 4638 4198 3905 4578 4000 3754 4834 3795 3342 2618 4781 2910 3892 3390 3728 2886 3613 4968 3729 2812 4395 4747 4314 4092 5 2898 3287 2508 4932 4813 4119 3080 2612 3576 3324
10 37 31 29 21 39 17 15 27 16 35 16 39 18 27 27 10 28 39 8 34 9 32 38 24 4 13 35 6 21 2 17 16 8 28 9 30 16 3 21 10 32 26 20 20 16 33 11 10 15 32 22 2 3 28 19 9 4 36 9 32 23 15 30 38 33 5 20 12 16 21 14 29 9 16 30 4 12 31 32 32 11 6 9 6 4 19 3 16 10 37 25 30 22 28 24 12 5 37 3 26 2 37 15 33 17 30 22 30 34 34 27 9 23 11 25 6 32 37 31 29 19 33 0 11 3285 3542 4376 4218 3253 3901 3878 3261 2598 4611 3955 4853 4751 4913 2808 4716 3288 3959 3251 4933 2666 4280 4064 3856 2504 3746 4118 3896 3107 3899 3230 3028 4317 4009 4977 4905 2794 3576 4237 3207 2579 3306 2604 3405 3132 15 4972 4935 3530 4070 4487 2533 4800 4453 4142 3649 3093 3285 3091 2552 3504 3993 2613 3251 3207 3223 4726 4919 4370 4118 4876 3729 3712 2548 4014 3527 3492 4742 4702 2621 4089 4932 4112 3121 3315 4370 3393 3411 2548 2769 4642 4101 3494 4949 3097 4553 3422 15 4235 3968 4858 4217 2948 3231 3732 3597 4734 3714 4339 4676 3968 3752 4664 4828 4147 2597 4019 4036 3973 2800 3771 2692 4124 4444 4769
2 23 32 15 32 30 32 36 26 17 33 30 10 31 4 32 37 22 12 20 28 11 31 16 28 27 25 30 23 33 1 30 8 16 11 18 13 33 35 7 27 19 15 21 28 28 37 8 1 12 29 14 15 33 23 32 4 33 30 12 20 15 29 15 6 9 37 38 13 27 1 35 24 32 19 2 3 34 27 26 32 24 3 35 39 24 24 22 12 10 21 5 24 28 5 8 11 32 37 2 32 38 28 29 30 25 6 38 18 26 11 4 16 10 17 3 30 27 8 2 37 39 8 31 0 3948 3037 3225 3541 3664 3413 2728 15 2780 4306 4800 4701 3056 2667 4511 3989 3745 3681 4400 4922 3085 4910 2858 4335 4822 3591 3616 2691 3418 4124 2636 3240 3245 3784 3456 4560 3024 4035 2996 2975 2992 3926 2791 3538 3415 3309 4929 3018 3399 3966 4623 4842 4832 3251 2649 2751 4143 4997 2878 4442 3968 3417 3949 4481 3244 2655 4991 4335 3157 4670 3764 3605 3876 4623 4583 3057 3740 4452 2606 2936 3865 3727 2599 2690 3528 4291 4014 3772 3723 2707 4094 2974 4017 2759 3336 3137 4669 3121 3376 4240 2589 3555 3677 3749 4083 4461 3413 4456 4591 4163 4250 4995 4182 2605 4125 2845 3116 3164 2990 4920 3789 3023 3363 3000 3099
4806 3520 3960 2935 4950 3377 3697 4288 4788 4363 4287 4540 4168 4144 2842 2690 3091 2946 4582 2542 3732 4630 4201 3151 3906 3389 2684 3591 4505 3530 4366 3674 4623 2803 2680 2774 3175 4611 3642 4577 5 4540 3550 4298 3100 4554 2728 3917 4325 4240 3762 3638 3668 2722 3108 4713 4823 2782 4021 3799 3271 2786 4422 3829 3510 2508 2839 4608 4974 4504 3040 3337 3266 3610 2616 3816 3143 3382 2831 4896 3702 4025 2969 3611 3294 2935 4723 2769 2764 3475 4439 4915 2697 2556 3219 3218 4986 2888 4240 4022 3125 4373 3551 4871 3440 3734 4666 4645 2502 2927 4772 4237 4954 2831 3462 3201 4638 3719 4285 5 2889 4909 4836 3285 3948 0 15 7 9 17 15 29 4 19 19 4 32 32 6 10 34 9 17 38 15 28 39 22 12 39 39 6 28 8 19 25 1 16 15 8 24 23 15 28 4 22 14 2 20 31 21 8 11 31 12 3 22 19 1 4 3 15 13 7 26 31 14 20 30 39 20 38 14 29 31 3 27 31 20 32 31 25 17 32 6 24 8 25 3 11 2 33 36 39 29 12 8 12 33 22 35 29 7 21 12 6 4 39 7 10 11 7 6 4 4 3 31 36 9 15 2 23 14 5 21 37 31 4 11 31
3809 4654 3917 4907 3692 4301 4395 4564 3280 3704 3524 3285 3095 4207 3063 4621 2623 4600 2958 4690 3601 3791 3699 4250 4979 3657 4559 4144 3832 3210 3842 3788 3909 4704 4081 4423 3396 2568 4448 2673 3105 4307 2853 4602 4448 4791 3775 2704 4532 4846 2648 4403 3921 4176 4715 4423 2796 4322 3789 2816 3844 3172 2624 2897 4917 2539 3045 2707 2567 2536 3493 3448 3378 4351 2694 2684 2738 3872 4777 4799 4126 4339 3505 4693 4667 2546 2867 3216 3004 4328 3620 3315 2792 4634 4628 4853 3044 3269 2652 4972 4316 3736 4709 4017 2932 4158 4739 4041 4195 3321 8 4378 4262 4333 3206 4797 4317 2991 4477 4006 2907 4306 4651 3542 3037 6 0 19 20 5 17 12 9 11 16 13 22 39 3 13 20 7 14 6 4 22 21 31 14 24 21 30 8 39 32 18 4 36 38 16 32 28 37 38 37 34 10 15 2 12 9 34 11 12 28 8 28 34 36 22 20 25 26 8 26 9 19 6 23 26 17 3 30 3 35 8 11 26 11 36 32 15 20 33 17 37 10 19 29 11 16 24 37 35 11 12 12 28 5 8 36 26 36 10 37 4 14 30 28 21 6 22 7 30 34 36 18 12 29 21 16 4 15 29 27 32 29 3 18 17
2523 3876 3013 4229 4205 4945 4092 4502 4531 4115 2999 2541 3869 4508 3626 4441 2642 3024 4662 2941 3703 3901 4542 3492 2526 3793 4010 3477 2676 3318 4668 3786 4966 4950 2716 4598 4971 4710 3494 4232 4347 3047 3658 3961 4653 4351 4443 2865 4324 3322 4344 2506 2771 4311 4914 3424 3146 3746 4000 4676 3754 4612 3373 4234 3620 2874 2647 4421 3205 3828 2960 4046 3543 4748 2979 3524 4314 4632 2564 3462 4077 3676 4969 2729 2560 3375 4800 2697 2793 3349 2605 2926 3143 4253 3617 3543 4699 3986 3422 3082 3700 4921 4749 4502 3641 4977 3542 2791 2590 4021 3123 3061 4369 3073 3854 3700 2999 3097 3951 3987 4505 4260 4889 4376 3225 20 2 0 35 39 5 20 3 19 17 11 12 39 25 17 14 35 28 34 12 4 30 12 36 20 2 17 11 27 26 34 4 35 26 13 12 23 35 7 14 24 37 31 14 19 9 2 30 31 37 32 21 5 23 25 11 16 36 14 33 15 1 38 4 33 34 37 21 36 28 7 4 26 4 6 26 18 34 12 37 30 4 27 19 23 29 8 17 28 15 28 26 20 14 39 30 23 31 8 27 19 30 22 2 8 38 33 10 1 38 12 28 10 34 28 37 33 32 18 18 4 32 9 10 38
3246 3323 4543 2584 2501 3280 2933 4498 3703 4720 3853 4646 3702 3661 3630 4247 4939 4237 2915 4928 3807 4031 3052 4361 4047 3290 4752 4359 4009 2844 2641 3463 2506 2567 4631 3104 4542 4310 3617 3714 3021 2975 4974 4691 4056 3533 3552 2607 4963 3799 4263 4797 4857 3458 4734 3719 3634 3497 4487 3964 4042 3354 4197 3655 3545 4373 3811 3561 4575 4012 3397 4097 4184 3369 4361 3924 3823 3843 3771 2816 3360 3273 4030 4111 4280 3650 3385 2596 4901 3708 4039 3272 4880 3081 3916 4692 4523 4667 3929 4763 5 2960 4328 2614 2933 3347 4984 3657 3426 4667 3539 4896 2873 3983 2920 2667 3103 3892 2773 3227 4486 2819 4563 4218 3541 5 4 14 0 17 38 34 21 22 14 2 20 29 16 8 27 35 14 11 35 22 20 24 36 30 17 5 25 33 34 10 15 21 1 25 26 38 2 16 28 9 10 27 13 6 2 26 35 4 3 14 3 15 13 33 3 39 38 2 38 31 24 34 18 26 17 10 24 12 24 28 9 37 25 38 2 12 22 15 29 19 3 19 4 38 33 38 39 18 12 2 32 38 35 11 18 28 36 32 14 38 34 14 6 30 22 21 21 4 39 9 8 6 16 25 29 39 10 25 4 18 13 39 29 12
2780 2705 4832 4980 3988 4528 2585 2949 4280 3138 3243 3579 2551 3062 2992 4174 2674 3617 3049 2862 4089 2920 2882 3203 2552 3392 3604 3984 4606 4682 4039 3833 3830 2844 4720 2763 4072 4525 3217 4646 3597 2861 2840 4905 2945 3499 4299 3201 3625 3289 4240 4891 3579 2962 3005 4059 2597 2960 4496 3630 4018 3574 4280 3464 3961 2677 2838 3958 4638 2978 2539 3233 3870 4579 3103 2717 4957 3306 2505 4228 3075 3294 4682 3070 2512 4762 3452 3583 3316 4709 4845 3858 3312 3635 3367 3700 4119 3025 4067 3853 2874 4772 2884 4628 2514 3149 3641 4560 3879 4925 2698 3851 3955 4969 4885 4065 4725 2943 2816 4359 4386 3099 4406 3253 3664 27 36 1 18 0 13 13 34 33 9 15 33 4 33 15 7 20 18 10 36 20 21 17 16 39 38 2 31 8 36 39 37 15 4 12 23 13 33 20 9 7 10 26 32 4 4 20 4 11 2 28 21 16 22 28 35 29 1 6 37 12 4 6 35 34 6 9 28 20 22 4 23 2 23 10 27 27 7 34 39 24 36 10 36 29 15 10 29 39 6 8 35 30 14 25 34 1 33 8 36 6 3 33 25 31 36 10 11 31 20 11 27 17 6 16 4 16 33 32 7 4 5 27 36 9
2597 4656 4577 4582 3143 3763 2511 4422 4871 3683 3150 3928 4667 2855 3107 2555 4732 4573 4831 3522 3408 3493 4099 3913 4414 4625 4090 3622 4446 4444 2988 4397 4266 4327 4704 3662 4924 3683 4316 3234 4071 4186 3492 4393 3714 3845 3050 3775 4567 3073 4480 4669 3027 3158 2648 4668 4639 4882 3816 3817 4870 4822 3483 3525 4250 4174 4251 4505 2620 2973 4128 3974 4449 4612 2912 4151 3624 3483 2999 12 2971 4551 3474 4392 3942 2846 4782 3550 2950 3254 3692 3826 3296 3683 2705 2512 4920 4382 3321 3047 3533 4404 4813 3392 3274 4625 3038 3298 2594 3630 4710 3670 2871 3754 2636 4769 4178 4010 3489 2684 4013 3175 2892 3901 3413 30 4 38 5 22 0 28 4 34 25 27 39 31 12 7 20 17 19 14 20 10 4 21 11 36 30 16 38 14 14 11 14 30 3 29 21 33 35 5 2 21 33 33 19 33 19 34 36 38 13 26 16 15 14 5 32 12 9 13 10 36 34 10 20 22 23 27 11 26 32 2 38 36 35 30 10 16 18 18 20 5 11 24 38 16 23 10 4 1 32 3 11 33 21 14 32 38 28 35 24 27 19 30 16 4 8 27 31 4 16 16 11 28 32 17 25 29 16 36 21 25 11 6 1 24
4831 4837 2595 4676 2842 3101 2542 2856 4348 2813 2809 3662 3268 3106 3808 2785 4324 4394 3462 3119 3421 4729 3593 3923 4897 4694 4497 4576 4322 3181 3224 2619 2701 2829 2726 4850 4833 4297 4356 2987 4236 2876 2846 3624 4340 4485 4427 4871 2646 3273 3642 3210 2566 3838 3246 2895 3836 3986 3408 3040 3966 3972 2805 3484 4204 2679 3368 4793 3106 8 2663 3414 4122 4622 3434 3991 3626 4780 4030 3961 3043 2780 4111 3038 4151 3054 4595 3802 4660 3566 4180 2896 4727 3896 3601 4401 3287 4588 4704 4179 3578 2556 2830 4798 2854 3411 2894 3477 4697 2599 2710 3885 4443 4843 4203 3705 3194 2528 3523 4470 3330 3247 3234 3878 2728 35 29 8 1 13 23 0 23 9 16 11 9 24 31 20 35 18 21 14 27 26 27 18 1 6 15 32 37 38 9 11 4 22 4 3 27 9 16 17 5 25 10 12 35 18 38 29 19 30 22 32 14 24 17 16 3 38 31 3 29 34 15 29 25 28 38 19 25 33 3 11 4 21 10 12 9 19 26 24 9 22 31 23 36 17 33 26 15 7 37 30 29 39 1 24 3 28 24 9 16 25 39 3 26 32 1 5 35 6 28 1 14 32 8 20 29 34 9 3 25 30 27 34 36 10
2693 4655 4654 3294 3052 2751 3026 4073 2593 3834 2617 3577 3137 3789 2630 4450 4251 3695 4000 3781 4306 4196 3624 3489 4636 4540 4381 3912 3529 2767 4323 3831 4119 2616 2952 2686 4712 3742 4826 4645 3560 3783 3049 3964 4344 3601 3152 4505 4212 3172 2745 3081 4778 3459 3955 3386 3500 3602 4181 3036 4141 4769 3733 2703 3826 3918 2774 4450 3369 2888 3380 4825 3622 4415 4496 2691 4806 3357 3839 3065 4087 4200 3779 4664 3277 4282 2929 4322 3791 2601 2552 4418 4296 2848 3583 4011 3051 2957 4523 3454 3071 3677 3461 4883 4441 4925 4079 2852 4087 2704 10 3299 3955 3440 4155 2534 3288 2886 4441 3242 3757 4090 4053 3261 15 33 30 23 6 19 13 5 0 5 37 29 10 26 18 16 7 10 9 13 19 19 9 32 25 8 21 25 28 15 31 23 24 38 25 10 16 4 7 19 21 23 39 34 19 37 15 18 8 16 32 29 1 7 3 27 12 30 17 23 33 30 5 32 3 11 18 12 34 21 25 23 23 21 11 5 4 35 15 25 20 26 14 23 3 36 7 10 16 33 26 11 37 4 2 14 39 29 9 8 4 29 7 35 3 8 36 25 30 39 12 27 6 4 16 21 1 33 24 21 3 39 10 1 27 27
2861 4846 3006 4760 4082 4132 4555 2735 3055 2572 4509 4773 3340 3261 2519 4002 4465 3817 2850 3073 2695 4871 2548 2795 3889 3089 2943 3139 2894 3091 3323 4953 4479 4154 3135 4621 4677 3136 3623 4706 4846 4754 4052 3701 2932 2557 4339 4038 3836 4919 3795 4900 3972 2918 4201 3309 4972 4753 4122 4985 4789 4109 3531 4079 3798 2638 2931 3458 4528 2943 3459 4440 2734 4968 4109 4740 3015 2583 4699 2764 2781 3763 3268 4602 3758 3368 4179 3795 4959 4752 4672 4448 4467 4694 2556 3925 3829 3611 4266 4738 4586 4048 4759 4927 3257 3060 3450 3063 9 3598 4320 3006 4382 3867 4337 4358 3339 3171 3431 4867 3350 4319 2670 2598 2780 35 19 2 38 17 35 5 23 0 3 31 17 19 1 5 37 21 10 14 13 33 2 39 6 21 23 12 6 3 28 22 37 26 30 39 25 24 12 2 17 17 19 6 16 2 8 15 2 15 15 25 18 12 36 3 16 2 16 38 28 29 5 9 35 1 20 35 28 18 36 3 10 4 16 21 5 14 18 19 19 31 10 6 24 13 3 29 30 27 33 4 8 23 11 30 33 32 33 23 39 22 14 23 9 24 10 32 21 28 39 26 30 14 10 34 33 32 10 4 6 17 29 29 21 24
3003 2811 4389 2530 4778 3316 4327 3614 4287 4323 2702 3286 4927 4789 3872 4382 4413 4616 4770 3112 3419 2564 2672 4582 3519 3743 4790 3409 4350 4446 4182 4441 3186 4787 2554 3820 4580 3107 3247 3554 3737 3588 3075 2984 3045 2675 4902 4429 2661 4561 3264 3120 4237 4575 3797 3551 2565 3363 2637 3670 3923 3346 3034 3635 3406 2890 3619 4134 4603 3311 3232 4195 4341 4359 4896 3391 4743 3180 4887 4725 2658 4091 4444 4698 3276 11 3982 4104 2725 2890 3019 4459 3856 4591 4405 3320 3669 3770 4224 3255 4597 3730 2708 4412 4438 4139 4557 2777 2761 4700 3689 2581 2754 4784 4541 3141 2791 3642 3371 4933 4087 3050 3692 4611 4306 37 29 15 14 5 36 12 1 25 0 13 33 17 1 36 10 3 29 20 20 26 15 7 1 32 13 7 23 24 14 9 1 25 34 7 30 17 6 21 14 3 12 39 30 38 18 32 38 27 29 2 17 36 28 15 11 17 9 24 8 20 9 27 30 34 4 29 27 5 13 33 1 2 6 28 17 8 19 15 24 37 15 34 5 7 14 38 25 11 12 9 35 38 3 22 22 22 39 7 28 6 3 12 14 31 12 35 5 13 24 30 28 2 12 1 8 7 21 25 34 39 26 5 35 39
3226 3225 4804 3906 2970 4911 3588 4806 3763 3058 2843 4128 3906 4324 4718 4625 4672 4881 4824 3951 3246 2986 4597 4274 2649 3965 3522 3875 3062 4810 3078 4138 2772 3184 3276 3504 4843 3489 2522 3985 4567 4284 3169 3512 2993 4142 4931 3792 4060 4293 3782 2562 4375 3555 4930 4186 2989 4237 4143 3468 4644 2788 2729 2640 3325 4458 4261 3336 3931 4407 4259 4863 3039 3118 3836 4201 3935 3544 3467 2673 2811 3490 3846 3670 3625 4255 2504 4028 4482 4058 2757 3085 3128 3850 2726 2548 3390 4882 2894 4498 2840 4295 4030 4931 3214 4495 4193 4739 4800 3637 4909 3102 4888 4323 3283 2684 2517 3940 3981 4531 2674 3777 3887 3955 4800 20 27 9 32 37 37 21 35 4 33 0 37 7 35 22 28 21 29 31 24 4 28 3 3 33 10 14 27 5 4 19 25 13 3 35 19 31 18 39 6 24 19 13 35 16 24 6 14 39 33 7 20 1 20 4 9 18 36 20 20 23 7 27 34 14 13 5 32 7 25 31 36 28 18 5 16 12 18 35 15 26 26 18 34 6 20 3 15 9 6 4 22 11 33 6 25 14 5 16 19 10 32 25 12 10 15 28 10 3 11 32 6 21 39 4 18 24 22 23 35 36 20 26 28 38
4915 2943 2821 2555 3345 4811 2501 4847 3648 3157 3733 2735 3430 4164 4083 4185 3092 3004 2750 2654 3248 3877 4054 4768 4037 4131 4434 4117 3808 4489 3753 3535 4328 4328 3493 2526 4928 4004 4373 3661 4654 4747 4557 3599 4625 3300 3480 4578 4529 3480 4828 2721 3259 2561 4526 4055 3149 4700 4750 4584 4734 4626 3708 4755 3440 3633 3197 2617 4302 4936 4384 3908 3991 4070 3952 4302 3169 2948 4085 3140 2838 3988 4957 4567 2748 3697 3252 4949 4625 3297 4606 2751 3919 3806 3880 3906 3289 2937 4634 4309 4072 3543 4208 4427 4450 4596 3725 4732 3758 2956 3133 3233 3384 4075 3040 4584 3193 4977 2613 9 3910 3516 3111 4853 4701 32 33 4 10 2 21 24 7 8 22 37 0 14 8 34 3 18 8 14 23 31 32 4 36 15 39 11 26 6 19 2 15 22 36 5 15 16 33 24 19 26 1 34 36 29 21 1 11 32 19 28 19 34 13 19 10 22 16 33 6 8 18 24 18 24 26 12 32 38 12 39 25 18 17 9 16 24 32 12 16 24 26 36 13 25 37 31 15 39 30 39 21 19 3 15 29 32 22 13 9 35 12 25 20 11 10 12 3 27 35 21 36 27 26 11 9 17 7 33 35 16 38 31 13 17
3565 4447 4438 3627 2545 3194 2933 2973 4045 3592 3069 3223 4484 8 3987 2502 3111 2522 3260 3211 3138 4052 3604 3159 4842 4833 2581 3854 3028 4713 4446 3967 3800 4775 2653 4649 4669 3534 4626 3598 2743 3000 3763 2761 4931 4093 3678 2806 2982 3926 2618 3501 2996 3202 3591 2997 4944 2771 4179 3332 3406 3098 3266 4056 3734 4091 3551 3645 4842 3895 4847 3049 4488 4692 4055 4357 4033 2950 2833 4962 2772 4456 4528 4000 2633 4624 3102 2598 4161 2939 4125 3562 7 3974 3109 3291 2600 2642 3012 4191 3527 3116 3087 4743 4774 3288 4080 2653 4885 4971 2879 2585 4713 4210 3176 2536 4114 3988 3306 2689 4337 3467 3360 4751 3056 15 11 4 33 18 35 11 3 31 39 33 29 0 25 22 36 25 6 10 29 24 36 26 8 24 5 19 22 24 27 8 37 31 28 10 20 5 24 16 18 9 38 3 20 29 32 10 24 5 13 15 6 14 37 9 29 10 1 20 13 25 24 19 29 25 19 32 7 28 6 18 33 6 34 35 10 4 34 34 20 34 26 15 2 8 34 13 10 32 27 39 21 8 22 37 2 10 11 6 35 19 28 24 2 11 1 24 6 3 17 21 30 24 28 38 6 18 37 39 26 12 1 36 26 36
2656 4790 3032 3666 2833 2909 4239 4153 4905 2760 2905 4851 4018 3629 4261 4382 3824 3990 4887 4068 3162 2768 4918 4483 4803 4496 4481 3287 2890 4299 3622 3744 3886 3208 3677 3841 3433 4984 3162 4189 4772 4333 2952 3880 2698 4775 4196 4857 4887 4332 2691 4867 3531 4196 3032 4023 4758 3026 2568 2590 3662 4947 4529 2746 3895 2544 4106 3627 4643 2745 2578 3837 3275 2850 2835 4759 3805 3942 4110 2738 2621 4727 4383 4782 4079 4805 2661 3078 4767 3388 3026 3224 3547 4384 4327 4755 3547 3875 4156 4665 3230 2835 4564 4097 3726 3482 3122 2868 2842 4143 3419 3701 4937 4233 4523 2965 3599 4508 4450 2861 3332 2703 4525 4913 2667 1 2 38 27 21 36 3 24 12 28 7 9 13 0 17 13 25 15 9 16 25 24 10 34 21 26 6 1 32 19 32 3 27 38 30 13 7 6 16 1 26 6 10 6 22 28 34 24 10 27 28 17 18 15 4 38 31 29 8 26 27 30 4 12 20 8 36 16 32 39 16 35 2 25 29 16 25 32 12 33 25 31 39 6 3 2 26 14 29 35 16 7 19 14 23 25 39 1 17 12 27 31 2 30 24 29 35 27 25 36 36 3 5 37 22 13 36 26 16 34 39 18 3 19 15
3180 4472 3393 4440 3163 4071 2699 4801 3822 3173 2879 4404 4106 3507 3933 4182 4631 3940 4355 4412 4687 2574 2653 4710 4153 4998 4411 3327 3636 3829 4595 4173 3688 3605 2713 2766 4123 4103 4920 3965 12 3033 3859 4738 2816 3479 2969 4597 4545 4617 3845 4958 3161 4623 4388 4218 3079 2791 3571 2559 4494 2650 3915 2574 4981 3004 3919 2552 4298 4795 4426 3731 4029 3589 4481 4862 4492 3835 3839 4523 2574 3702 2970 3553 4626 3702 4326 3651 4903 4987 4045 3006 4350 2806 2641 4356 3235 4815 3013 4662 3973 2590 3326 3292 4086 2546 4857 4448 4925 4005 3813 4367 4795 3622 2912 2584 3297 3580 2648 3724 2694 4718 3336 2808 4511 38 3 17 30 28 23 20 3 14 15 10 6 36 14 0 29 22 26 37 24 29 18 27 26 30 32 23 14 16 2 22 9 12 17 5 30 7 17 32 26 23 31 9 34 15 10 19 8 2 34 34 24 19 12 31 38 21 22 21 25 38 12 27 2 39 33 16 25 36 16 33 26 3 8 6 16 38 1 20 12 8 32 23 4 18 12 33 33 20 6 13 5 3 16 6 22 31 36 27 11 31 32 32 19 15 5 23 16 2 32 18 23 38 12 14 37 8 37 3 4 34 11 24 25 34
4961 3223 4384 2955 2572 3376 3945 3777 2790 4493 4718 3700 4836 3686 3327 3519 4997 4951 4494 2646 3911 3508 4903 4601 3138 4243 3360 3266 2799 3922 2993 3468 4005 3465 3725 4495 2538 14 4233 4658 3453 4955 3960 2810 4801 3712 2863 2942 3653 3504 4873 3405 4464 3668 3963 2949 4078 4604 3546 2666 3212 4768 4849 2536 3004 3305 3951 4050 3645 3179 3557 2910 2724 2718 4330 4389 3170 3911 2747 4186 3850 3713 2898 3969 4438 4930 3389 3831 4457 2829 2637 4262 4731 2914 2716 4040 4321 4405 4544 3437 4082 2745 2998 4156 2752 3487 4438 4674 3744 3781 3008 4293 3510 4012 3813 3076 2804 4560 3184 4131 3644 3432 4799 4716 3989 8 25 35 11 1 15 32 31 26 6 6 8 25 8 39 0 25 17 16 34 24 36 29 23 14 31 7 14 27 17 20 17 27 17 29 19 3 18 37 6 1 11 31 3 17 24 32 11 26 26 20 10 23 19 18 9 37 32 37 26 34 10 19 15 8 30 7 29 23 38 18 37 20 31 4 39 3 36 34 33 15 9 12 13 10 23 24 24 18 15 17 37 35 11 14 5 13 6 14 20 17 17 4 14 28 18 11 37 39 1 24 5 32 25 38 39 27 23 36 8 15 29 15 36 8
3727 4836 2749 3907 4536 3216 4127 3597 3724 3823 2626 2830 4469 3044 4910 3372 3939 3492 4989 4765 3670 4817 2798 4643 3313 4985 2789 3973 4094 3242 4365 3441 3010 4560 4731 3206 4967 2719 4629 2511 4653 2769 3575 4485 2586 2751 3444 3725 4178 2919 2811 4712 3742 4772 2561 4468 4354 3469 4781 4301 3924 4917 4065 3783 4776 4666 2862 4221 4693 2595 3089 3355 3424 3370 3614 4369 4980 4766 3327 2640 4444 4403 4128 3024 3100 3451 3708 3488 3503 3629 3727 3833 3864 4555 4434 3608 4170 3202 4594 4856 4321 2994 4324 3568 4578 4027 4684 4406 3583 4936 4518 3214 3029 2817 4338 3107 4059 2729 3290 3252 3131 3294 4411 3288 3745 35 16 35 26 25 12 6 28 9 20 30 9 27 23 20 39 0 25 3 13 12 19 15 32 3 28 5 20 26 23 17 3 29 30 10 37 14 10 25 3 30 5 22 23 1 39 31 21 25 23 37 39 20 6 1 33 14 13 39 20 29 35 8 12 30 21 10 21 7 7 29 33 4 37 30 27 35 34 1 34 8 38 6 8 27 37 27 12 30 20 25 19 9 37 27 28 30 27 24 10 2 7 15 7 21 19 3 33 30 16 13 34 27 39 9 36 36 35 6 24 27 8 15 1 28
4609 2721 4424 4964 4819 2819 4681 4526 2840 4747 4416 4490 4727 2509 4613 3731 3215 4679 3452 2907 4725 2516 4435 3109 2622 2637 3839 4121 4467 4499 3964 4799 3056 3395 2796 3109 3533 2922 4092 4634 3571 4001 3711 3982 3416 4681 3344 2788 3872 3332 4975 4260 3842 4019 4103 3100 3630 3204 4520 4849 3677 3302 4602 4334 2631 4637 4212 2740 4989 3897 4985 4735 4044 3812 4909 2935 2984 4874 4922 2919 3126 3808 3181 3051 3111 3179 4398 4391 3486 4398 4463 4453 4844 3996 4697 4615 4298 4520 3689 2687 4955 2777 2581 4250 4560 4271 4329 3816 3846 3108 4037 3145 2778 4530 3917 3052 4865 3533 4197 3753 4061 3209 4734 3959 3681 23 20 36 13 8 26 34 11 31 14 22 14 14 33 21 34 38 0 22 17 7 22 4 16 35 16 23 22 7 29 26 13 22 32 6 9 9 3 8 12 15 32 31 16 8 3 11 7 7 31 3 34 36 18 16 28 36 10 2 39 23 15 4 2 13 17 31 4 8 23 20 21 17 6 2 34 1 22 19 31 22 8 29 26 31 26 19 33 28 36 4 14 10 5 24 32 11 34 36 18 6 24 34 8 13 2 39 13 32 1 7 30 11 39 1 22 37 19 5 24 37 5 27 32 37
4149 3340 4742 3495 4937 2914 4056 3279 2734 2908 3235 4654 3727 4583 3718 3782 3797 4054 4755 2621 4202 4739 3134 4532 2865 4369 3450 3730 3879 3838 2864 4067 4013 4177 4424 4989 3337 3366 3342 3053 3620 4651 2817 2519 2956 3573 3243 4323 4311 4360 4146 3542 3771 4234 3437 3212 3223 4818 3894 4535 4685 4822 4319 4674 4691 3557 3397 4481 4462 3847 4342 3546 3006 3719 4307 2615 4998 3368 3937 3302 2955 2892 3650 3291 2676 4759 2954 4123 3984 4999 3292 2721 3898 2785 4063 4576 3063 2809 3052 3532 2977 3157 3510 3596 3522 3540 3026 3863 2522 2870 3117 3862 4163 4027 2792 4065 4425 2824 4316 3411 3724 3077 2937 3251 4400 4 2 19 37 37 3 6 16 18 29 7 2 7 29 4 14 32 13 0 17 12 15 35 33 15 5 36 13 12 6 18 27 27 25 4 17 24 38 13 37 9 18 37 22 36 39 8 6 25 23 21 7 1 15 29 23 14 26 7 12 26 20 22 13 21 18 38 21 17 25 30 19 30 21 3 39 32 24 15 6 2 7 11 25 19 34 1 6 3 13 35 38 26 23 7 34 21 29 25 39 4 18 2 13 26 3 36 14 29 17 33 31 32 30 31 32 39 26 8 1 19 4 2 20 19
4829 3630 2773 3111 4237 2595 4472 4933 4376 3715 2736 4043 3193 3073 2655 4939 4007 3064 3707 2576 4452 13 4064 4017 3122 2788 4605 2789 4997 3735 4926 3882 4964 4403 3016 4876 4253 11 3348 2884 3929 3850 4025 4155 4416 3243 2656 10 3916 3266 3739 4475 4396 3505 2961 3258 4442 4620 3502 2526 3291 4478 3721 5 4417 2502 4327 2762 2536 3010 4669 4050 2971 3768 4758 4259 2840 4546 4980 3352 2911 3146 3809 4014 4504 4045 4891 2971 3771 2787 4083 2566 2842 3523 4438 3615 3706 18 2748 4843 3179 4947 3846 4955 4637 4527 3904 3162 3709 4563 3456 4075 3323 4206 2575 3858 4192 2500 4921 3148 3621 3456 3901 4933 4922 27 38 2 37 7 7 1 14 6 16 6 34 38 19 2 39 26 12 31 0 12 14 15 30 6 37 17 36 21 31 13 30 9 9 9 37 39 38 21 33 1 24 22 20 8 25 30 16 14 23 10 31 13 19 5 37 34 15 37 3 39 19 1 32 19 4 6 23 15 24 25 16 5 37 9 7 17 2 2 6 15 12 14 32 6 29 21 9 35 8 23 30 17 38 8 31 14 28 3 14 5 24 16 10 23 6 25 39 12 36 14 28 33 8 34 24 34 8 34 24 10 21 1 19 24
2560 3694 3403 4040 2878 4290 4175 4078 3446 3765 2618 3357 4589 4510 2607 3653 3523 2959 4294 3374 4293 2536 4151 3341 2601 4369 3581 4549 4023 4688 4257 2631 4381 3289 3358 4341 4554 3958 3204 4776 3619 3034 4871 2619 3625 4940 4984 2924 3369 4863 4874 4531 4178 3619 3236 2753 3870 3837 4783 2510 3808 4082 4260 4942 13 4588 3357 3283 3358 4714 4740 4963 4263 4054 3914 4415 3273 2916 4500 3072 3675 4665 2931 2759 4324 2963 2569 3915 2711 4976 17 4678 2767 4739 3929 4968 3419 3772 3780 4040 4273 4684 4301 3367 3137 3449 3310 2959 3500 4845 2510 4388 3292 4383 3315 3702 3081 3816 2574 4395 2683 3595 3470 2666 3085 38 23 15 37 15 37 4 30 22 29 6 36 15 31 29 29 21 5 27 13 0 19 30 12 10 9 33 32 7 13 14 15 8 24 17 8 15 6 23 11 14 6 26 29 25 2 25 2 36 13 2 3 20 38 12 29 27 6 29 21 27 3 32 31 20 20 20 13 15 16 23 9 13 10 38 12 37 24 11 39 28 24 32 14 33 5 27 19 4 2 14 14 30 30 31 31 22 7 16 19 22 2 18 21 37 22 32 7 39 5 15 8 28 8 7 15 29 33 7 23 22 11 18 34 8
4784 3054 4141 3712 4762 4511 3962 4541 2924 4387 2650 3760 3379 3353 3004 3323 3989 3350 3235 4167 3000 3346 3595 2980 3535 3391 3748 4453 3567 4996 3401 3438 2802 4639 2737 4981 3573 4226 3001 3623 2662 4379 3175 3924 3517 2980 3417 11 2616 3174 4048 3115 3633 4620 3300 4860 2682 4883 4793 3127 3652 3409 3596 3802 3645 3025 3375 3120 2750 4967 4322 3895 4831 4618 4574 4075 3101 4608 4074 4616 4595 4737 3216 2896 3127 3465 3187 4401 4743 4928 3077 3824 3084 3238 3805 4271 4739 2611 3750 3501 3944 2880 4586 4528 3902 2657 4621 3215 2616 4018 3399 3150 3619 3096 2541 2652 3625 4302 4600 4212 2737 4351 3180 4280 4910 25 39 3 24 11 36 19 7 30 37 33 5 15 38 12 31 20 1 6 18 12 0 39 19 38 17 11 5 20 35 13 22 32 39 37 16 4 21 8 34 9 6 39 18 39 19 32 23 37 13 11 29 13 14 10 10 14 15 33 7 4 29 19 14 33 24 18 22 33 12 20 10 21 3 38 2 5 11 34 16 1 13 10 9 28 26 1 22 18 3 28 8 20 27 34 2 11 30 2 30 22 38 10 25 31 25 25 20 6 6 16 24 16 21 28 36 33 9 34 26 6 23 39 21 31
3163 4212 3671 3878 4753 3545 2997 2559 4604 3470 2899 2913 3155 4926 2887 4253 3566 3136 3520 4128 3149 2712 3418 4564 3094 4403 4798 3366 4301 3781 3680 3317 4158 2707 2943 3174 4224 3398 3308 4575 3898 2865 3350 4431 3079 4420 3988 3361 3173 3762 4258 3793 4424 3320 4254 3033 3771 3956 6 4353 4856 2592 3380 2774 3116 4203 2562 2626 4608 4855 3352 3464 4794 4009 4900 4975 4650 2818 3495 2945 10 3577 4561 4305 3341 2707 3324 3084 4591 3112 3294 4175 3285 4788 2891 4230 6 2760 3156 4283 3893 3644 4671 2816 3217 4717 3462 3993 4386 4686 3723 4225 3407 3253 4982 3281 2894 4056 4518 3275 4026 4311 2542 4064 2858 18 34 8 2 14 29 21 36 2 27 21 25 7 13 37 38 26 3 11 9 12 39 0 12 7 38 36 32 25 1 11 11 5 20 15 8 13 14 7 38 20 23 38 1 22 22 35 35 24 16 6 10 27 38 30 33 13 5 33 34 24 33 24 12 29 32 38 29 23 25 13 5 22 1 7 22 22 6 9 26 30 39 14 19 4 8 37 19 27 25 9 4 3 33 31 14 3 23 27 18 4 11 18 18 5 12 17 29 37 18 16 23 38 4 15 35 27 6 30 31 18 33 39 29 34
4033 3675 3481 3069 3743 3827 3272 3236 4425 4469 4096 3660 4824 3663 4194 4457 2717 2840 4266 3674 4288 3938 3073 3344 4402 4652 4705 2686 4697 4241 3806 3845 3088 3924 4153 3917 3021 2657 3501 3818 4255 3774 4991 2874 4251 4362 4615 3424 4329 3015 3616 2624 4953 3330 2822 3491 3139 4228 3943 3773 2656 2903 4348 3248 3738 3684 3259 3462 3950 2869 3739 2680 3303 2788 4227 4677 3237 3078 3229 3545 3162 4653 3531 3533 3428 2534 3937 3789 4125 2789 3138 4956 3162 3047 4086 3150 3411 3840 4860 2794 3708 4975 5 3987 2522 2881 3867 2864 2517 4913 4347 4877 3700 4402 3993 4732 4033 4933 2620 4544 3587 4800 2919 3856 4335 25 8 15 18 20 6 38 3 37 28 25 17 26 35 37 25 27 30 20 30 39 33 38 0 16 29 4 6 22 14 22 15 3 29 3 14 12 7 39 8 24 17 32 8 14 32 32 12 31 17 22 29 34 6 24 1 15 8 17 12 7 4 34 21 17 38 8 28 20 14 23 14 24 9 7 25 31 37 26 22 12 9 26 15 33 30 29 37 3 31 3 27 32 31 14 4 34 14 12 22 35 19 13 12 5 29 18 26 7 30 12 30 6 25 30 34 28 33 12 38 17 35 1 26 26
3370 4991 4836 2680 2909 4134 3219 2947 2859 4878 4100 3743 4358 2680 4974 3775 4998 2520 3378 2772 3658 2737 3539 3811 4544 3715 3628 3413 2835 4800 3311 3350 4615 4114 4233 3693 3331 4510 4820 3438 2756 4879 4777 4241 4745 4884 8 4689 3934 4880 3157 4210 2607 2680 3812 4780 2679 4229 2913 4744 4256 2756 4564 3814 4326 4354 3719 3611 3416 4003 2777 4881 3877 2647 4152 3401 3237 3078 4536 4775 3273 3195 3094 4976 2983 4048 4240 2808 3182 3105 4747 3484 3103 4916 4643 4095 4210 2974 2777 4041 5 4266 4974 3454 2515 4619 4287 4877 4165 3093 4220 3464 4690 4458 3821 3166 4339 3638 3463 3184 4727 3367 4877 2504 4822 28 9 27 19 39 34 8 24 31 39 20 28 9 27 28 9 19 24 26 8 14 29 29 10 0 18 15 19 33 22 22 24 23 11 35 16 3 20 9 27 35 14 32 23 34 11 36 38 15 36 17 9 37 6 39 17 32 18 9 32 8 11 5 17 35 25 3 30 35 27 7 9 24 22 36 14 28 21 20 1 33 12 18 22 39 8 28 34 11 1 31 35 25 18 20 20 29 23 34 34 22 35 34 13 3 1 31 26 4 6 21 20 28 1 17 38 22 20 39 33 27 11 3 27 21
3174 3598 3644 3538 3041 3365 2897 4882 3754 4672 4142 3418 3294 2992 3473 4094 3143 3177 4592 4231 3686 4895 3120 4623 3708 2514 3730 3548 2976 4655 4816 3469 2752 4445 2812 4243 4142 3873 2635 4524 2991 3952 3029 3940 4505 2941 3560 4499 4202 5 4614 3700 2924 3871 4619 2722 4334 3251 3524 19 4897 4395 2864 4984 4866 2526 3079 3340 3667 4542 4636 2547 3246 2896 3247 2985 2912 3209 4287 3419 2712 3909 3266 4685 2886 4747 4065 3208 3116 4078 4299 3702 4973 3246 3991 4838 3531 4068 3065 4573 3633 4639 4305 4388 4031 4717 4260 2677 2729 4847 3690 4093 3154 4243 2753 2617 4631 4295 3727 3230 3954 3842 4419 3746 3591 10 31 36 18 18 23 30 10 6 32 7 5 5 13 1 27 5 9 33 26 33 7 15 15 39 0 10 25 34 13 30 30 9 24 15 2 5 34 37 11 3 3 26 20 10 20 36 14 28 26 8 3 26 36 26 6 22 13 5 21 13 31 21 2 27 32 39 2 16 14 4 39 15 33 1 9 11 2 29 7 23 8 14 4 32 7 1 8 35 33 32 26 3 15 30 16 25 39 17 15 3 20 3 29 38 24 23 35 34 21 10 8 16 12 13 9 10 6 7 3 35 39 4 27 24
4836 4841 4398 3387 3827 3996 4296 2675 3348 4284 2907 3080 3791 4885 3835 2674 2929 2808 4971 3742 2806 3618 3659 4532 3589 3867 2895 4159 4259 3639 4823 3254 4033 4665 4452 4914 2721 4751 3441 3278 4818 3663 2963 4567 3091 4631 4060 3951 3121 4605 3819 3456 4801 4978 4927 4482 3211 3643 2596 3464 3002 3789 4207 2912 4564 3333 3957 3512 3223 4453 2671 3301 3836 2709 3549 3892 4265 4586 4312 2587 2790 3607 4303 4808 4132 3618 4707 3487 4681 4433 4219 3392 4109 2722 3424 3411 4412 3621 3053 2503 2806 3584 4796 3527 4681 4452 4052 4294 2713 4816 4468 4831 4106 4658 4641 2713 4605 2656 3247 4377 3258 3984 4496 4118 3616 13 28 22 14 4 23 31 6 26 36 21 28 17 6 22 35 34 37 14 25 35 15 14 16 3 37 0 7 23 30 13 23 3 25 7 13 18 36 23 35 30 10 39 38 5 19 18 37 13 37 15 19 21 19 16 29 22 22 20 34 31 29 24 24 34 37 24 12 26 23 29 29 33 24 20 30 28 9 20 15 29 11 11 12 28 25 30 8 17 4 2 9 16 3 4 26 11 11 11 35 21 12 25 24 31 23 28 20 37 25 11 29 9 17 19 38 10 13 32 3 30 18 36 28 10
4682 2724 3883 4827 3175 3710 2841 4479 2537 2665 4161 4066 3162 2840 4057 3621 3013 3242 3349 4752 3170 4986 3729 3377 2583 4179 3808 3201 4387 3281 3252 4070 4388 3348 3652 3754 3357 4356 4414 4687 2895 3439 3307 3720 4205 4952 2958 3808 4765 4514 4781 4526 2831 2539 3111 3691 3418 3461 2912 4960 3532 2716 3233 3756 4358 4299 3763 3922 2836 3220 3717 3539 3108 3814 2979 4438 2572 4273 3910 3735 3468 4143 3261 2775 2755 3308 2829 2936 2753 4616 2555 4246 3228 3899 3139 4827 3664 3656 2589 4868 3152 2579 2507 4767 2649 4203 4353 4019 2551 4274 4413 4149 4506 2859 4161 3427 2768 4265 4502 4603 3864 3489 2999 3896 2691 4 11 19 8 3 32 24 26 7 27 6 36 32 2 9 19 18 23 32 38 35 13 34 39 12 37 24 0 16 38 30 39 2 39 27 9 7 23 3 7 29 7 24 21 30 34 37 36 8 29 8 32 28 8 36 18 19 15 19 19 30 14 18 1 21 4 29 16 30 27 9 4 12 4 29 7 11 30 17 14 23 8 20 15 21 7 2 14 38 38 9 12 8 11 5 15 22 15 2 13 3 21 30 1 25 12 12 34 4 25 28 32 2 35 14 32 19 35 14 7 15 26 5 4 13
3703 3802 4247 4920 4418 2987 3254 2576 4394 4532 3299 4247 4986 4947 3509 4406 2877 4198 2704 3768 3439 4497 2714 3857 2915 4392 3566 3152 4019 4830 4475 4965 3122 4469 3454 2965 3558 3314 2824 2866 4198 4815 4226 2668 2724 4263 4581 4771 3691 3072 3343 2902 4432 3008 3799 2604 3864 3467 4529 4805 4683 3052 4377 3980 4085 4053 2744 2696 4680 3723 4353 4586 3129 4856 3646 4644 4661 4149 4641 3174 2829 3644 4192 4222 3917 2723 4447 3185 2983 3059 3102 4091 3422 4779 4406 4644 4678 9 3341 4478 3988 4027 3647 4528 4763 3687 2934 4803 3274 3707 3515 3328 4623 4310 3022 4883 4753 4017 4609 3173 3811 2596 3728 3107 3418 26 39 39 27 3 33 10 23 5 12 38 19 20 35 25 3 20 2 30 12 3 31 5 1 30 35 32 28 0 16 36 13 26 25 33 15 25 24 39 23 37 26 34 34 28 26 35 27 29 1 4 17 7 39 38 36 17 18 23 39 19 28 22 20 4 13 12 30 18 31 21 16 29 38 28 11 12 33 10 19 15 30 39 8 6 10 12 3 34 13 27 20 29 22 18 4 6 25 13 12 10 31 14 36 17 31 31 3 32 20 21 26 8 12 17 32 25 36 24 25 1 11 6 27 16
3238 4364 3047 3324 3799 2673 4276 4793 3567 3682 3475 4600 4865 4789 4069 3508 2836 19 3077 3939 3308 3880 2540 4097 4478 2796 3476 4944 2586 3975 4715 3126 3547 2946 4301 3228 4548 4354 3641 4370 4753 2849 14 3069 4992 7 4779 4180 3973 4979 4213 3787 4688 4091 4802 2706 3002 2861 2638 3737 3464 2556 4956 3368 4316 2888 4698 4849 2544 4429 3250 2550 4949 3107 2811 4619 2743 3875 4130 4461 2884 3130 4831 4247 3306 2730 4060 4288 3917 3282 4563 2563 3812 4882 3672 4568 4776 4821 3280 4476 3812 3590 3012 2655 4774 4007 4285 3115 4045 2963 4425 2821 4950 4311 3127 2998 2525 4582 4509 4680 3504 11 2687 3899 4124 26 17 17 19 32 31 18 23 37 12 3 38 24 38 38 29 14 9 1 7 28 27 18 7 12 11 26 7 15 0 27 38 16 7 18 30 4 3 19 33 21 38 32 26 34 19 16 35 15 30 1 22 2 17 14 30 6 16 19 2 10 12 28 3 12 36 27 32 14 31 25 22 10 34 2 6 17 28 37 28 26 3 18 16 20 9 23 33 32 9 38 6 7 35 31 34 14 27 15 38 30 16 38 5 27 37 3 21 22 18 20 30 23 5 5 19 6 20 12 32 7 8 34 17 21
4361 2628 3910 2579 4143 3704 2938 2909 4799 2620 3006 4897 3562 3078 4226 3260 2702 3154 4959 3215 4012 4718 2767 4719 4830 3652 2744 4666 4822 4733 4182 3896 3497 4244 2982 3511 4600 2814 3818 3892 3230 2604 3373 4116 4521 2939 4880 2624 4562 3302 4663 4241 4082 3656 3518 4613 2871 3638 4357 3251 4005 2829 4026 4563 3881 3654 4101 4249 4594 3451 4606 3954 4550 4181 4182 2579 3202 2757 3983 4573 4165 2805 4725 3745 2903 4112 4886 2891 3584 3383 4555 4573 3076 4017 4276 2812 3212 4728 2688 2884 2759 3370 4317 4676 4026 3622 3613 3379 4881 4490 4517 4502 3365 4007 4215 4927 4752 3372 3471 2620 3438 4317 4271 3230 2636 27 6 8 29 11 26 1 5 33 7 17 29 22 30 30 3 28 34 29 7 4 4 5 13 28 11 2 14 16 15 0 7 34 29 21 31 3 15 38 8 8 24 2 32 29 36 37 11 17 28 26 9 27 31 33 25 37 37 2 22 15 37 11 9 12 38 22 17 39 12 1 29 19 14 18 17 28 16 38 27 34 32 2 2 38 6 30 29 38 2 31 24 1 18 5 23 32 3 34 18 25 13 1 4 1 26 18 13 33 17 20 23 7 23 11 25 24 21 14 26 19 12 10 2 30
3542 3777 4071 3841 3932 3827 3687 3335 3300 3136 3370 3281 4427 3210 4559 4084 2748 4149 4453 4829 4972 3757 3590 3582 3416 3495 3314 2819 2608 4746 3621 4918 3711 4349 4381 3222 3635 2726 3772 4561 4507 3856 2953 3311 2752 3635 3651 2656 3918 4602 3290 13 3939 3994 4216 3893 4579 4506 3028 3660 4660 2767 3767 2902 3985 4460 3700 3150 3430 3812 2723 4473 3288 3203 2819 4291 2585 3164 4129 2619 4557 4341 4488 3093 3312 3575 4689 3874 3726 4365 3101 3328 3404 4412 4221 3724 4190 4775 4418 4867 4319 3011 4106 2587 3463 3114 3661 2879 3881 3230 3614 3724 2640 2687 3334 2523 3500 3070 4897 3978 2828 4763 4087 3028 3240 39 19 25 14 1 2 16 33 38 12 19 4 28 13 30 18 19 33 2 23 16 14 36 23 30 23 35 29 25 4 13 0 3 14 34 5 1 13 28 9 2 35 10 9 23 21 31 31 22 8 9 37 10 2 6 8 15 31 27 4 16 1 26 7 7 32 33 15 23 3 25 26 27 26 5 29 35 1 17 28 10 23 9 2 8 8 26 38 24 1 9 22 38 11 9 7 10 14 39 29 38 8 4 24 17 23 12 21 18 34 38 5 24 12 38 29 16 33 35 33 23 30 1 9 8
3757 2580 3745 4701 3780 2611 4153 4323 3994 2512 4612 3921 3990 2656 4593 3635 4070 3326 4849 2629 3295 4053 3034 4227 4292 3390 2920 4081 3647 3191 4574 3429 4020 3295 4487 2911 4758 3792 4857 3889 3197 3869 4419 4058 3047 3220 4694 3111 4072 3017 4355 4306 3004 4549 3021 4247 4424 2845 4706 3119 4558 4428 2752 2975 2585 2907 3301 4525 3181 2752 4889 4517 4030 3506 4368 4975 3019 3047 4911 3832 4845 4709 4264 4516 4114 2954 3107 4115 2776 4382 4507 3097 4727 4671 3702 4849 3795 2668 3042 4359 3938 3032 3442 4176 4638 3203 3441 3197 4631 3081 3898 3672 3157 4291 3227 3280 4687 3354 4355 3282 3424 2901 4582 4317 3245 27 5 12 4 32 3 39 35 36 12 16 32 2 11 24 7 19 15 36 4 34 39 25 39 30 33 1 3 13 20 10 36 0 24 15 26 4 15 6 24 2 6 12 7 1 3 32 20 33 15 21 31 9 34 28 8 4 25 30 31 29 10 25 19 17 20 2 36 37 23 36 15 22 34 27 17 15 11 19 36 25 29 17 24 19 38 2 1 30 2 24 38 38 30 1 2 26 17 36 8 5 21 4 8 28 7 4 25 2 11 38 39 17 37 3 16 24 3 9 28 29 27 3 3 18
2778 2717 3582 4314 3848 4293 4750 4432 3585 4776 3809 4250 4491 3541 4593 2786 3450 3415 4131 4877 3064 4945 3463 4850 3273 2874 3567 2774 3805 4340 4044 4528 4872 2855 3196 3342 2857 4649 4829 4701 3082 3932 4925 4031 4807 4602 4541 4845 3587 2515 2536 3067 3455 3681 3004 3398 2865 3908 2726 3082 3783 2501 3721 3711 4069 3450 4106 3893 4796 3971 3166 3618 3030 4322 3089 3688 4965 2596 3858 3044 3869 4064 2566 3789 3272 4649 3593 2532 3453 4244 3370 4757 3884 3325 3768 3683 4258 3387 4076 4716 3057 2859 4022 4907 3994 4867 3152 4367 3428 3341 4181 2510 4382 4717 3835 2731 2639 3631 3368 3259 3222 3611 3308 4009 3784 29 31 13 9 1 20 9 38 31 29 14 34 37 32 23 3 3 7 10 4 2 21 19 29 37 34 20 34 19 35 35 17 7 0 37 8 16 35 28 10 38 18 1 20 4 3 25 30 22 24 2 37 38 17 33 21 20 23 10 35 30 29 33 5 14 7 13 30 5 2 31 29 39 26 34 31 13 15 11 18 38 23 27 3 20 4 6 2 8 35 24 31 10 4 1 7 7 1 38 30 29 32 23 27 34 3 6 7 36 1 19 27 34 2 18 30 38 28 4 12 30 22 17 23 10
3489 3356 4456 4291 3881 3307 2714 2803 2818 2890 3860 2948 3370 4544 3386 2823 3545 2808 2577 4740 3323 3891 3566 3570 2579 4702 3174 4527 3964 3403 4822 4101 2664 4590 4376 4099 3758 4486 3286 3283 3120 3498 3650 2728 4889 4457 2595 2966 4437 3978 2990 4996 4954 3794 4246 3597 4111 4126 4640 4126 3278 3599 3706 4881 4743 2599 3973 4871 4292 3554 4154 4858 3356 4302 3689 4610 4437 3845 4854 4296 2673 2558 4329 3056 3653 4972 2770 3538 4410 4231 2504 3270 3501 4525 3649 3684 2664 4524 3781 3844 4997 4451 3625 4402 11 3002 3862 4279 4153 3325 4011 3602 4598 4523 4956 3161 3475 4990 3185 4313 4508 3081 2621 4977 3456 21 18 10 9 6 39 3 15 7 1 4 22 17 12 32 33 25 25 13 33 10 30 20 33 25 12 19 36 11 9 39 9 37 20 0 30 14 9 19 24 16 24 9 3 38 9 22 32 37 37 2 16 26 38 11 2 12 22 8 16 27 16 35 9 38 39 27 7 1 5 15 34 28 6 13 17 32 16 21 26 28 4 5 20 18 7 31 38 9 27 28 36 30 39 27 2 30 30 38 3 30 13 30 9 31 36 17 16 35 21 27 8 32 2 12 14 13 6 17 37 21 16 7 16 27
4394 2706 4056 4599 2834 3965 2730 4876 3458 2589 3178 4101 4767 2879 3140 3491 3371 2843 2969 4518 4938 4299 3678 4146 4180 3343 4051 3541 3219 4909 3725 4991 3691 4336 2524 3366 4566 3334 3378 4377 4843 3327 4227 4798 4507 2932 4556 4145 2784 4823 3419 4561 3889 2699 4875 3019 3762 3309 3466 4313 4280 4845 4234 3941 3103 3495 3787 3805 3347 4934 3921 2759 3244 4659 4866 3548 3440 4136 4446 3968 3570 3491 4918 3358 2785 4748 3462 4731 3342 4042 3881 4732 3532 4994 3905 2872 4331 3682 3740 3481 3340 2709 2975 2761 4781 3035 3234 3866 3272 2680 4459 4653 4272 3412 3990 3536 2689 4587 2734 3015 3073 4691 4882 4905 4560 2 11 27 33 13 23 12 11 7 24 32 12 11 23 22 11 33 32 18 4 36 38 19 33 21 16 29 21 28 24 20 11 33 4 29 0 39 16 8 7 18 32 22 18 33 19 1 19 16 25 23 16 11 14 25 34 29 29 31 18 23 14 12 4 15 20 3 33 26 38 35 24 20 12 9 37 22 32 3 23 35 24 26 32 9 29 28 6 22 14 39 27 23 23 34 2 14 7 4 38 17 12 14 8 2 2 39 4 10 21 1 39 21 34 17 32 18 30 24 39 13 39 27 34 15
3173 2779 3331 4715 2811 4899 2531 4938 10 4479 4533 2762 3850 4902 3281 4591 4710 3578 4574 3217 2518 4373 4319 3271 2967 3554 3291 3053 2582 3095 3218 3188 3141 3373 2707 4879 3739 4412 2946 4958 4432 3284 2730 4796 3838 2931 2548 4742 4906 2517 3771 2648 3205 3084 2701 2653 3768 4676 3751 2825 4318 3561 3051 4626 3640 4473 3033 4633 4307 4490 4459 3516 4734 2622 4332 3868 18 3137 3441 4947 3784 3312 3554 4939 4371 4518 4884 3684 4607 3403 4862 3849 3268 4514 3018 3208 2911 3298 2964 4531 4022 2886 4371 3795 17 3332 2740 3975 2581 4304 4601 4122 4461 4523 4319 3082 2883 3964 4672 3717 2951 12 2953 2794 3024 12 36 30 35 6 4 34 13 25 25 37 7 25 5 12 34 30 31 8 15 34 5 14 23 18 34 2 15 16 2 15 39 10 30 31 36 0 2 28 5 14 8 6 33 23 9 17 19 36 1 29 16 30 9 31 26 37 27 21 3 31 4 35 14 10 30 6 9 29 23 38 28 25 11 28 25 4 19 19 32 15 5 33 7 14 19 15 21 18 10 10 27 24 33 35 11 4 5 32 38 2 8 38 11 7 16 36 22 27 31 26 19 21 33 18 14 37 37 20 16 14 25 29 37 12
3319 3319 4321 3245 4656 4325 3770 4415 3739 3816 3224 4465 4358 2880 3510 2780 4337 4664 3555 4026 3296 3505 3392 4425 3574 4241 3534 4927 4276 2888 4742 3369 4819 2504 4961 4454 3250 2684 2715 3019 4529 4142 4747 4216 2764 3217 3611 4494 4046 4635 3040 2914 4420 3326 3938 4201 3173 4725 3295 4465 3085 3225 3798 3939 2943 4486 3825 2704 2747 3664 4615 3532 2607 4577 4126 4861 4691 4865 3076 4451 3398 3148 3779 3934 4472 3088 4256 3373 3018 4952 4108 4383 2509 4488 2952 4008 4876 3948 3075 4822 4785 2655 3727 2630 4789 4112 3524 4032 2875 4141 3147 3874 4597 3253 4480 4822 3735 3429 2535 3060 2667 2652 4232 3576 4035 25 38 4 4 10 36 11 37 2 20 38 10 21 36 34 7 20 32 10 27 39 31 6 14 3 29 21 24 20 30 15 22 28 19 26 5 3 0 19 23 5 18 5 36 17 39 3 3 34 34 1 29 22 6 15 24 10 37 25 17 22 35 28 3 6 29 33 11 9 34 39 31 21 35 7 18 16 35 32 19 17 39 11 37 9 24 7 16 38 28 17 13 31 32 30 37 17 10 28 17 26 31 39 39 17 33 32 15 26 12 17 13 35 19 18 36 26 1 23 15 22 15 33 13 8
3323 2700 2634 4836 3215 4452 3470 4485 2538 3986 3440 4865 3044 3976 4083 4468 2657 3072 3485 2551 3240 4521 3090 3522 4635 3851 3519 4204 2786 3969 4713 2789 2633 2839 4661 3475 2958 4824 3852 3818 4863 3131 4349 3744 2959 2740 3552 4406 3141 2503 4367 4770 3159 3658 4742 4217 4826 4525 3375 4941 4160 4375 2529 3819 4379 3402 3994 3888 2506 2757 3435 3484 4974 3557 3193 3047 3066 3751 3983 2771 3556 3873 4481 4743 3715 3350 4798 3236 2701 4377 3281 2942 3298 4302 4277 2961 2535 4608 4727 2802 2710 3162 3219 4188 3594 4694 3896 4523 3250 2888 3827 4041 3183 2635 4907 3872 3964 4827 4847 3213 3007 4608 3123 4237 2996 5 37 9 2 25 16 30 32 2 4 2 28 29 11 3 17 28 6 23 30 39 31 32 4 26 34 31 13 15 34 6 4 30 24 33 13 34 39 0 23 29 4 31 13 37 28 24 19 26 26 13 23 28 20 30 22 15 28 36 39 28 14 26 4 1 37 39 10 38 13 30 17 37 24 32 3 32 4 8 29 38 21 17 36 36 39 26 25 1 26 2 34 28 32 8 34 5 3 23 11 22 18 4 28 10 11 24 11 29 21 36 38 28 5 11 4 28 10 13 19 25 7 4 8 17
2527 4128 3315 3110 4658 3874 3367 3640 4747 3157 4519 3228 3915 4081 2507 3238 4483 3783 2898 4903 2650 4445 2744 2925 3104 4606 4572 3566 4353 3031 4442 2558 2529 3560 2562 4624 3293 4563 4984 3662 3049 2818 4358 4028 2572 4268 3492 3055 3008 2787 2577 2566 4227 2834 3884 3212 3312 3784 4835 2950 2923 2831 3973 4951 4502 4684 3470 4923 4131 4703 4361 3584 3628 4334 3558 3508 2732 4194 4210 4710 2668 4459 4902 4216 2534 2873 4343 4056 3512 4334 3497 4754 4623 3651 3204 3125 2508 3980 4865 2838 3458 3086 2768 2776 2748 2511 2626 2812 3349 2890 3091 2723 3071 2951 3100 3213 2878 2743 3716 2710 3811 2838 2789 3207 2975 19 27 3 23 36 25 38 13 38 19 20 12 34 10 38 38 37 16 26 27 16 28 30 39 5 13 19 38 16 25 36 2 15 6 18 8 5 39 24 0 25 33 31 20 32 39 3 5 12 21 6 12 35 1 32 33 1 32 2 18 26 3 1 32 39 22 4 32 2 36 10 16 29 23 19 6 24 38 6 3 25 37 1 5 30 22 37 23 3 22 39 23 16 14 7 27 9 6 22 21 23 9 10 34 20 11 14 37 31 32 39 25 18 4 15 14 26 29 7 12 9 10 10 23 15
4772 4096 4769 4855 3575 3661 3912 4175 4980 4449 4405 3043 3451 4191 4281 3059 2875 2918 3595 3044 2678 3462 2723 4174 4713 4369 3540 3531 4104 2509 4072 2924 3600 3530 4285 3944 4516 4308 3540 4279 4578 4529 3983 3085 4096 3990 2914 4297 3820 4860 2750 4850 4732 4567 3753 4210 3492 3066 2898 4201 2692 4953 4408 4820 4534 3578 2984 3952 4808 2809 3076 3188 4718 4323 3938 3161 4444 4756 3495 4234 3145 4395 2898 3033 3753 4249 4500 4441 4834 2701 4658 4010 2835 3722 3267 4618 3646 2516 2705 2762 2823 3940 2622 3265 4801 3451 3174 4878 3743 4006 3423 3090 4562 4827 4473 4127 2867 3787 4784 3368 2729 3588 4564 2579 2992 28 2 35 24 9 25 2 26 28 1 36 30 2 37 23 33 19 23 15 38 1 20 14 9 29 27 3 29 39 16 31 38 5 22 8 17 28 36 16 25 0 27 24 25 34 39 2 34 36 36 38 26 3 26 35 5 25 39 22 15 17 30 22 1 6 22 16 17 20 33 16 26 37 25 7 37 22 26 28 23 3 20 16 37 22 11 3 29 13 14 16 13 10 15 27 24 18 6 33 29 39 17 17 22 22 8 5 34 7 29 29 24 22 31 30 34 38 39 26 17 16 14 3 29 6
3463 4376 3456 4772 3010 2543 4468 4603 4474 3005 4236 4528 4483 3000 2510 2522 3875 3881 4829 4162 2854 2867 4473 2591 3203 2984 3349 3692 4794 2922 4401 2678 3151 2641 4791 4292 4180 4874 3065 2674 4045 2610 5 4781 4361 4642 4759 4818 4692 2851 3364 4737 3751 4954 4986 4995 3622 3796 3445 3735 3059 3161 3694 2908 2970 3737 2590 2616 2570 4792 3721 3448 3322 3240 3333 2633 4815 2905 4648 4187 3108 3277 4911 2586 4162 4053 2918 3098 4234 2581 3842 3268 4591 2713 4834 3593 4232 2564 3909 3826 3600 4653 3671 3720 3751 3081 3224 4802 4014 4882 4703 3705 2515 3622 4928 3565 4514 3338 3110 2683 3621 4527 3296 3306 3926 5 33 2 1 5 6 8 11 28 11 10 35 17 4 4 29 16 39 33 24 39 12 29 35 9 1 25 33 20 9 9 23 16 26 21 8 28 10 9 38 38 0 30 5 30 11 25 39 26 35 7 21 10 34 24 35 11 32 4 36 31 39 38 6 11 13 30 37 4 32 7 19 18 36 35 15 13 2 32 17 23 35 32 19 28 2 10 28 12 26 34 10 4 4 34 22 22 36 37 5 31 33 22 12 15 36 18 37 27 5 7 33 33 27 18 3 11 32 22 27 16 8 33 16 31
4198 3345 4858 4061 4188 2589 4913 3371 4015 4463 4379 3887 3369 3172 3824 4129 3302 3391 4639 3931 4443 3288 4771 3337 2914 4405 3645 4433 2597 2553 3648 4228 3693 4766 3730 2878 2942 2955 4236 4622 3806 4477 4695 3426 4238 4334 4366 4501 3877 4411 4079 3378 4246 3782 4459 4884 4513 3016 3810 4375 4917 3756 2888 3515 3409 4393 3090 3609 4583 4126 4712 4213 3257 3815 3089 3305 4522 3957 2822 3271 2743 3056 2553 4947 2630 2508 4826 3766 3100 4665 4619 4706 3041 4154 3744 3438 3879 4068 2981 2680 4518 4285 4368 4415 2936 2892 3070 3302 3239 3037 4707 3028 2541 2661 3300 2550 4680 4669 3347 3597 4239 4182 2967 2604 2791 24 17 10 35 10 1 37 38 7 2 14 8 37 23 11 15 4 35 35 9 35 4 3 11 9 10 31 17 37 25 1 14 32 12 12 33 31 37 38 36 31 5 0 16 29 32 2 11 15 15 3 17 27 11 5 25 14 15 37 10 23 8 22 1 9 18 8 12 6 6 14 13 15 4 8 10 13 4 19 1 10 31 3 30 23 20 21 7 6 9 20 3 15 37 6 15 4 18 39 25 28 27 8 31 23 28 11 7 37 26 5 10 19 38 21 36 27 38 28 13 23 12 13 10 3
4530 4649 4369 4275 4465 2999 2577 3615 2654 4971 3105 4652 2740 3715 4346 4945 3482 4440 18 2562 3637 4873 3400 3356 4917 2736 3777 2584 4440 2589 2985 4735 4946 3498 4851 4370 2869 3442 4625 2936 4579 4992 2811 2899 2592 3657 3631 4595 2729 4040 4882 2546 4974 3713 3914 4265 3814 3688 3049 4037 4628 2902 4179 4327 4526 4568 4583 3883 4914 4543 3193 18 3303 3922 2952 4365 4271 3675 2708 2838 3097 3863 4627 4950 4366 3842 4495 3546 3905 3666 3674 3655 4025 4608 3760 4543 4947 3750 4207 2776 4077 3571 3196 3711 4289 3065 3645 3797 3167 3690 3467 3387 3518 3805 4370 2842 4275 4361 4055 4479 3938 2866 2889 3405 3538 36 16 12 18 31 1 14 22 26 19 36 10 39 3 8 15 20 29 2 8 32 17 26 7 6 5 26 16 24 29 22 21 36 18 19 19 13 36 16 8 8 26 9 0 11 33 20 21 31 9 23 18 9 13 36 27 3 23 32 13 32 11 12 34 38 35 39 32 1 5 15 23 4 22 3 36 17 16 13 19 30 12 6 18 10 16 8 22 20 30 16 16 16 31 37 15 36 3 16 17 8 36 38 30 28 29 38 3 10 24 27 2 13 6 22 34 17 17 13 11 31 38 20 17 34
2883 4481 4445 3313 3941 4580 2645 3077 3382 3702 2877 3027 3483 3140 3766 4425 4392 4498 2615 3491 4973 4517 3541 3808 4625 4753 3116 4688 4179 4373 4819 3596 3635 3358 4556 4170 4298 4017 2563 3098 4249 4688 3804 3700 3059 3044 2736 2642 3740 3398 4221 4680 3558 4777 3477 2724 3013 3479 3551 4391 4511 3831 3951 2813 3950 3807 3061 4596 3985 2904 4909 4015 4175 3170 4813 4676 4082 2528 4377 3480 3129 4642 3949 2709 2583 2686 4503 2875 3114 2608 2925 4245 3593 2812 4399 4906 4608 2573 4843 4503 4091 2752 2568 4762 4364 4086 3106 3543 4599 4957 3719 3223 2693 4270 3037 3601 3740 3733 2552 4977 4394 4399 4984 3132 3415 5 24 33 15 9 13 30 2 29 24 6 33 24 31 34 15 20 24 23 11 24 39 25 16 32 34 18 28 29 35 31 38 36 27 29 25 38 12 18 34 6 13 22 26 0 29 31 14 8 22 37 2 1 5 10 8 5 3 26 1 13 7 28 16 39 24 9 8 2 3 14 35 27 21 22 34 25 37 31 5 18 24 28 18 17 31 7 2 2 5 22 14 11 31 24 28 30 17 14 37 3 24 26 1 3 30 1 18 9 2 13 6 1 34 24 38 21 3 39 30 38 4 11 39 36
3628 4331 4630 4655 3704 4440 4593 2746 2902 4536 4407 4315 2820 2946 3181 4883 3049 2934 4588 3529 3119 2592 3323 4704 4737 3219 3879 2552 2830 2923 4563 4740 4748 2686 3924 2788 2830 2809 4887 4178 3691 3969 2694 2870 4320 2686 4557 3115 2895 4869 2676 3040 3788 3025 3365 2571 4099 3769 3019 4108 3007 4939 3417 3136 2942 4145 4744 4312 3439 3236 4402 4140 3438 3383 4330 2947 4884 3055 4331 2942 3005 3153 4608 10 4253 4631 4014 3457 3607 3120 4827 2614 3127 4843 3682 2604 4398 3417 3974 3460 3773 4150 4341 3570 4845 3689 3191 3838 2708 2933 2997 3976 3110 3204 3935 2926 3547 2584 4487 4378 2833 3771 3052 15 3309 22 31 2 5 2 18 12 38 25 21 17 13 32 17 33 18 30 34 23 12 26 3 23 22 13 27 38 24 14 17 29 6 22 38 7 9 6 35 31 6 28 36 19 31 3 0 20 28 28 34 37 38 22 39 25 15 2 32 7 13 1 1 2 34 16 25 3 25 21 36 6 39 39 32 26 20 19 2 10 27 27 1 22 30 2 31 20 17 18 25 14 31 19 28 29 31 24 30 4 17 5 38 3 29 38 28 9 25 18 22 29 18 25 24 36 22 38 34 37 39 19 18 13 18 10
4101 4269 2754 4483 11 2605 3822 4403 4945 2754 4065 4480 4451 2810 4654 4736 4235 3711 2913 4413 2742 3108 4824 3058 4161 4710 4738 4989 4826 4449 4757 4938 4777 4673 3802 2946 3171 4622 2919 3392 4415 3947 2576 3940 2980 4947 3192 2511 3989 11 4599 4894 3390 3530 3918 3799 4275 4380 4982 4447 4295 3007 3314 3789 3160 3721 3353 3402 4620 3936 3432 3517 3048 4579 4060 4243 6 3773 4583 3895 4319 3346 3390 3670 2979 2922 3595 4451 3490 4451 2977 3133 3902 3440 3957 2568 4603 4606 4168 4729 3339 4751 4863 4357 4523 3077 4615 3207 4774 3770 4071 3671 3907 3200 3961 3584 3742 2935 2703 3717 3272 3517 2959 4972 4929 29 15 33 9 6 19 23 9 35 18 27 11 24 7 7 1 25 16 17 28 13 38 20 20 6 11 4 12 5 6 2 32 36 25 37 24 17 24 17 7 3 27 8 39 7 36 0 1 30 36 18 8 10 3 25 4 17 35 3 4 12 6 20 17 36 33 22 29 7 14 38 32 36 26 26 14 13 38 7 37 31 34 27 20 36 39 11 22 18 24 20 24 4 27 20 30 4 38 34 16 6 24 27 32 16 23 15 1 30 37 39 6 32 15 37 21 27 38 28 14 11 29 10 9 18
4395 3719 3813 3969 3105 3294 3151 4878 3733 3006 4686 2514 4065 3343 2579 3340 4839 4915 3487 2639 3022 4110 3297 3845 4420 3713 3480 4439 2666 3150 4075 4286 2525 4407 3445 2536 3483 4977 4779 3564 3780 3201 3338 3424 2561 4254 4152 4471 2993 4074 3444 3416 3572 4153 4346 4010 4126 2970 4941 4365 4526 3985 4448 3146 4013 2980 4466 3594 2594 3398 3816 3776 3107 3693 4984 4123 4905 4013 3128 2762 3480 4174 4125 4799 3761 3217 4645 4093 2734 3966 4630 2939 4593 4596 4453 2760 4920 3032 2900 4489 3353 2770 4172 2552 2693 3873 4133 3606 3791 4123 4853 4691 2991 3004 4886 3968 4005 2724 2829 4184 3531 4620 4766 4935 3018 27 9 6 30 5 9 35 25 9 13 28 4 25 10 32 11 24 18 26 29 11 1 38 25 38 5 21 24 36 22 28 26 37 34 10 36 20 25 30 2 10 32 10 16 25 17 6 0 2 34 3 26 32 15 12 6 17 19 2 23 33 5 38 29 9 1 34 12 6 38 23 23 12 3 37 37 19 7 28 3 18 13 14 9 36 35 21 35 4 18 2 29 18 33 29 13 9 31 28 30 3 3 22 33 38 18 25 8 1 13 20 33 26 18 6 34 10 11 14 35 7 14 39 13 30
3684 4370 2921 3384 3310 2543 4889 2623 3091 4303 3336 4063 2562 2523 3799 3427 4136 3866 3635 4429 3184 3402 4675 4895 3792 4985 4205 4062 4330 4270 4152 3437 3525 4624 3265 3703 2551 3767 4143 3565 2885 3334 4835 3138 4248 4606 4132 2970 4951 3755 4954 2737 2540 3756 2781 3920 4451 3872 4713 3588 3862 2649 3286 3064 11 4671 2894 2586 3268 2596 2857 3837 4771 3467 2748 4629 4278 2958 2687 4732 3013 4796 2665 4157 4864 4505 3995 2539 4413 3682 2749 4390 3566 4147 3714 4007 3214 4611 3427 3455 3329 3978 3945 3881 4157 4159 4313 4749 4004 2750 2657 4858 4928 3343 4896 2582 3584 3756 4886 3886 2865 3532 2978 3530 3399 20 10 31 11 21 34 27 39 9 38 1 21 13 36 26 34 14 5 15 20 16 38 25 22 27 20 21 25 30 9 5 34 12 37 26 7 35 37 39 5 7 27 20 12 21 16 4 22 0 26 18 9 8 15 25 26 6 25 14 14 17 14 10 4 38 10 34 16 10 3 8 13 20 11 13 8 35 10 11 4 37 34 34 8 7 8 31 8 26 11 31 5 35 17 10 29 14 30 32 16 26 17 31 27 38 18 20 31 23 11 29 37 39 23 10 17 10 26 36 9 4 24 13 1 35
4979 4085 4442 2762 4662 4473 4931 3580 4730 2532 4672 4994 2831 2589 4261 2778 2654 2613 3924 3383 4943 3299 3115 4646 4248 4777 3715 3984 4185 4076 3144 3205 3512 3515 3606 4576 3061 4165 4567 3865 3583 4190 2972 4449 2982 3699 4106 4167 3069 2937 3428 3368 4216 2848 4600 4348 3318 3620 4880 4109 3415 4145 3618 3448 4036 3058 2743 3171 3579 4827 4316 2614 2868 3280 4708 4443 4969 4900 3374 4691 4728 3685 4570 2573 3543 4220 2532 3753 3968 3532 3527 4768 4548 4291 3984 2679 3351 3004 3822 4829 4802 2832 4157 4591 2972 3677 4906 3416 4784 2839 3324 3816 4865 4858 4145 4231 2512 2949 3737 4853 4900 3223 3152 4070 3966 9 16 7 38 2 35 26 23 38 22 27 27 9 5 37 5 17 38 29 5 38 12 7 23 9 16 13 24 29 6 24 20 6 17 7 8 34 31 35 12 29 21 7 19 10 31 20 8 16 0 8 23 18 30 20 17 1 13 31 18 31 13 39 30 10 16 27 7 7 11 25 24 26 12 31 10 19 7 25 36 8 1 34 29 28 36 7 1 12 36 32 38 14 36 33 29 20 27 23 35 1 3 15 26 12 5 38 8 15 8 36 14 8 31 13 28 29 1 28 16 18 36 26 34 14
2582 4608 3729 3373 3241 3850 2779 3604 2969 2717 4572 4425 4347 4083 2592 4460 4276 3231 3120 3556 2500 4177 4471 2642 4516 4828 3542 4997 3875 3684 4455 3899 3525 3182 3498 2910 4587 4628 2851 2940 3096 3506 3769 3508 2719 3915 4025 4666 3679 3889 3651 3535 3896 4249 4415 4355 4737 4917 2659 4798 2520 4494 4856 2959 3772 4017 4165 3828 4697 3282 4424 3025 3724 4205 3227 2729 3263 3339 3817 2636 3847 3311 4676 3954 4331 4423 3056 4626 4504 2507 4224 4285 4071 4822 3248 2990 3841 4030 4030 4686 4977 4854 3017 2938 3740 3779 4982 3844 3610 4258 2983 4710 3545 2818 3133 4697 3564 3612 3481 3240 3650 4334 2695 4487 4623 24 17 27 29 15 10 33 34 9 17 14 24 4 18 27 17 10 36 25 17 6 27 28 37 11 34 4 26 4 34 21 17 33 20 20 35 3 14 22 7 1 34 28 34 26 5 6 15 23 17 0 25 15 15 13 15 18 5 3 18 12 16 5 7 22 17 39 35 24 25 25 31 19 28 6 7 4 12 38 14 32 35 8 33 8 6 10 35 14 8 18 13 24 2 22 29 33 10 6 23 13 19 19 39 3 8 14 19 2 34 23 12 8 23 26 29 34 17 11 14 28 14 4 23 29
3653 4927 4184 4649 2595 3252 2642 4346 4690 3900 4066 3987 4989 3228 3728 4993 3765 4973 4458 2771 2738 3467 4698 4106 3142 4841 2927 3665 3097 3467 2831 3242 2509 4041 3556 3697 4167 3747 4356 2891 3017 4489 3082 2840 3619 3926 3105 3685 2912 3340 4346 2526 3164 3595 3924 2743 4644 4152 2762 4429 4992 4310 3362 2912 3975 3444 3417 4683 3812 3583 4090 4685 4802 4594 3436 2994 3367 3454 3622 2589 2800 3103 4100 3739 16 2645 4666 4565 2539 4105 4263 3765 3248 3145 3971 4064 3352 4235 4670 3395 3126 3419 3000 4492 3658 4067 3455 2584 3482 3668 3412 4945 4951 3311 4082 4293 4125 4673 2793 3998 4360 3290 4497 2533 4842 22 12 6 7 15 35 22 23 5 16 35 22 15 17 35 19 7 37 11 28 24 7 29 4 9 34 7 29 23 1 33 26 20 18 14 3 18 21 24 39 21 26 24 11 27 7 6 16 34 30 7 0 5 11 24 33 8 27 33 25 5 1 31 37 13 20 37 36 26 30 14 3 10 11 6 32 25 19 6 16 30 29 39 12 5 37 23 36 33 6 29 20 23 23 30 17 33 34 32 38 4 32 31 26 27 1 10 2 22 1 34 2 24 11 17 14 29 35 10 26 38 17 25 36 25
4062 4398 3283 4588 3887 3505 3494 2739 3239 2840 3263 2887 4545 2644 4841 4724 3787 3563 3254 3964 4089 4315 3916 4175 3872 2790 3421 2727 3185 3426 3843 2966 4615 3096 2727 3840 4140 4596 4642 3665 4661 2588 4790 4561 4241 2829 9 4697 2777 4606 4453 3377 4311 3243 2883 4167 4281 2822 2652 4580 2795 3363 2908 3386 2740 4641 4435 2718 4944 4763 3099 4491 3947 2916 4632 2974 2512 4319 2568 2668 4723 2666 2783 3891 2999 4753 4147 3923 4867 2960 4293 2654 2714 3066 3857 2790 4123 2941 3198 4309 4612 2889 4911 2568 4464 4527 2581 3144 4816 4795 4880 2860 4275 2716 4158 2677 3051 4918 3689 3107 3644 4307 3132 4800 4832 18 10 11 18 9 31 13 32 22 5 35 33 6 16 14 8 11 3 29 20 31 3 19 30 24 7 13 12 22 34 26 11 16 32 39 28 31 25 5 16 16 29 17 34 32 2 22 19 16 9 3 11 0 34 38 25 14 16 18 29 15 35 29 32 13 19 39 24 27 20 21 20 6 30 39 34 4 39 19 16 8 27 10 35 36 12 22 5 14 39 29 12 1 24 10 24 3 10 15 26 2 15 38 23 16 22 24 23 32 24 23 18 28 22 26 16 18 24 15 36 13 10 14 11 11
4516 4173 2972 3723 4496 3766 3734 4566 4129 2819 4246 3671 3730 2544 4111 3618 3143 3562 4115 3771 2834 2540 3137 4506 3724 4882 3842 4625 3155 4889 3729 4124 2677 3509 4555 4915 3300 4206 3316 4963 4679 4457 4348 3921 3970 3095 4030 4319 2809 4134 3712 4603 3034 3811 4283 3851 4134 4318 3816 4177 4275 4319 2545 2875 2989 4411 3401 4118 3449 4263 3842 3374 4557 3646 2830 4886 2563 3774 4936 3834 4574 3262 3467 2998 4798 3029 2830 4048 3180 2909 3426 3708 3736 3514 4811 3153 4586 2700 3048 3919 3602 3648 3342 2903 3461 4312 3031 3580 4033 3780 4044 4974 4198 2934 4730 2624 3481 3113 4691 4377 4032 4830 4597 4453 3251 36 7 15 25 24 12 26 22 29 1 28 21 11 33 23 13 20 19 35 14 24 30 18 36 7 31 35 19 5 25 24 24 7 21 11 34 22 19 1 1 35 36 22 34 16 33 39 18 34 37 35 19 17 0 31 24 3 30 18 15 39 26 8 12 37 32 7 20 33 12 32 22 14 20 14 20 9 19 2 19 35 24 16 10 32 18 32 8 5 6 5 37 19 34 15 38 33 11 11 25 18 29 1 2 5 36 10 8 2 19 33 28 21 9 33 19 5 32 32 38 26 31 14 22 27
3773 4889 3337 3557 3188 2989 4045 2888 2834 2957 2890 4405 3115 3700 4676 4797 4128 3751 3510 3976 4991 2738 2535 2606 4838 3180 2809 4002 3619 4908 4055 3680 3655 3450 2751 2619 3653 2829 3948 3387 3745 4786 3169 4710 4439 4604 3257 13 3825 2501 3013 4005 3968 2551 2523 4694 3579 2862 4656 4664 3027 2790 4556 4124 3282 2770 3442 3289 3137 3307 2608 3113 4749 4863 4830 4611 3940 4228 4873 3263 2711 4927 4590 4748 4303 2812 2837 4649 2794 4280 4516 3292 2582 3789 3000 4477 4541 4640 4517 4736 3593 3239 3373 4600 3212 4277 3869 2950 4216 4412 4139 3831 3387 4855 3106 3680 4059 3368 2817 4157 3638 3929 4775 4142 2649 36 10 30 18 4 33 35 20 7 2 18 8 13 22 22 18 12 24 4 12 23 2 7 30 1 26 3 8 12 26 35 34 3 38 11 10 26 7 15 16 12 36 28 5 20 16 19 15 5 31 29 24 24 20 0 5 10 1 9 17 36 18 37 12 29 4 28 10 4 14 35 36 25 13 4 26 9 9 7 26 11 16 2 18 3 10 34 34 33 20 12 3 24 19 16 34 34 10 33 31 19 23 35 15 35 30 17 15 25 4 19 24 38 17 24 17 29 14 36 32 13 23 29 24 25
4090 4148 3924 4340 4857 4828 4175 4630 4995 4877 4259 3009 4883 2742 3755 2894 4947 3504 3093 3939 3273 3354 4502 3191 2692 4070 3859 4413 4256 4881 3350 4549 4492 3968 4305 4926 2565 3378 3910 2909 3115 2637 2927 3774 3344 2508 2690 4612 4947 2579 3593 3519 3680 2651 3743 4578 4372 3714 2811 4921 3885 4375 3918 4650 4438 2533 4803 4512 4324 3858 2938 3935 2668 4169 2505 3461 4651 3593 3223 4411 2507 4432 2633 3934 2698 4652 3867 3765 2981 4446 3641 3862 2900 3995 4364 2842 3372 4143 3249 2654 3811 4739 3415 3528 3703 4050 4763 4306 5 3003 3687 3780 2650 3994 4287 3694 2788 2987 3064 4907 2916 3877 4682 3649 2751 29 13 22 11 19 18 23 9 26 12 38 25 28 25 32 7 21 8 28 35 24 20 33 21 2 19 14 19 1 35 38 38 14 14 7 18 1 36 2 38 22 19 16 30 1 36 31 36 19 2 18 2 23 32 20 0 3 22 22 7 8 4 32 23 36 23 33 33 12 12 32 31 38 16 5 5 8 32 14 5 13 12 14 16 26 8 32 17 27 25 14 10 23 16 36 13 16 22 22 17 34 8 15 19 13 29 25 5 25 18 31 15 13 11 4 12 9 1 36 11 9 29 17 5 38
3308 2694 4403 4104 3453 4528 4354 3531 3576 4092 3698 4887 3542 4500 3842 2685 3928 3295 3442 2664 2565 3081 3089 2729 4919 3042 4343 4739 4921 4610 2547 4713 3961 4103 4162 3466 3287 2687 3819 2670 2632 3395 4216 2630 3820 3169 3030 4230 4001 4562 2942 4897 3170 2755 4582 4287 3326 2673 3929 4625 3101 3679 4690 4390 4077 2883 3790 2948 4886 4166 4009 2947 4621 3385 3916 4156 4923 4524 3966 4762 4106 4113 4113 3230 3292 4742 3716 4375 3397 3832 3235 3687 3142 3116 3956 3298 4911 4549 4183 3494 3387 3707 3031 3474 4411 4788 3210 3081 4183 3900 4566 2891 3532 3455 3418 4550 4676 4039 2552 3203 19 4055 3527 3093 4143 4 19 36 38 4 20 4 31 1 16 29 5 13 35 5 32 2 16 30 6 32 33 2 39 9 38 18 24 34 7 3 8 35 7 5 4 3 9 24 36 4 18 20 32 29 2 23 10 20 38 37 5 2 5 37 34 0 29 5 11 3 27 31 37 27 12 22 20 34 6 19 13 13 25 9 27 12 28 36 27 5 36 33 21 4 4 18 14 34 10 21 33 6 1 32 32 3 23 16 36 10 31 17 7 17 13 15 37 38 35 34 31 37 16 19 8 24 33 25 15 17 28 28 15 30
4327 2660 4583 3560 3931 3401 4556 3822 2596 2959 3167 3763 2799 2695 2886 4002 2766 3352 2607 3200 4607 3528 2515 2896 4225 4199 3127 4933 4988 4112 3023 4111 4809 4657 4521 2606 2886 4954 4814 2634 4592 3161 4459 4573 3380 4457 3801 3188 3413 4033 4694 4835 3571 4216 4410 4960 4250 3574 4843 2640 4500 3970 2869 2617 3858 4985 2879 4033 3302 4688 4151 2670 2642 3375 2991 4459 2917 2851 3434 4332 3415 4415 4171 4493 2592 2745 2799 2693 3819 3096 4976 2883 2532 2802 4889 3839 2777 3515 2821 4358 4700 3730 2778 3103 3590 3695 3747 3973 2706 3766 4113 3828 2903 4818 3143 3498 3583 2914 4165 4314 3848 4292 3233 3285 4997 32 25 8 13 18 16 6 5 22 25 10 27 23 12 36 23 20 16 39 6 37 18 10 18 30 26 16 12 8 7 32 32 21 19 18 37 26 39 18 16 17 35 39 14 34 32 29 35 28 37 26 30 35 18 33 27 38 0 9 38 26 27 1 36 35 14 34 23 16 10 26 23 5 2 17 37 35 10 18 7 37 10 18 24 4 25 11 29 32 21 14 38 39 32 4 28 33 17 15 6 12 27 23 19 13 38 19 5 23 35 17 37 31 36 31 10 1 17 1 35 10 23 17 26 25
3599 2956 3951 2945 2897 3297 3441 4199 3217 4487 3899 4200 2843 3638 4971 3549 4389 4699 3273 3900 3169 4712 2626 4088 2987 3521 4269 3843 4991 3533 4139 2584 3314 2986 3545 3670 3104 3641 4148 4801 4913 3438 3457 3089 4728 4077 3546 4196 3591 4437 4746 4285 4018 3405 4462 3415 3569 3565 3240 3260 4188 4491 2503 3558 3548 3324 4924 3157 4381 2685 3923 3478 3560 3863 4152 2986 2977 4952 3895 3075 3610 4642 3906 4364 2630 3723 3597 3629 4850 4249 3334 3694 4600 4567 4304 4712 3201 4673 4524 2575 2762 3389 2568 4493 4162 2918 3413 4007 3582 2822 4522 3618 3522 3232 4740 4845 2862 3738 4652 4151 4529 3560 4117 3091 2878 24 1 31 20 11 5 16 14 9 21 20 19 30 33 35 38 38 23 39 29 25 36 12 14 13 21 15 36 20 32 27 18 9 26 37 21 32 36 21 15 3 2 20 25 4 35 29 39 24 12 9 38 20 25 10 7 34 25 0 28 22 3 19 34 21 10 24 30 23 4 6 33 36 27 15 7 24 39 2 22 28 16 4 9 20 32 8 39 5 23 25 3 21 26 38 38 38 32 33 3 6 18 8 37 4 4 1 25 3 32 36 28 20 7 18 25 27 26 13 35 24 26 34 24 31
4677 3156 2787 2519 3560 4731 4921 4266 2936 3070 4684 2943 3334 3719 3103 3950 3187 3184 3758 2503 4799 4245 4847 3244 2627 4401 3673 4045 4327 4209 4107 4192 4320 3705 4943 3410 2792 4519 3423 3896 3466 4292 2610 3966 2755 4570 3768 2965 3388 2780 3731 4669 4197 2515 3959 3266 3098 4998 4539 3938 4216 4199 3303 3853 3220 4956 3093 3883 3385 3474 4806 3243 4575 4584 3980 2603 3093 3893 4996 3903 4197 4886 3177 4616 2513 4902 4652 2784 4643 3071 4848 3997 2803 4897 4509 3002 2657 3316 2812 3352 2885 3472 3169 3930 3438 4750 4946 4217 4996 4687 4023 2540 3034 4516 3436 2881 3951 19 4422 3875 2731 4995 4640 2552 4442 33 6 21 33 5 29 14 2 17 4 21 4 39 2 33 22 1 8 28 9 29 1 37 19 32 13 30 27 23 22 4 15 32 9 13 34 5 25 19 6 13 2 39 18 37 39 19 38 14 12 28 6 25 29 3 20 22 38 10 0 21 33 7 18 26 11 33 26 3 8 18 33 24 36 17 5 37 24 21 12 31 14 15 5 16 22 17 36 24 17 11 30 14 29 13 19 32 22 10 29 16 4 11 39 28 2 28 25 12 34 39 4 26 13 5 7 33 19 18 29 33 23 39 33 13
3251 3865 4683 2899 5 3596 3993 3384 2645 4694 4598 3193 2676 2743 4688 2595 3094 4628 3584 4413 4548 4172 4661 3586 3020 4005 2933 3100 3111 4841 4879 3120 3289 4980 4039 4114 2775 4912 4326 3696 2824 4215 2640 2837 4604 3143 4461 4055 3617 4708 3318 4041 4752 4671 4964 3967 4278 4904 4262 4672 2962 4352 3617 4453 2835 3951 4992 3188 4176 3339 4291 3534 4615 4220 3515 2759 4646 2682 3957 4268 2783 4334 4429 3425 3835 3952 3158 3393 2608 3610 2688 3809 2609 3472 4454 3411 3775 4424 2860 4701 3289 3749 4698 3448 3793 4546 4643 3522 3925 4994 4278 3140 3268 3453 2961 3262 3179 2556 4528 2915 3996 2999 3326 3504 3968 24 26 4 39 24 13 38 1 20 2 4 35 14 26 30 24 2 18 15 32 36 9 10 12 10 28 30 4 19 28 34 23 22 36 17 18 15 35 34 21 27 16 29 24 8 5 35 11 27 15 21 12 13 12 27 26 27 22 10 24 0 2 7 31 36 1 31 35 7 34 34 30 25 38 33 16 10 16 36 18 24 34 21 1 14 29 21 29 17 10 25 31 7 6 34 5 33 9 36 1 27 7 24 22 29 20 1 29 23 23 14 18 31 15 26 28 30 11 13 29 28 20 19 11 10
4378 3917 3353 4832 2621 4663 4536 4176 3106 3336 3829 4386 4211 2887 3361 4989 3543 3620 3050 3780 2742 4524 3442 3626 3049 2619 4700 3188 3648 4059 3175 4283 4475 3449 2661 3056 4337 3136 4907 2733 4088 3644 4372 4499 3550 3071 4932 4924 4608 4194 4765 2917 3992 3142 2944 3611 2676 3964 3102 2507 4521 2768 4263 2761 3211 3586 3232 4257 2834 3966 3149 2701 3083 3100 3610 2991 4323 3921 4811 2518 2540 3421 3673 4786 2847 3053 2988 4962 3956 4004 4298 3276 4453 4554 3129 2567 2854 4538 4347 4606 4838 3716 4592 2729 4283 2832 2503 4663 4075 4870 4303 4952 4289 4283 2650 4765 4229 4646 4844 4030 4772 4842 2947 3993 3417 15 3 14 22 30 29 6 14 9 32 35 3 36 24 32 19 37 23 11 23 39 38 22 31 14 39 26 28 32 21 15 9 17 34 17 27 2 23 24 10 13 38 9 17 15 10 27 2 16 35 8 37 29 31 9 8 23 13 28 10 2 0 39 3 31 30 21 25 2 8 27 24 9 13 4 34 16 20 23 15 34 3 34 23 26 17 6 3 16 39 32 20 24 33 9 10 20 27 18 11 5 29 8 35 12 19 4 13 19 16 35 7 34 24 3 15 27 27 10 18 1 11 5 39 20
4416 4728 3085 4920 4958 2881 3093 3931 3331 4183 3760 3936 4487 3845 2955 3615 4702 3247 3810 4081 3476 3837 3374 2649 3951 3552 3689 12 3207 3073 4489 3021 3461 2808 3749 4517 4467 3723 4126 4503 4375 4859 4892 4396 3798 4279 3995 4334 4951 4487 4505 5 4135 3462 2959 2823 3965 3824 3179 4431 9 4934 4454 4636 4069 3950 2563 3738 2748 3938 2523 4045 4860 3287 3857 2758 3893 4777 3610 3728 4249 3523 2869 4210 4169 4304 3719 4808 3417 2865 4048 2992 3063 3221 3209 2910 2913 3387 3942 3070 3369 3784 4203 2994 4670 4844 4898 3159 3585 3089 3586 3502 3908 4913 3141 4080 2920 4708 3038 2933 3446 3653 4540 2613 3949 12 21 28 28 30 36 4 34 5 7 25 12 9 3 14 36 30 6 3 28 27 30 16 35 5 21 24 26 35 39 19 8 25 15 7 22 11 33 23 9 14 23 19 19 9 36 20 39 34 38 25 35 38 2 24 23 29 4 38 20 13 3 0 25 32 23 18 14 23 28 6 20 26 21 35 12 27 35 21 30 10 33 29 37 13 2 38 38 30 5 8 6 6 7 30 25 25 10 38 8 23 34 18 19 24 1 21 7 35 2 6 24 26 17 29 23 20 32 26 5 12 32 5 5 16
4142 3906 3430 3184 4528 2909 3125 3899 3014 4522 4812 4289 4000 4547 4755 3842 4577 4291 2558 4701 3500 2758 4654 4415 3624 3803 4819 3956 3147 4117 4568 3814 3073 3103 3766 4339 3916 4039 3027 4442 3038 3021 4633 3490 3626 4550 4803 3363 3622 4154 4659 4383 3208 4342 4363 4566 2813 4415 3272 4942 3275 4881 2698 3240 4531 3205 3739 4949 4098 2688 3158 4796 4497 2910 2658 4345 2600 4433 4867 3321 4361 4043 4732 4592 3752 3938 4103 3996 3190 4669 4938 4278 4837 3816 4440 2813 3434 4564 3409 3944 3142 4984 3579 4759 3243 4298 4328 4303 3744 3369 2862 5 3736 4652 2693 4190 4936 3747 4260 4560 4346 4412 4963 3251 4481 36 7 4 26 10 20 37 16 15 2 37 32 7 20 2 8 15 28 12 8 38 31 11 26 22 34 31 23 17 3 26 20 32 2 19 31 7 30 16 20 19 34 5 30 34 9 25 4 1 20 29 8 30 15 22 20 3 13 29 11 6 13 31 0 25 2 11 27 4 28 7 33 31 24 20 5 2 25 16 30 32 27 22 9 25 14 1 1 17 35 35 7 8 25 31 3 2 24 32 37 34 12 7 10 4 4 32 20 26 15 33 4 16 36 24 31 18 20 39 20 7 33 18 34 2
4742 3765 4127 3859 3295 3696 4144 4477 2782 3985 4796 4910 3328 3837 2916 2960 3881 4242 4141 4538 4956 4819 3460 3776 4768 3377 2904 2820 4049 3494 3835 3660 3382 3027 2842 4652 4091 3913 3114 3915 2501 3298 3466 2767 4809 3231 4085 4201 2922 4300 4861 4786 4561 2910 3908 2590 4874 3350 3481 4812 4534 3147 3101 2585 8 4667 4605 2755 3506 3637 2695 3180 4884 3023 3508 4643 4363 3878 3263 3236 2612 4786 4076 3888 3501 3722 4467 11 4678 2723 4438 4829 3268 3976 2844 3437 3812 2526 2671 3123 3875 2700 8 4194 4988 2770 2810 4833 4315 4256 3644 3158 3249 3650 4207 4254 4469 3144 2899 3640 3600 3139 4220 3207 3244 28 39 13 1 3 33 24 18 27 14 36 24 35 9 21 33 19 7 23 27 36 18 32 38 35 26 25 9 11 35 29 19 11 29 26 13 2 12 22 33 39 27 21 21 12 18 18 24 13 29 28 27 1 28 39 8 35 15 15 8 5 23 16 25 0 22 25 18 25 3 14 20 37 18 21 31 19 26 4 8 7 22 10 37 38 12 28 15 16 12 10 9 38 20 3 29 6 20 26 15 7 38 7 36 13 31 28 24 35 1 8 11 7 23 12 24 23 3 29 21 37 6 11 16 30
2817 4890 3526 4230 3771 2839 2671 3217 3850 3078 2749 4300 2801 3732 4518 3502 2604 3289 3114 3613 4449 3997 4775 3726 3625 3187 3527 4536 4333 4628 3700 3677 2718 4402 4788 3638 3962 4620 3678 12 3898 4194 3280 3767 4445 3190 2857 2576 4614 4389 4411 3119 2602 2833 3937 4267 4436 4928 2960 3521 4318 3352 4518 3239 3930 4065 3625 4606 4334 3237 2564 4566 3768 4716 3816 3434 3757 2778 3023 4515 2728 3492 4376 3676 2500 4266 2744 2565 4416 2979 3522 2771 3510 2856 4992 3535 3379 3824 3891 3679 3318 3379 3264 4144 4882 3718 4387 3677 3199 4693 4287 2939 2699 3260 4677 4496 2712 4061 4063 4246 2732 4780 2909 3223 2655 24 37 5 23 26 6 32 26 8 8 12 31 35 29 8 32 10 38 5 1 20 36 18 37 32 22 1 25 17 27 6 26 5 26 27 20 35 34 15 9 18 12 12 37 16 32 11 11 37 14 17 27 14 24 10 30 2 25 20 9 27 1 11 10 34 0 10 18 34 25 17 19 5 8 29 11 26 23 9 22 9 17 20 8 1 7 31 14 10 5 17 30 33 37 28 19 25 36 13 7 5 33 14 8 36 35 3 8 20 28 24 17 20 12 5 2 16 15 18 17 23 8 8 32 35
3100 3113 4216 2982 4095 2935 4375 4756 4225 3071 4261 3090 4599 3760 4502 4431 2804 4878 2777 2699 4848 3597 2993 3854 4485 4749 4318 2707 3317 3429 3404 2643 3329 2640 3470 3715 3985 2653 3665 3864 3341 4515 4128 4759 3134 4046 3706 4210 4208 2683 4197 2807 4540 4251 4095 3526 3147 4682 2617 3708 3911 3537 3319 3487 4872 3363 4492 2543 3683 3944 4263 3705 4594 3531 4399 4061 4598 4012 3625 3586 4497 3925 2870 4630 4335 3488 2667 2643 4072 4387 4333 4602 2695 3916 2906 2649 4279 4154 3121 2664 4618 4069 4995 3170 4713 2511 4243 4651 4571 3023 3828 4232 3235 2985 3828 2933 2551 3949 3227 3093 4836 3485 4308 4726 4991 8 6 19 30 6 14 36 12 15 36 27 20 8 6 14 8 36 3 32 2 1 1 6 33 36 23 3 12 6 4 38 15 16 24 38 24 18 28 19 29 22 38 33 18 4 36 23 17 24 21 20 32 28 23 28 37 28 18 6 12 16 39 10 32 11 19 0 35 12 19 24 26 22 5 20 28 39 7 37 10 18 9 15 9 13 1 32 6 1 32 4 8 18 4 30 17 33 37 37 23 6 31 37 26 9 25 9 32 26 36 36 5 33 2 3 32 35 38 15 16 7 8 9 11 14
4933 4312 3218 4179 3428 3622 3418 2892 4132 3176 4151 3954 3226 4165 4671 3177 2664 2545 3506 4396 2780 2558 3468 4274 2691 4569 3544 3746 3233 2957 4443 2584 2805 2931 3925 4818 3118 4413 4638 3138 3619 2917 2831 4733 4193 3800 2662 4596 4194 4401 3915 3009 3634 3334 4179 3839 3401 2937 4404 4752 3687 4669 3699 3495 3095 4074 3372 2765 4922 4025 4335 4168 4663 3970 4049 3583 3263 4103 4787 2917 3109 3226 4483 3383 2729 4379 4167 2612 3679 4165 4048 2527 4825 3142 2670 4665 4845 4563 2534 2682 4245 4288 4884 2654 3826 4421 3924 4666 4667 2732 4502 3402 4341 4801 3383 4833 3507 2991 4440 2730 4533 4523 4492 4919 4335 9 8 30 16 18 20 22 1 37 4 36 17 30 39 38 24 9 6 36 7 12 19 7 13 1 39 11 22 32 9 34 27 39 20 9 38 18 28 32 12 16 3 17 24 17 30 31 9 12 37 18 8 26 29 28 1 8 35 23 39 3 18 30 15 12 29 29 0 10 21 29 11 17 15 12 22 37 10 16 20 37 21 35 10 13 5 2 22 1 20 25 12 34 37 4 28 27 16 18 22 28 9 3 25 9 37 36 33 22 4 27 2 15 5 29 34 28 17 35 24 39 34 2 22 2
4256 4853 3144 4036 4412 2928 3211 4968 4069 3512 3791 3454 4660 4642 3280 4164 2503 3454 3535 4509 3577 3612 4611 3476 4252 3372 2992 4370 2990 3102 2515 3999 2805 4718 3454 4431 2591 3441 3266 3627 4967 4270 4961 3156 4227 4884 4258 3569 2589 2948 4770 4234 4731 3765 3833 3567 4679 4189 2986 4120 3399 3211 4857 4700 4637 4318 4024 2820 2515 2658 3051 3216 3770 3688 3216 4264 4495 3407 2670 2657 2786 3163 4107 2751 2741 3709 4907 3177 3134 3354 3381 4192 4548 4826 4513 4966 4216 3569 2812 4667 3206 3917 4194 4466 3490 2901 3348 2752 4635 3256 3293 4693 3809 3953 3957 3312 3050 2847 3689 2925 4929 3533 4955 4370 3157 8 29 19 8 38 19 26 28 26 6 17 2 26 37 20 34 11 19 7 16 25 31 2 29 2 8 15 12 13 35 5 16 31 15 6 31 20 20 30 28 12 32 24 36 36 6 21 39 27 21 18 34 24 6 32 9 34 35 4 34 2 29 11 3 27 1 1 9 0 18 38 20 36 21 17 1 17 13 30 3 16 16 25 37 3 4 14 23 33 37 26 1 1 11 35 37 15 23 13 19 10 1 33 34 39 12 14 22 25 34 33 34 23 27 1 1 2 22 10 22 11 14 33 7 36
4189 4239 3967 3949 4702 3664 3677 3114 2709 3978 4653 3057 3565 3173 2732 3361 4575 4014 4715 3867 4521 2761 3643 3899 4394 2911 4928 4462 2788 3015 2738 3442 4510 3486 4055 3610 2954 3263 4571 4075 3992 3754 4640 2623 3877 3666 4543 2525 4947 4853 3053 4340 3856 3578 3523 3218 2759 3089 4212 4882 3115 3817 4272 3941 4006 3989 4638 4056 2775 4409 3632 3848 4804 4225 4492 4836 3426 4669 4426 3745 3503 3455 4453 4026 2918 4422 2771 4061 2643 2804 2782 4260 4228 3572 2660 2628 2678 4038 3938 3660 4420 4803 3884 3139 2760 3304 4918 4017 4655 4748 2631 4782 2896 4124 2730 4431 4121 2537 2676 3569 3442 4434 4807 4118 4670 5 7 14 1 1 4 10 20 22 31 15 26 23 39 10 22 8 13 11 35 37 3 39 27 28 6 4 38 13 28 14 3 7 20 18 34 22 14 8 17 20 20 17 23 11 21 10 12 26 2 15 13 36 31 18 16 18 36 37 39 5 39 23 34 33 25 25 35 28 0 2 22 1 28 23 37 15 8 15 28 32 38 30 26 22 14 18 1 32 3 36 14 30 31 1 27 35 1 13 26 21 37 4 11 17 14 23 6 26 4 1 5 39 7 18 16 37 18 5 31 3 14 29 27 2
4136 3200 3213 2990 2697 3476 4541 4018 3722 3499 4661 2528 4530 4543 3671 2620 3494 4343 3187 4831 4072 4336 4925 3473 4387 2749 3796 4637 3158 4158 4167 3763 3387 3373 4501 4661 3361 2956 4264 4253 4246 4722 4510 3770 3981 4341 2677 3149 4556 3263 3106 2648 4150 4091 3587 4972 4177 2531 4307 3973 4230 4817 3264 4899 4097 3844 2798 3027 4418 3114 3764 3740 4623 3538 2543 4697 3104 3753 3062 2689 3106 4532 3299 2856 4918 3212 4963 2573 4003 3132 2671 3423 4783 18 3162 3055 3418 3751 3430 3439 3764 4571 4587 4235 4337 4572 3703 2948 4954 3180 2528 3135 4309 4752 3760 4457 3996 3822 4992 3625 3905 4910 3728 4876 3764 7 18 13 11 8 22 27 19 22 3 7 11 38 7 16 22 18 8 37 28 26 27 29 22 35 12 21 1 21 26 23 28 38 16 8 15 32 32 27 20 6 17 9 10 27 18 19 9 16 28 23 27 22 28 9 35 9 22 17 38 22 25 16 21 28 19 10 28 29 27 0 4 23 29 26 32 20 24 14 21 29 11 38 8 38 37 4 22 28 26 1 9 26 4 37 34 15 20 13 37 2 38 15 12 4 34 7 15 16 1 35 28 12 5 18 4 7 6 28 27 18 30 29 1 15
2671 3975 2768 3609 3570 3263 3736 4213 3799 4698 3471 4630 3049 3596 3563 3517 3097 2761 4570 4946 3395 2529 3460 2664 4289 2640 4424 3754 4123 2930 4180 3523 3489 4398 4530 4939 4768 3185 3358 4513 2598 3881 3023 4262 3167 3905 2889 3453 3568 4454 3472 4452 2581 4467 4020 4904 3779 4439 4115 2932 3915 3492 4180 4099 3130 3871 4784 4075 2960 4987 4725 4986 2817 9 2607 3694 3622 2730 2846 3846 3181 4585 2882 2614 3598 3992 4683 3766 3703 4837 4564 4949 4907 4570 4824 4458 3745 3829 2620 3281 4840 4538 2912 2778 4452 4831 3101 3228 4071 2681 3186 2994 3963 3788 4313 4281 3534 4888 4427 4462 2567 2917 4564 3729 3605 24 13 37 38 20 16 36 18 30 15 38 22 1 28 9 5 27 16 2 22 25 28 20 12 37 5 1 26 6 26 23 10 23 39 37 27 33 7 25 25 37 19 34 32 29 23 30 34 7 39 11 17 16 31 23 18 32 34 37 17 31 17 5 16 30 37 10 20 22 27 8 0 32 27 39 39 1 8 22 39 25 21 17 11 11 26 1 33 17 32 25 16 9 16 24 16 13 5 21 16 18 29 30 30 32 1 20 26 7 19 8 6 5 4 35 35 29 17 25 8 11 39 11 35 9
4819 3988 3164 4820 3771 3987 3584 2987 3770 4257 3806 2852 4376 4777 4166 2965 2548 3955 4085 4311 3825 3400 4255 2827 3005 3601 3304 3373 3505 4045 3261 4230 2574 4763 3934 4881 2986 3389 4415 4200 4937 3946 3603 3454 4788 3753 2802 3795 2550 3174 4423 3641 4403 3659 3595 4812 4896 3413 4064 4165 3689 3735 4122 2621 3899 3982 3266 2884 3234 4408 4852 4274 4458 4639 4316 4755 3935 4841 3388 4483 3348 2700 2635 2863 3293 4553 4391 4324 4217 3891 3944 2920 4018 4083 4064 4978 4358 3143 2816 4832 4248 3181 3878 3507 2770 4617 2891 4003 3979 2990 3941 3412 3316 2749 4614 2917 3716 3534 3679 4466 2699 4133 4073 3712 3876 26 31 26 15 17 26 38 36 30 12 26 14 24 10 23 3 11 8 9 7 3 1 28 1 38 7 5 4 7 35 22 33 6 27 33 19 8 25 19 14 33 21 9 2 19 29 14 12 5 39 4 31 15 23 22 6 1 16 30 15 24 3 29 34 34 15 38 26 9 35 39 27 0 39 13 15 13 24 23 28 34 18 15 31 15 36 5 20 36 22 1 5 10 27 20 8 13 23 6 12 12 12 19 23 27 8 29 28 30 35 36 24 19 14 2 12 4 21 28 16 32 25 39 9 6
4881 3492 4504 4557 3892 4340 4973 4690 4783 2901 3866 4345 4781 3387 4348 4034 4722 4788 2973 2994 3788 3707 4716 4246 3074 4623 3247 4481 3506 3033 4607 3044 4491 3078 3009 4429 2532 2943 2845 3711 3674 4197 19 3210 4863 4520 4413 3290 3047 4194 3115 2758 3593 3709 2771 3651 3387 3035 4629 4714 4214 4964 4858 3304 4213 10 2858 4022 2757 3410 4593 3360 4757 2579 4119 4718 3115 4883 18 3025 3893 4034 3532 4214 3586 3278 4638 4028 3537 2609 3188 4187 4892 3912 3321 19 3741 3289 2869 3848 4563 4484 4392 3806 4774 3954 4814 4223 3622 4259 3691 3768 3255 4484 2756 3934 4802 3353 3986 3080 3956 4967 4698 2548 4623 23 28 19 3 7 13 23 6 10 12 8 17 18 37 5 17 19 38 25 39 5 10 26 8 2 1 33 21 22 29 17 22 12 7 10 16 24 10 26 14 4 38 28 34 2 37 25 3 25 39 20 15 5 1 11 38 8 39 11 19 19 37 15 1 25 3 32 26 5 30 31 13 30 0 5 25 14 25 4 19 27 28 8 4 22 34 33 2 1 26 25 19 39 22 23 22 26 4 10 22 16 16 36 7 1 34 17 26 26 18 18 8 36 25 10 31 33 19 26 4 37 17 5 20 14
3861 2774 3194 3884 3988 3445 2537 3851 18 3203 4284 4038 2733 3690 2865 4136 4243 4179 2936 4851 2895 2653 2769 3192 4486 4071 2667 4127 2688 4641 4896 3017 3162 2698 17 3669 3286 3523 3127 4066 2594 4585 4798 3629 3486 3904 3088 2851 3574 3646 4996 3965 4755 4514 2533 3693 4940 2749 4295 3864 2588 4689 4225 4964 4760 3581 3781 2668 4645 2943 3808 3633 4086 3047 2967 4966 3657 3439 3113 4852 4130 3656 3613 4611 4705 3526 3276 3750 2899 4869 4729 2880 2966 2724 4764 2653 4415 3841 2698 2716 3113 4409 3288 3934 4587 3694 3464 4289 2869 3867 4504 2731 4922 2517 4209 3901 3415 3287 4619 4944 3390 3101 3570 4014 4583 33 33 17 3 21 9 1 39 24 21 9 16 1 25 34 38 16 36 22 10 30 37 21 5 25 39 3 12 30 38 38 20 20 29 38 6 8 18 21 15 38 6 36 17 11 23 23 12 16 7 32 2 9 1 20 5 33 11 35 34 37 19 27 16 6 27 20 15 26 26 21 21 23 5 0 4 20 19 30 24 10 6 33 33 20 30 34 26 6 35 9 39 17 35 36 4 11 11 10 29 30 21 7 29 1 17 12 25 23 26 11 26 18 27 30 8 39 19 24 14 1 21 15 24 12
3213 2678 3800 3170 2977 4719 2678 2790 4936 2623 16 2709 4412 4641 4388 3787 4280 3651 2533 4203 4326 3017 3696 3321 4485 4600 4923 3320 3852 3720 4869 4068 2757 4342 4740 3409 3666 4485 2949 2610 3315 4378 2621 3645 3524 4706 3420 4179 2579 3635 3583 2743 3925 4552 3903 2555 2804 4720 4554 3565 3896 2621 4185 3728 3513 3159 2728 3280 3550 3157 2795 3921 4910 3868 4261 3799 3983 2691 4247 2658 3899 3668 2812 2755 4003 4950 3944 4429 3940 4779 4239 4598 2718 4894 4753 3824 3993 3293 4422 3826 3108 2594 3068 3089 2525 3225 2539 4463 4641 3223 4973 4438 2837 4360 3546 3775 2923 3100 2576 4516 4872 2771 3978 3527 3057 30 18 16 32 22 21 16 35 20 23 28 27 28 31 15 38 29 19 39 35 33 7 19 24 30 19 21 34 38 4 18 31 8 26 28 34 10 15 3 22 27 6 4 6 23 2 15 31 28 3 4 3 10 28 21 11 35 14 37 14 37 5 35 17 22 6 31 22 13 30 30 27 11 35 31 0 34 14 9 12 31 9 21 29 35 7 24 30 7 32 20 28 39 6 1 20 14 30 23 12 22 18 8 29 25 23 38 36 36 22 27 12 27 27 34 12 8 22 28 27 23 7 21 17 30
2700 3713 4141 3631 3638 6 3066 3784 4896 3900 3530 3311 3633 3084 2874 2891 2996 3276 4281 2782 3051 3459 3924 4118 4349 4170 4006 4576 2881 3637 2892 3507 3155 3475 2696 2818 4163 3123 2681 4207 4598 4218 3936 4372 3148 4257 3951 4845 2623 3033 4190 2929 3584 3943 3201 4782 3955 3640 4965 3042 3730 4950 3535 4885 3188 3722 2679 2813 3813 4180 3483 3474 3307 3225 4562 2994 3124 3572 3519 3560 4006 4918 3899 3957 4727 3669 4470 3870 2710 3017 4538 2614 3264 4310 3931 2624 2873 4915 3004 4800 3578 3878 4395 4830 2829 4560 4639 3290 3011 2691 4782 4456 2661 3938 3656 2569 4042 3468 4355 4149 3042 3229 4611 3492 3740 14 8 28 7 19 7 16 32 25 14 27 17 28 28 36 14 26 17 1 7 20 15 18 15 27 30 35 7 22 23 6 29 2 29 2 18 26 19 17 11 1 23 13 22 15 38 34 29 24 15 29 27 6 39 39 11 1 10 34 14 38 27 36 20 33 10 11 2 31 1 7 39 39 2 4 8 0 35 14 18 13 22 28 36 38 22 34 1 35 26 7 13 11 28 25 8 24 19 38 23 33 28 1 10 18 10 24 18 29 35 38 1 7 27 32 1 23 12 9 24 13 10 6 32 31
3788 4075 2892 3772 4509 3252 2633 3926 2754 4604 3874 2721 4975 3587 2684 3121 3920 4447 3831 3866 4793 3386 4432 4713 4425 3224 3571 4456 3116 4835 2732 4701 2715 2572 4213 4159 4405 3855 2600 3192 3033 4947 3487 4284 3009 4599 3282 4739 3876 2699 4003 3028 3713 4344 4214 3889 4345 3836 3425 2785 4558 4243 4775 2929 3195 4404 3185 2784 2663 4603 3091 2851 3906 3648 4351 3653 3033 4550 2913 4328 4147 4665 4429 3130 4879 3408 3533 3362 3041 4809 3994 2555 4853 4297 4514 4915 4648 4483 4934 3714 4190 2952 2903 4329 2721 4829 2918 4276 3766 2707 2989 4433 4984 4301 4791 2721 3276 2771 4803 4904 3614 3666 4795 4742 4452 1 3 24 31 38 32 23 10 35 4 20 9 25 38 12 3 29 14 37 34 13 1 9 14 38 5 5 34 12 6 3 17 38 25 13 5 17 20 27 21 26 8 5 14 11 27 14 30 28 31 11 35 17 35 26 29 3 36 26 13 7 22 20 29 2 27 23 28 10 4 7 2 18 22 25 38 4 0 5 37 14 6 17 5 2 20 26 29 13 36 14 21 6 20 20 5 4 7 15 2 4 38 17 20 39 25 3 11 4 28 7 28 19 22 24 39 34 15 27 30 33 9 13 14 13
4858 2713 2722 4863 4129 3492 4317 2752 2544 4321 4945 3433 3082 3494 2976 4966 4705 3440 3400 3542 4710 3915 3796 3359 2757 4931 4991 4959 4316 2793 4595 4620 3607 3757 2799 4797 3784 3329 4178 2886 3307 3984 4192 4557 4001 2586 3593 3939 4968 4172 4215 3374 2960 3510 3454 3481 2947 3828 3740 4764 4074 3532 4404 3745 2739 4456 4065 2658 3977 3047 3041 4236 3454 2606 4934 4823 3454 3016 4336 4658 4976 3520 3165 3269 3262 2974 2666 4617 3635 4503 3752 3086 4733 2960 4073 3861 3764 2663 2794 4341 4798 3855 3939 4294 4290 3435 4407 3891 4108 3379 3624 3255 3871 2795 4299 4321 4799 4871 4558 4284 4776 4910 3202 4702 2606 31 15 20 11 39 8 39 16 39 38 29 29 28 13 36 1 38 38 6 28 22 19 36 11 29 23 15 6 39 39 6 27 6 28 37 30 14 31 24 1 1 14 11 1 28 14 22 9 36 13 32 32 11 7 11 12 3 28 16 16 15 21 7 28 12 35 16 10 37 22 31 1 37 11 29 17 32 2 0 23 10 25 2 37 36 17 39 36 35 7 9 27 20 10 35 19 24 22 3 18 21 23 5 24 24 30 18 28 3 13 8 1 26 16 4 36 25 5 24 35 33 11 1 12 24
3488 2807 3647 3332 4286 3009 3255 4077 4766 4337 2521 4750 3150 2673 2913 3319 4642 3358 3742 3201 4835 2680 2911 2826 3071 4545 2578 3088 3291 2989 3192 4765 4125 3915 4381 4437 2520 3389 4454 4280 10 4070 3796 3960 3340 5 3986 2885 2795 4373 4201 2892 4732 3836 3660 2590 2549 4277 3618 4420 4180 4053 4056 3641 4495 4393 2761 4898 4406 4312 3992 2680 4733 2764 3535 3673 3488 2985 4070 3870 3668 4077 3314 2508 6 4912 3109 4746 3270 3427 3920 3875 2556 4484 4009 2695 4300 3732 3982 3097 4173 2887 2687 2814 4849 3664 3274 3401 3488 3182 2560 4583 2999 3235 3616 4443 4789 2676 3726 4748 2886 3117 3756 2621 2936 19 14 19 13 20 21 31 37 34 17 37 27 39 12 18 20 37 5 25 3 25 23 19 23 30 18 33 19 39 35 20 1 21 12 23 28 33 10 37 18 26 26 2 39 6 32 31 23 11 29 27 14 13 32 9 33 18 2 9 26 14 5 3 28 25 10 1 7 22 29 11 39 34 12 21 35 19 27 12 0 13 9 30 7 15 15 3 31 5 16 1 5 25 23 17 25 18 8 32 39 25 36 32 32 15 16 29 36 21 23 20 32 10 33 2 10 8 13 9 12 10 7 35 16 28
3327 3778 2616 4557 3203 4268 2566 3314 3764 4293 2837 4265 4851 4166 4794 3142 3416 2681 3381 2639 2558 4861 4293 2501 3138 4824 10 2610 3798 3587 2794 3954 4021 3655 2501 2684 3587 4714 3546 4758 2915 4664 4894 3507 4168 2998 3508 4654 3080 4753 2601 4545 4265 2776 4505 4108 4102 4032 3310 4554 3965 4270 2589 4481 3316 2619 2834 3647 4446 2662 3490 4557 2813 4309 3321 3583 2857 3601 3216 4129 3378 3437 3455 3707 4059 4049 3812 4010 4874 3908 3723 4687 3787 3337 3625 4339 4343 3579 3695 4842 2921 3623 2663 3379 3850 4733 3575 4025 4962 4588 3535 3255 4279 3334 2618 3763 4354 4396 2969 4580 4201 4338 4495 4089 3865 30 25 31 35 31 10 8 39 17 21 31 16 9 17 26 25 12 23 27 23 12 7 18 38 5 9 19 7 14 27 34 22 6 18 19 18 2 35 31 22 4 23 39 2 20 32 13 3 16 3 33 25 1 27 16 9 35 38 3 29 27 6 39 26 36 12 17 12 32 23 3 17 11 38 17 20 6 10 20 29 0 11 39 5 6 23 11 25 21 38 13 2 37 38 18 38 12 31 7 18 17 28 10 33 3 28 33 22 12 24 12 23 13 16 13 22 1 21 34 10 7 7 20 8 16
3131 2899 4580 4975 4273 3386 2918 3452 3817 4889 2636 4464 4013 3291 3861 3324 3310 4114 4304 4282 4733 4274 2564 3555 4016 3948 2919 4820 4305 4308 2987 3863 4827 3600 4912 3396 2742 3662 3646 3899 3362 2805 2557 4538 2964 3725 4881 2850 3892 3505 3216 3338 4483 4844 4868 3179 4042 3950 2709 2769 2668 2685 2768 2664 3043 4042 2980 3092 4268 4987 4186 3241 3456 8 2576 3578 2838 4729 4251 4386 3768 4358 3852 3008 4872 4837 3641 3058 4649 3945 4187 3305 2934 3298 3121 4155 3209 4998 4516 3774 4474 3658 2636 3038 3426 4585 2724 4417 2881 3754 3453 3194 2582 2900 3483 2803 4149 2527 3205 4349 4362 3633 4859 4932 3727 21 20 2 8 16 10 18 35 27 8 39 30 30 39 24 26 20 39 19 22 35 14 2 35 15 31 6 38 6 32 36 8 28 1 22 26 2 26 14 32 38 9 13 7 14 28 31 38 9 9 8 8 19 20 13 14 12 36 17 39 7 3 21 9 17 32 27 18 20 20 7 39 20 26 17 10 5 18 37 19 20 0 29 17 24 11 26 13 8 4 27 4 14 22 32 13 6 3 2 38 15 36 34 31 5 33 18 2 4 10 14 25 26 1 33 19 39 36 34 7 36 29 35 30 2
4060 4859 4344 3717 4400 3352 7 3385 4228 3596 4002 4586 4182 4506 4155 2570 2713 3382 3074 2781 4388 3815 4880 3882 3638 3184 3958 4277 4722 2827 4099 4844 4426 3083 4367 3453 4464 4501 4211 4368 3394 4057 4815 4512 4772 3776 3947 2564 3270 3558 3477 3206 2959 4456 4439 3595 3253 2686 3799 4696 2535 4337 4557 3127 4634 3784 3583 4417 4913 2696 2642 4215 3803 2970 3426 3983 3258 2677 4429 4398 2929 2949 2515 4933 2988 3169 2518 4941 2539 4146 3955 4399 4538 3727 4476 4996 4585 3703 3675 3190 2732 4231 4850 4826 2706 3561 3300 4986 4652 4895 3920 3747 3118 3993 4599 3373 4420 3917 4448 4878 3564 3620 3918 4112 2599 7 4 4 10 16 24 29 20 21 18 16 11 7 36 15 2 25 12 12 24 16 10 8 33 39 22 23 17 17 20 20 23 36 36 32 4 21 20 14 14 6 14 28 27 27 1 28 27 32 2 23 14 1 31 2 26 26 13 26 26 38 31 39 29 15 1 26 2 18 6 18 32 32 31 19 22 3 17 13 22 5 10 0 34 16 24 6 11 3 4 12 24 11 31 2 20 28 31 22 33 4 7 22 12 31 27 20 23 25 7 9 20 12 33 23 15 26 21 39 20 30 29 17 5 5
4255 4980 4266 4067 4455 4166 3150 3291 4361 3298 4449 4992 4300 2550 3833 2691 2508 4167 2777 3473 4287 4042 4814 3675 3586 2606 4384 4850 2612 3518 4905 4880 2545 2765 4434 3889 3974 3122 4257 4572 3084 3820 4140 3597 2887 4847 4478 2505 4679 4321 4112 4760 2653 3450 4299 3214 4158 3377 3120 3338 4683 2621 4440 3524 3126 4799 3481 4449 3050 3285 2874 2916 3762 2849 2930 3984 4178 3989 3916 3919 3864 3179 10 4983 4948 2576 4313 4965 4994 2635 4497 3918 2894 4590 3221 3088 4833 2922 3097 4626 4586 3120 4293 4343 3400 2657 4260 2772 2922 4317 3014 4692 3210 2615 3444 3189 4922 4866 3941 4470 2860 2952 4353 3121 2690 28 6 17 23 22 25 23 24 32 30 10 32 12 37 9 37 1 6 14 28 19 27 12 16 20 13 3 20 3 10 35 30 25 36 35 21 13 26 15 39 35 1 18 29 6 34 32 14 12 32 6 15 15 7 32 3 24 27 35 34 5 36 14 26 16 27 38 17 17 2 17 21 20 7 36 9 7 12 9 30 20 15 27 0 37 15 24 15 35 19 21 30 14 13 26 6 16 2 38 23 1 37 33 33 2 27 26 10 9 29 26 29 9 38 39 13 24 6 9 20 17 18 27 17 26
4926 3264 3713 4321 4014 3458 2682 4174 3803 3044 2705 3183 4962 4298 3070 3323 3564 3025 3915 3896 3136 3978 2521 4874 3484 4113 4483 4610 2759 4210 3832 4393 3904 4192 3212 4989 2664 4354 3164 2940 3964 4280 3155 4727 4120 4198 3411 4762 6 2921 2954 2907 3178 2651 4984 4980 3143 4916 4751 3286 4093 4216 4527 2680 3077 3296 2649 3665 4967 4932 3122 4596 4597 4175 3987 2807 3852 2614 2821 2932 4520 3362 3218 4058 4255 3818 4509 3041 3913 3720 4035 3684 4923 3696 2978 2986 3085 4665 4014 2866 4817 4148 3703 4538 4397 4252 3312 4004 4235 3957 3829 4335 3287 4892 4081 4353 2639 2670 4555 3360 3463 2738 4349 3315 3528 16 24 14 36 39 23 32 10 25 10 3 5 9 9 11 17 15 6 9 39 29 14 10 36 22 1 19 3 4 22 15 38 4 15 39 23 5 9 10 10 3 10 18 18 3 10 25 2 12 35 8 6 19 28 30 19 26 24 16 36 7 5 27 15 30 19 23 30 33 10 4 7 1 39 9 7 27 5 13 25 33 34 26 26 0 32 21 33 14 12 3 38 16 38 39 20 12 9 11 39 15 14 22 33 6 17 10 25 28 13 28 25 37 3 15 32 24 18 11 3 30 22 34 17 24
2654 4763 4081 2768 2853 2765 4393 4019 2925 3673 3605 4576 4726 3942 3775 3686 4757 4750 3720 4940 3815 3278 2852 3362 4396 3295 3151 4671 2874 4429 2637 3693 3229 2867 4325 4924 3915 3493 3854 2621 4311 3556 3965 2557 2581 2506 2767 4246 2800 3665 4569 2876 3120 2530 3200 2765 4044 2809 4931 2679 3655 4832 3164 4361 4190 3706 3847 3718 3337 3267 2732 3742 3934 3598 2867 3436 3012 2809 4073 4167 3528 4897 4470 3134 4489 4199 2849 3643 2649 4111 3098 4981 4201 2855 2747 4539 4454 2998 4564 3107 3828 3034 3198 4542 4744 3699 3500 3964 4791 3722 3677 2795 3603 2678 4529 2503 3070 4101 4230 3236 3078 4219 3947 4370 4291 14 34 34 27 4 7 19 18 13 9 3 22 25 35 39 39 19 23 32 16 7 33 20 13 21 23 21 12 7 11 20 7 32 34 1 20 22 7 32 16 1 5 25 16 32 8 24 26 9 29 20 34 17 26 8 22 16 21 25 21 26 30 36 22 39 35 29 21 11 30 19 27 27 19 2 36 21 32 35 14 4 1 11 4 10 0 35 36 8 25 16 14 26 11 14 28 16 39 13 1 24 1 18 20 13 9 13 12 33 27 37 28 17 3 3 30 27 12 16 14 10 12 1 35 27
3327 2691 4570 4633 4710 3007 3301 3480 2790 3054 4796 2539 4815 2638 4005 4539 3780 4554 4308 2588 3857 4435 3616 3114 3090 4123 3094 4301 3857 3744 3218 2640 3781 2579 4153 3942 4499 4646 3463 4981 4418 3091 3071 4678 4453 4018 2744 3087 4911 3475 4728 3981 4050 3865 3960 4028 3745 2525 3355 2592 3663 4661 2680 2711 3507 3696 3941 3371 2663 2523 19 4270 4617 2553 4220 4277 3384 3730 2862 2769 4986 4627 3657 4357 4380 3899 3696 2763 4552 4779 2542 3517 2749 4222 3705 3798 4664 2953 4229 3655 4162 3715 3358 2998 2798 4830 3131 3422 3433 2620 4425 2723 2799 4024 4078 4518 3264 3133 4189 3875 4688 2618 3756 3393 4014 8 38 36 26 3 33 35 23 29 11 9 16 26 27 10 16 26 9 1 16 18 35 38 28 7 9 38 12 12 6 11 14 21 9 21 36 16 17 11 37 29 4 21 34 10 20 18 7 21 39 31 21 5 38 12 12 24 14 13 19 14 21 14 8 11 15 2 31 26 18 19 6 25 38 16 20 22 27 5 31 24 1 15 1 10 4 0 25 38 13 23 32 20 22 12 25 39 3 21 24 37 22 8 9 6 11 4 25 6 20 39 14 5 37 1 2 15 23 22 37 27 10 13 17 17
2506 4826 3575 4826 3925 3169 4001 4423 2733 4790 3818 18 4754 3096 2644 3986 3116 3966 3231 4141 3281 4947 4391 2850 4917 2502 4764 3156 4595 3013 2714 4450 2683 4945 4885 3159 2808 2617 2864 3422 3280 3967 2671 4916 3598 4784 4960 2511 3322 2662 4349 4617 2826 3115 2551 4682 4382 3393 2725 2572 3198 4500 2947 4150 4373 3930 3969 3527 3408 2843 4561 3971 4707 3642 3648 4806 3818 4437 3433 4364 4853 4507 4997 2520 3027 4794 4261 4562 3745 3651 3010 3607 2973 3202 2807 4949 2917 4207 3359 2708 2654 3905 4962 3055 2586 4133 3703 4482 2949 4075 2680 4434 4976 4392 4407 4643 4952 4734 2734 4132 3914 4799 3581 3411 3772 10 15 36 3 10 13 29 33 32 5 28 27 21 2 39 14 6 32 36 31 11 31 28 3 5 19 18 32 39 5 13 31 8 2 33 29 27 15 3 23 32 7 10 26 32 11 9 4 34 9 2 22 34 17 3 4 1 35 25 39 16 32 13 10 10 15 30 23 12 2 27 28 16 35 31 26 21 33 25 8 4 14 27 22 10 7 9 0 29 1 10 13 14 21 4 23 4 2 28 32 23 11 12 32 9 33 2 23 12 4 12 33 24 19 31 18 2 12 17 26 37 27 38 24 18
3118 2746 3126 3955 4458 3118 3393 4382 2920 4031 3397 4109 2509 4577 4415 4239 4145 2976 3907 3264 3938 3671 2941 4707 3091 3417 2549 3670 3898 2563 4659 3383 3973 2610 3758 2593 3518 4054 3080 4108 2617 4386 3972 2698 3781 4214 4038 3211 3483 3310 3235 4736 3012 4827 3060 3802 3154 3322 3833 4659 4399 4944 4363 4892 4869 4037 4761 3257 4126 4301 3291 4588 2621 2657 3185 3625 4430 3997 3249 4571 2514 3692 3032 4528 4609 3284 3661 2504 3577 2671 2754 4284 4847 4899 2727 3981 4677 4530 4440 3778 3902 3155 3929 3033 4856 4961 3536 2930 3313 3566 4876 4132 2991 3452 3119 3392 4487 4307 4958 4053 4260 3794 2667 2548 3723 19 13 30 11 6 1 37 8 8 5 15 2 12 6 36 27 2 25 17 11 23 38 33 37 23 39 10 27 15 7 1 18 3 5 15 8 32 29 32 27 19 7 3 7 19 10 2 28 25 22 27 20 34 12 22 38 29 1 28 19 5 26 23 15 8 30 28 28 28 35 6 16 27 11 16 30 17 9 11 2 18 32 17 34 19 32 34 2 0 7 26 3 22 21 24 38 8 14 8 23 14 18 3 8 14 9 18 31 23 2 2 5 3 39 9 30 32 20 4 30 8 38 36 24 19
4928 4358 3354 3488 4765 4622 4162 3392 2876 4563 3884 4215 3850 2853 4442 3353 2964 3738 5 4446 2805 3110 4475 3201 4322 3735 4620 3641 3680 3788 3791 2994 3232 3845 4466 2979 3079 4590 4704 3158 3927 3056 3738 4893 2619 4194 4745 2506 4109 3824 4122 2791 4301 3662 3651 3238 3966 3258 4820 4512 3687 4747 4374 2761 4678 4036 4852 3276 4441 2586 3790 3383 3186 2804 4435 3298 2579 3643 4408 2614 4326 4020 3518 2610 4002 2778 2739 4650 2915 3653 4146 3042 4534 3212 4549 4766 4553 4655 3187 4126 3633 4734 2656 3208 3216 3341 3828 2927 3672 2543 3985 3168 2703 2883 2674 4714 4477 3885 4174 3756 2679 3999 4430 2769 2707 22 30 22 20 3 4 32 8 30 15 27 12 31 19 38 5 27 31 8 7 6 21 5 2 39 7 28 11 19 37 3 8 7 27 17 25 11 1 3 28 4 18 5 18 32 13 15 19 8 33 6 8 36 25 36 7 34 10 5 25 36 8 26 34 18 4 30 35 28 20 5 21 19 28 16 32 12 25 17 24 38 12 29 17 28 34 34 9 14 0 13 5 21 4 31 36 33 6 12 27 30 24 5 1 36 15 35 18 35 14 33 23 2 35 19 15 4 31 29 31 34 25 7 18 39
4769 3372 3254 4112 3306 2603 4937 2511 3863 4974 4977 4573 3414 4545 3739 2737 3126 2974 4889 4123 2522 3938 3754 3213 2517 3586 4811 4980 2911 2586 3559 3615 3452 4587 4005 4389 2590 4661 4680 2554 3067 4605 4392 3665 3438 2588 3212 4963 4968 3042 3156 4779 3623 4656 4019 2654 4373 4128 4012 4334 4628 2940 4001 2939 3665 2723 4364 2707 4787 2636 2658 2984 3518 3952 3122 3153 3425 4075 2866 3192 3748 4624 4632 2852 3101 4629 2794 4072 2757 3320 3063 4471 3292 3552 3696 4612 3297 4754 4415 3855 2972 3521 4820 4006 2814 3994 4730 3050 4110 3972 3970 3014 4661 3480 3553 3062 4905 4948 3468 3882 3212 2877 4638 4642 4094 14 32 8 34 7 11 11 39 35 3 14 3 32 4 10 33 15 31 23 13 17 5 14 18 26 3 33 17 37 39 5 15 18 27 27 20 38 29 32 38 18 21 18 17 20 15 23 3 9 35 4 27 32 5 10 3 17 13 17 7 22 35 39 15 13 19 16 6 27 38 25 18 39 25 27 10 1 29 22 7 30 1 39 27 26 5 18 1 30 24 0 15 27 2 18 23 18 27 34 26 8 12 24 6 11 17 26 12 5 9 2 24 38 36 14 35 5 34 17 11 27 9 20 5 36
2647 3149 4494 4834 4256 2592 2633 4763 4571 3574 4092 3148 3808 3601 3005 16 2994 2777 4575 3850 3571 3138 4545 2762 3319 2674 2849 3999 18 3674 3890 3224 3259 2837 2848 3724 3524 3044 2570 2711 3809 4448 2831 3925 3693 4893 2636 3302 4211 2808 3173 4353 3435 13 4996 4222 4064 3693 3902 4412 4440 4185 4588 4092 4161 3417 2907 2686 3153 3175 4330 2708 4879 3233 2611 3455 4240 4510 4583 2644 4127 3679 2883 2775 4963 3223 4129 3613 4145 3705 4816 4129 4343 4938 4017 3140 3588 3290 4673 3667 4374 3229 3748 3326 3224 4829 4258 2830 3233 3308 4349 3865 3809 4171 4639 3958 2758 4366 2871 3637 4449 2838 4198 4101 2974 5 27 24 8 4 31 35 19 3 9 15 14 25 25 14 8 35 9 26 7 18 23 16 17 23 39 26 32 30 3 3 2 22 27 35 21 31 23 34 12 38 11 16 31 7 34 16 30 16 10 13 11 21 1 12 21 23 12 25 20 3 15 12 11 24 4 10 21 16 16 12 37 16 11 32 1 38 20 19 32 4 13 8 26 24 6 3 33 29 13 8 0 28 31 37 25 12 34 31 22 12 11 6 12 24 38 5 9 23 10 3 10 7 23 23 25 31 33 2 26 38 32 28 22 16
4013 4068 4838 2838 3184 2680 3425 2780 2820 4218 4238 4424 2813 4975 4798 3646 3147 3860 4247 4674 3104 2960 3693 3835 4533 4807 2712 4039 4946 2572 3512 4555 4309 3561 4211 3725 2573 3059 4534 3431 4843 3601 3040 3642 4987 3911 2962 3624 4439 4842 3828 3022 4674 2925 3391 3559 4103 3512 3087 2959 4169 4479 2709 2785 4882 4161 3468 3562 3004 4215 4791 4682 2605 2673 4182 4032 2970 4331 2615 4568 3448 4106 2515 4755 2997 4305 3272 4652 2947 3777 4388 4278 3857 3287 4634 4544 3986 2628 3602 3101 3954 2947 2989 4017 4350 3305 3447 2944 8 3091 2942 4141 4419 4935 2667 2585 3855 4670 3172 4076 3151 4912 3905 3494 4017 32 10 10 4 16 12 11 12 7 18 37 5 19 39 21 30 19 17 10 27 34 16 24 36 21 29 12 16 25 26 22 15 34 25 1 22 25 5 7 23 11 12 31 24 30 17 6 1 4 9 36 11 37 5 9 19 28 12 6 11 26 32 20 1 27 25 10 12 23 28 34 14 21 2 36 10 24 29 16 2 1 1 28 33 6 37 15 2 6 10 33 23 0 15 20 9 32 18 27 2 9 20 21 16 16 14 12 19 5 17 30 15 36 6 7 36 13 1 14 34 9 34 27 34 38
3702 3787 3450 2513 2679 4600 3986 4786 3669 4427 4458 2702 4433 3412 2595 4966 3076 3992 4039 3073 3147 3908 2913 4612 2813 3269 4511 2804 2511 3467 3548 4486 4454 4950 2502 3283 4595 3908 2905 3435 2515 4121 2880 3088 4812 3570 2745 4674 2955 3987 4863 4836 2864 3960 3575 2691 3026 4591 4321 2954 2551 2863 4302 2796 3087 3721 3355 4587 2925 4795 2768 4721 3815 2607 2998 3766 3579 3866 4174 2580 4488 2907 4324 14 3832 4609 3244 4747 2915 3041 3787 3913 3860 2737 4578 3372 3149 4833 2981 2799 4056 4085 3034 3491 4411 3816 4348 3184 4187 4802 3373 3915 2837 4929 3778 3679 2656 3550 4885 2684 2897 3564 4578 4949 2759 26 6 9 12 11 13 29 30 1 25 27 22 6 2 2 11 38 27 30 34 16 21 39 19 3 5 6 19 30 19 10 4 14 23 28 1 18 23 30 2 1 15 12 33 13 11 15 24 39 6 31 29 1 18 19 12 7 39 33 25 28 38 17 20 22 11 17 11 24 36 23 33 20 34 35 23 4 37 10 1 27 4 37 23 31 11 14 33 9 8 15 14 39 0 8 24 32 11 6 18 15 38 26 13 1 15 33 25 13 20 38 2 20 35 6 26 3 39 4 11 29 35 25 38 33
4695 3565 4516 4607 3739 3338 2642 2991 4595 2998 2573 4630 3942 3565 3885 3686 4257 3853 4446 3922 2863 2686 2564 3330 3422 3521 2801 3600 3906 3932 3274 4844 4563 3309 3790 4233 3128 3916 4968 3298 4632 3254 2742 3913 4914 4051 3765 3821 2613 3307 2634 2529 4850 3970 3872 4930 3281 3485 4385 2712 3479 3175 3133 3843 4682 4668 3942 3319 4182 3686 4023 4220 4319 3007 4296 4557 3283 3835 2818 2657 4488 4688 3199 4057 4398 4824 3848 4375 4133 4656 3317 9 4681 4869 3074 3091 4346 4267 3292 4005 4555 2704 3113 3629 2764 4335 4297 2803 3204 2973 4135 3310 3264 4455 2542 2785 4174 3348 4045 3632 3901 2687 4000 3097 3336 39 9 28 13 14 10 25 35 12 7 24 34 13 30 24 34 27 37 35 23 6 24 10 9 37 18 19 39 31 17 9 1 29 30 19 29 25 29 12 25 33 30 21 16 10 15 34 19 5 15 2 16 14 6 9 33 9 12 2 16 1 21 16 29 20 5 18 11 25 32 13 36 25 1 14 18 9 23 28 28 32 18 20 2 14 21 13 27 36 24 11 21 36 11 0 14 10 27 35 22 35 31 32 20 34 24 5 27 26 31 9 5 21 23 23 16 11 4 26 25 10 8 3 4 17
4545 3583 3463 4295 4238 4541 3388 4510 2644 2513 2890 4548 4443 4910 2570 3964 3146 4095 2920 4924 4252 4056 3102 4057 4652 2657 2651 4171 3185 2900 4779 4275 4907 4454 3455 4737 2917 4374 4483 3518 4537 4263 3583 3113 4912 3132 4298 2853 4580 4396 4569 2558 4770 4758 2814 2853 4981 3452 3354 4274 3875 3352 3627 3420 3954 4340 3239 3949 2866 4591 4570 4984 2799 4105 4276 4489 3250 2999 4993 4787 3843 3655 2648 3559 4650 4910 4486 3162 3466 3888 11 3918 3009 4950 4692 2982 2800 4754 2612 4166 4836 2839 3525 4082 4120 3886 12 3265 2826 4078 2838 4597 2741 3083 4075 2779 2758 4665 4321 2762 3478 2843 3754 4553 3137 36 14 39 4 6 19 28 13 13 6 30 32 25 7 21 12 1 16 12 21 32 3 13 12 36 9 38 4 26 28 28 26 20 8 37 25 36 4 25 31 19 31 6 35 36 24 21 17 23 25 23 9 14 24 23 38 30 4 32 2 3 5 33 24 5 4 10 22 17 39 8 32 2 5 4 18 9 38 3 1 33 4 33 35 29 23 23 12 39 14 6 19 14 1 5 0 36 21 34 32 11 13 9 3 33 2 28 28 36 13 35 9 27 36 18 4 27 21 34 2 21 3 6 30 6
2699 3299 2534 4175 4356 4291 2782 4997 4146 3919 4402 4827 3019 4852 3587 4667 3164 2830 2767 2892 4379 3918 3379 4711 4726 2869 2604 3123 3464 4530 4116 2808 3266 3112 4044 4112 3183 4254 4238 4805 4812 4675 2763 3679 3368 4383 3787 2504 2547 2846 3366 2855 2547 4877 3958 4853 3179 3070 3144 4842 2638 3399 4071 3074 4158 2721 2895 4595 4996 4337 4674 2950 3218 2690 4277 3336 4544 4409 2752 4243 3649 2916 3020 2844 2513 3916 4050 3288 4067 3038 2792 3859 2929 3183 2844 2916 4107 4688 3965 19 4804 2833 2786 3531 4252 4985 3031 3071 3312 4875 3226 2978 4020 4537 3610 2575 4928 2557 3499 3755 2628 3397 4834 3422 4669 16 28 14 17 10 12 27 11 8 9 33 15 31 14 11 19 26 39 15 26 33 4 19 4 25 39 4 23 38 26 14 13 1 9 15 34 17 24 7 5 2 31 10 21 4 38 26 14 33 25 33 36 35 1 33 21 28 29 26 28 27 12 30 15 7 1 22 5 38 26 38 17 11 27 3 16 27 14 14 34 2 2 26 21 33 33 35 17 13 12 1 13 37 24 5 3 0 32 28 27 13 20 2 23 10 6 30 9 23 14 34 10 29 34 19 1 37 17 26 22 30 29 24 36 11
2570 4166 4097 3490 4056 4699 4834 3841 4994 3378 2908 4189 4002 3246 4278 4066 2945 2588 3593 4531 2997 4064 4280 4804 4736 4448 3612 2623 4756 3061 3267 4366 2708 3496 4815 4495 4538 2982 2667 4228 3297 3006 4823 2761 3287 3255 3625 3557 4287 3427 3535 2691 4362 4346 3147 3556 3759 3003 4108 4578 4121 3212 4762 4171 2949 4505 3187 3404 2572 2954 4104 4139 4251 2942 3202 4797 4290 2629 4465 3952 3152 4620 3906 3385 4222 4948 4449 2725 2827 4118 4570 3732 2599 2847 4925 3776 3376 3133 2605 3653 3129 2970 2838 3684 4012 4810 4238 2588 2635 3072 4717 4905 2851 2618 3482 2562 3156 4344 3798 4288 4382 4618 3795 15 3121 4 35 5 11 34 10 5 31 34 28 11 18 26 38 33 31 36 18 13 10 28 3 4 16 36 9 33 15 37 11 20 23 12 29 28 26 35 35 29 1 21 29 2 28 2 9 38 13 2 21 8 34 7 35 24 16 24 4 28 16 18 13 16 38 39 8 14 21 6 12 18 24 17 23 14 16 29 37 11 28 24 29 12 23 4 16 14 18 27 35 24 21 25 29 22 32 8 0 18 18 37 8 34 5 9 8 1 1 35 33 23 23 19 7 18 36 30 21 37 8 32 10 29 28 20
3717 2938 4210 4019 4792 3292 3817 2587 4112 4734 2601 4965 4407 3999 3212 4293 3045 4496 3319 2824 3668 2921 3709 3303 4873 2756 4514 3068 4947 3418 3127 3437 3781 3407 3238 4145 4977 2755 3004 2868 4211 3463 4080 3652 3895 2976 4202 2550 4929 2869 3473 4407 3382 4290 3006 3154 3502 4479 3124 2919 4176 4358 4053 2611 2685 3132 4718 3686 4305 3244 2935 4554 3470 4694 3050 3539 2657 3350 3206 4999 2620 3171 4965 4669 2950 3547 3842 3015 4947 4595 3535 2906 2818 4317 4043 4067 3938 4037 3445 4604 3951 3173 3921 3797 2705 4838 4143 2587 4066 4349 4011 2569 2743 3894 4383 4951 3589 2888 3892 3246 3866 4671 3342 4235 3376 34 9 24 5 38 28 22 13 13 29 9 16 24 24 13 22 33 28 6 20 30 17 12 35 19 7 1 30 28 36 36 35 13 37 32 37 17 36 28 35 4 8 2 13 3 25 1 29 19 13 38 18 29 13 23 16 9 22 39 30 8 1 4 27 1 1 29 25 26 8 28 30 17 36 1 1 26 21 14 19 25 15 4 29 36 5 17 11 18 20 3 2 6 13 31 23 24 39 0 22 6 3 35 28 35 1 2 35 13 37 13 25 36 27 14 13 21 6 3 4 8 25 30 26 7
3386 2504 2873 4414 4935 3927 2869 2546 3336 4739 2842 3554 2625 4216 3548 4700 2893 4303 2785 3123 2616 2857 4805 4495 3287 4148 4151 2740 4818 4140 4575 4008 3561 3815 4289 2947 3061 3283 2892 3223 4922 4154 3687 3893 2635 3036 2522 4729 4154 4568 4284 3249 2562 4123 2717 2915 3342 4684 3606 4507 3793 3092 3530 4470 4575 4616 2739 3444 4020 4758 2538 2517 2795 2778 4735 4511 3535 3346 4225 3519 2816 3547 17 3911 3480 2588 2564 4087 4804 3930 4484 3252 3781 3084 4216 4776 3959 4875 2903 3714 4735 4642 3199 3372 3333 4692 4335 3289 3466 4367 2751 3340 3750 4456 2500 2693 3917 3448 4426 4153 4631 3077 2618 3968 4240 20 22 29 15 32 9 8 23 23 16 9 30 9 26 6 35 14 8 9 29 34 39 12 11 17 23 17 1 2 20 10 24 24 17 24 31 39 15 33 2 29 35 31 17 11 32 1 12 8 20 2 14 19 13 39 1 2 5 32 14 36 14 7 9 9 12 25 15 23 10 20 10 12 9 29 39 39 3 31 3 5 18 22 30 9 23 15 36 16 32 23 5 5 27 7 5 12 8 34 0 32 16 1 19 33 26 18 6 30 7 24 12 26 5 27 5 38 24 6 8 36 11 39 22 28
3556 2820 2563 3065 2782 3305 4688 4963 4028 3276 4984 3389 3375 3746 3738 4537 4946 3808 3084 4358 4080 2685 2632 3220 3914 4389 3969 3291 3543 4529 3171 4503 3365 3616 2783 4090 3397 4753 3514 4363 4293 2557 2824 3960 3749 4503 4467 4979 2672 4259 2871 2738 3594 2930 2755 4196 4818 2764 4927 3735 4364 2671 4852 2612 4039 4361 4024 4998 3878 4184 2808 4043 3863 4342 4426 4860 2974 3606 3187 4530 3318 3472 2810 3090 3364 4587 3839 4352 4422 2585 4435 4139 2788 3745 3817 3939 3291 4768 3981 4762 4873 3861 4415 4626 4290 4972 4972 3519 2882 4689 3280 4764 4768 2831 4133 3096 2729 3393 4844 3821 4854 3441 4781 4858 2589 9 32 17 15 16 24 14 25 17 28 34 33 8 18 26 4 32 3 32 13 3 4 2 2 5 31 3 32 26 11 16 2 12 30 8 19 20 8 19 25 20 12 5 37 35 3 17 39 24 6 3 33 21 30 17 12 16 18 33 22 15 21 18 11 25 14 10 14 14 20 17 32 28 20 29 4 8 23 6 38 10 14 4 26 1 16 18 26 3 36 26 10 5 16 2 29 36 19 30 34 0 20 23 8 28 38 33 30 34 27 18 21 8 28 2 10 21 5 29 20 39 37 12 3 14
4121 3844 2606 4696 2844 3562 3155 3222 3311 3782 2836 2992 3457 4250 3202 4398 3461 4517 3994 4797 2979 3981 4148 4814 4163 2866 4884 4697 3932 3681 2556 4245 3339 4440 3710 3677 3840 4450 3322 4232 4168 3981 4282 4342 2991 2913 4561 3636 2572 4214 2883 4625 4196 4811 3298 4015 4014 2668 4993 4273 4342 4156 4411 4865 3176 4460 4501 3480 3527 3214 4607 2704 3478 2508 4331 2529 4733 2567 2619 3468 4911 4218 4774 3315 4983 3230 3301 2584 4740 4653 4367 4166 4045 2594 3497 4644 4946 4323 4762 4433 4716 3372 4307 2831 4497 3609 2608 2524 3203 3943 4300 4527 2888 2687 3854 3637 3178 4843 4364 4628 2523 2899 2910 4217 3555 13 15 16 20 38 15 14 30 11 15 15 2 32 5 32 2 37 14 4 22 21 3 31 29 37 22 24 37 27 21 8 16 35 23 34 19 6 36 21 14 24 18 30 18 22 34 38 23 32 6 32 8 6 30 4 10 39 13 20 34 38 1 31 23 37 24 3 17 18 24 4 14 10 11 3 21 24 8 8 18 16 1 14 29 9 15 36 19 5 15 5 35 32 12 28 1 25 33 26 22 8 0 26 33 22 36 38 22 4 36 27 14 5 36 3 30 26 6 28 30 39 3 13 3 7
4064 4023 3519 4029 4289 4164 3959 3116 3223 3683 4400 3030 3295 2779 3799 4799 4089 4435 4752 3939 4200 2939 3144 3494 2774 3590 3548 4381 4997 2811 3230 3725 3369 4625 3852 2553 3757 2879 4039 3179 2591 3859 3466 4513 4325 3466 4522 2819 3802 2657 4045 3110 2707 4167 4928 4707 3157 3590 2535 3622 3131 2815 3614 4334 3287 4861 4042 2517 3992 4310 4271 4361 3789 2729 4195 4629 3880 13 4580 3857 2933 4341 2830 2723 2513 3110 4159 2626 2882 3599 2821 3496 4828 2847 4731 3286 3913 2890 2642 4509 4186 2785 3346 4651 5 3896 3839 4983 3502 3804 2941 3874 4336 4889 4997 3475 4954 2854 2827 2575 3189 4667 3892 2948 3677 10 13 8 12 24 5 25 13 25 6 33 25 38 39 32 8 19 3 36 33 5 39 5 10 16 10 24 6 2 21 21 32 35 31 16 36 26 13 31 35 2 25 37 27 7 29 3 10 3 37 18 17 39 14 6 7 1 2 18 11 38 11 17 15 18 35 10 32 11 36 14 14 28 24 8 28 16 9 29 1 27 4 35 11 8 29 37 9 10 30 38 28 12 17 15 35 25 1 15 13 4 6 0 21 15 16 6 38 2 17 11 20 21 12 37 28 32 13 25 33 30 12 33 16 30
2884 4834 2515 4800 4333 3099 2773 4042 3847 3154 3874 3317 4746 3393 2828 2925 3444 4530 4189 4805 2720 3792 2684 2957 4058 2906 3520 4291 4947 4385 2516 3020 2620 3627 3169 4758 4930 3022 4212 3512 4994 4889 3949 4107 3443 3423 2508 4349 3898 4816 2663 3820 4456 4749 3318 4810 4281 3879 4760 4547 4787 4754 3985 4400 3291 3678 4405 3277 4855 4119 4222 4375 4306 4516 2683 3896 4884 4432 3505 3430 4609 3919 3110 4800 3321 3121 3088 3895 3234 3874 2656 3966 3927 2627 4543 4669 4598 3388 3258 3200 4453 4289 4428 3294 2852 2958 3197 4371 4786 2952 4000 3044 3879 4960 2848 3254 2526 4137 2642 4439 3650 3494 3390 3231 3749 18 4 34 6 8 28 13 3 17 34 5 4 19 18 16 1 20 21 5 21 7 16 21 1 10 20 38 25 18 22 27 25 17 15 11 25 25 37 25 22 20 32 27 10 7 15 30 18 36 5 33 24 1 24 37 30 18 16 37 38 29 25 37 26 32 16 34 23 9 29 4 21 20 26 25 33 33 19 27 4 18 30 23 12 5 23 21 38 36 8 23 5 17 34 3 8 25 24 23 31 22 37 7 0 32 39 3 28 2 4 14 30 36 37 22 39 7 28 12 16 27 10 21 34 36
4930 4616 2679 4742 4539 3597 4553 4931 4439 4744 3424 3390 4973 4816 3633 4313 4670 4612 3143 4074 4407 3587 3980 2914 2953 4846 3633 3589 2994 3888 4442 2776 4696 3108 4278 4079 2959 3454 2761 3341 3038 4622 3010 4077 2666 3431 3709 3737 2908 3196 4770 4266 4512 2710 3698 3168 3395 3895 4843 3882 3334 4586 3374 2783 4641 4809 2865 3595 2983 4017 3835 11 3639 4104 4361 4913 3243 4537 2717 4323 2689 4172 4021 4274 4161 2723 4392 4475 3223 2664 4314 2972 3718 4829 3092 3362 4111 4449 3682 4825 4170 4007 3982 4755 3842 3226 2637 4451 3668 3775 3942 4462 3342 3662 3669 4623 2549 4653 4193 3206 4210 3871 3728 3732 4083 23 17 25 7 5 2 33 34 20 5 28 29 10 36 39 9 25 4 16 8 27 10 29 28 39 2 19 37 24 31 9 39 17 21 11 34 38 36 2 14 7 27 12 28 37 11 27 6 25 27 8 2 37 17 18 12 12 12 1 33 8 15 11 11 12 18 5 33 32 25 13 33 30 16 22 18 10 38 7 32 17 9 10 18 23 38 31 9 30 21 6 29 26 5 23 6 12 18 30 33 3 27 30 18 0 9 28 12 31 5 36 27 11 14 10 3 12 3 6 7 13 2 16 2 18
2578 2899 2610 3369 3577 4274 3492 3134 3198 4087 3358 2731 3540 2913 4690 2716 4454 2555 4999 4678 2780 2502 3604 4759 4233 4354 4614 4431 4594 3102 3832 3100 2704 4466 4409 2528 2602 4456 2948 3004 4892 4205 3531 3558 2846 3865 3466 3075 4102 4494 2973 3547 4232 3448 3445 4590 3429 4881 4542 3144 2943 4506 3750 4595 3888 2557 4296 2584 3066 4036 4525 2956 3736 2980 2896 3001 3035 2828 2871 2541 4042 4899 4193 3641 4049 4124 4802 3114 4133 4091 4186 3845 4127 4260 2630 4682 3177 2653 4292 4241 2910 3864 3746 3410 3090 4743 4432 4144 3735 3091 3281 4998 3922 2798 4428 2688 3086 2963 3652 4478 4994 2677 2886 3597 4461 13 25 36 36 38 5 16 34 13 4 17 12 33 29 1 28 19 25 23 32 37 3 2 37 18 15 38 28 37 12 13 1 21 3 5 30 17 23 18 11 34 15 4 9 16 16 19 33 31 18 6 31 1 39 9 13 25 25 36 20 15 22 34 8 18 25 16 7 29 39 8 14 7 38 3 39 24 4 2 28 38 33 35 1 11 28 34 28 17 6 17 32 16 3 31 23 12 15 30 3 17 38 5 16 37 0 27 16 36 20 31 13 2 35 18 24 21 35 14 9 8 38 12 16 37
2776 3588 4718 4976 2605 4944 4472 4020 4742 3483 3169 4755 2778 4401 4294 4627 3880 4127 4557 3258 2944 4393 4077 3032 2558 3744 3552 3272 3508 4595 3564 3694 4962 3267 3991 4451 3524 3404 3392 4352 3839 4734 3368 4497 2507 4220 3381 15 3503 3086 3603 2743 4037 2799 3873 4439 17 4689 3079 2730 4973 4694 4191 3486 2677 4386 3476 3905 3964 3102 4501 4701 3419 4445 4315 3239 3684 2905 4051 4827 4842 4649 3548 3188 2945 2714 4361 3786 2732 3932 4506 4611 3751 4484 3727 4225 4509 2704 4425 4127 4918 4971 3151 4116 3136 3847 2947 4143 2658 4287 3637 4658 4933 3066 3077 2856 4218 3624 7 3916 4956 4539 3613 4734 3413 39 20 28 10 28 5 11 28 22 32 39 2 36 22 1 34 4 35 7 38 35 36 9 14 4 20 1 34 12 12 26 37 1 26 8 13 14 11 32 31 27 22 21 17 7 16 32 26 13 18 10 15 31 27 37 8 27 8 7 15 34 22 30 21 32 27 27 27 21 11 16 36 25 33 10 3 28 14 21 2 16 16 32 23 7 33 26 13 7 2 15 6 9 39 19 17 30 21 32 30 29 5 31 27 30 38 0 28 12 26 27 4 25 33 25 23 5 4 33 16 32 23 26 36 27
2740 4711 2761 4807 3223 2663 4995 4097 3517 2571 4060 2630 4708 3898 2735 3012 3497 2875 3702 4928 3495 3931 3530 2877 4692 4966 2670 3864 4380 3485 4056 3463 4830 3167 2511 3265 4587 3143 3119 3907 4339 2714 2811 4406 3904 3430 3805 4844 2702 3820 2808 4928 4825 4619 4447 4714 3371 2873 4893 2832 4494 4574 2982 2541 4097 4733 2737 2556 3496 4530 4038 3180 3932 3532 4139 3206 4480 2827 2891 3115 2617 2717 3017 4980 3583 4840 2683 3780 3111 3483 2911 3259 4366 2955 4110 4944 2947 4264 3115 4528 2847 4237 3881 4343 4596 4011 3391 3324 4397 4678 3686 3443 3837 2686 4770 3550 3998 3046 3379 4385 3617 3650 4968 3714 4456 18 38 4 19 15 27 37 13 26 19 29 21 34 21 8 31 5 28 3 12 8 37 38 8 33 28 22 3 17 13 8 15 7 3 19 6 35 31 33 12 26 8 8 34 34 13 12 32 7 32 19 30 12 36 2 15 25 4 12 18 19 7 7 28 30 17 34 3 30 26 10 33 36 15 8 16 9 4 4 9 7 18 22 29 21 39 29 36 26 28 13 35 18 26 18 3 11 15 24 32 31 27 32 23 13 22 6 0 15 20 1 8 36 7 35 8 18 35 4 31 8 28 34 21 23
2544 3055 4835 4365 3107 4904 4072 2999 2884 4708 2855 3915 3839 4834 4799 3078 4080 4519 4549 3997 3608 4921 3768 4655 3081 4073 3090 3394 3890 4144 3564 4846 3966 4257 2754 3037 4352 2693 4813 2515 2685 3208 3437 3937 3426 4586 4321 2744 3626 4015 3442 2570 4057 4866 4978 2759 4920 3216 2713 2978 4733 2747 4585 2941 4557 4940 4435 3795 4450 4456 3709 2510 3654 4350 4673 2510 4210 4939 4197 2957 3378 4003 2922 4022 2668 2957 3408 2961 3645 4193 4466 3792 4878 3989 3373 3197 4198 3511 3871 3918 3090 4028 2502 4898 3252 4136 4629 4534 4492 3582 2781 3076 2914 3678 3133 4255 2699 3745 4319 3360 4534 3876 3729 4339 4591 9 25 1 27 15 5 12 18 11 39 25 34 23 9 18 4 18 21 23 10 20 19 5 3 11 30 9 26 5 39 4 18 31 35 29 35 25 36 21 4 27 27 6 2 4 5 3 5 21 20 37 17 1 30 14 34 15 34 12 13 7 14 26 4 5 13 32 23 34 28 24 5 3 33 5 34 7 6 2 24 31 21 30 33 13 36 10 21 7 27 24 7 9 2 28 32 33 19 10 26 36 11 21 4 29 22 5 28 0 7 6 38 5 17 7 32 10 7 10 23 29 27 24 21 12
3252 3147 4926 2547 2524 3689 4053 4543 4505 2956 4519 2540 4805 3717 4835 4293 3810 3443 3195 2665 3916 4014 3420 4451 3140 2801 2946 4857 2619 2921 3542 4744 4923 4698 3596 4495 2642 4579 3664 3104 4341 3766 2709 3857 3719 4232 2806 3967 2809 4598 4882 3266 4954 6 4346 2972 4965 3455 2809 2565 4797 4231 2766 4580 3113 4237 2531 4349 2730 2529 4646 4730 3537 4592 4904 4839 3506 3960 2788 3216 4476 3079 2552 2562 2952 3308 4872 4218 4507 3482 2703 4952 3102 4999 3986 3023 2874 2909 2990 3149 3633 4106 4265 3831 4149 3024 2960 4404 3368 4003 2569 3192 4700 4802 4699 4446 2592 3877 3427 3137 4811 4098 2812 4676 4163 17 1 10 28 29 37 30 34 14 36 24 29 27 26 38 15 25 29 37 25 10 36 26 2 2 31 15 16 31 23 23 11 24 23 21 30 22 29 5 39 34 36 7 35 39 3 20 25 22 14 27 21 34 23 12 24 18 7 4 34 24 2 22 34 21 28 25 23 33 30 39 17 7 26 11 24 24 16 16 26 12 4 27 12 12 22 8 8 22 27 33 3 12 7 3 24 15 29 13 31 11 21 13 20 15 34 13 37 15 0 29 30 23 13 7 12 16 35 12 26 32 28 10 6 18
2593 3745 3487 2912 17 3766 2692 4844 2512 2547 3037 3120 4393 4132 4340 4622 3113 2529 3313 3344 4438 3015 2618 3348 2736 3911 3384 3611 4907 3121 3637 4820 4287 4382 3793 2639 2913 3241 3283 14 4024 2875 3255 4139 4633 2893 2883 3664 4176 4475 4781 4856 3672 3461 3152 2790 3757 4340 4218 4712 2576 4153 3245 2564 3853 3475 3752 3281 3708 2572 4999 2805 4602 4199 2850 2695 4315 2794 3932 4791 3595 4161 4501 3626 4963 4979 2579 3190 3031 3117 3548 4402 4166 2572 9 3762 4408 4193 4151 3576 2737 10 3792 3780 4862 4765 4548 3928 4725 4201 4419 4851 4196 2679 3114 3561 4689 4672 3200 3971 2926 3187 4395 3968 4250 1 21 15 39 6 29 24 37 34 9 32 9 10 35 31 20 4 9 20 9 28 35 9 4 38 32 13 14 31 14 13 4 15 30 17 6 23 17 29 12 38 38 34 32 24 14 37 30 32 10 1 27 23 19 34 3 9 27 35 1 19 34 14 18 35 29 25 5 15 23 20 18 10 20 38 37 18 31 22 5 11 17 18 22 13 10 21 5 2 1 24 36 27 10 25 26 24 3 32 34 19 39 12 33 28 25 1 29 36 27 0 6 12 29 9 25 35 8 13 4 39 35 39 10 32
3670 7 4992 3499 4408 4135 3111 4989 4961 3134 4946 2938 4529 4937 4539 2813 4362 4555 4282 4006 4837 4418 4040 2920 4036 3124 2862 4856 4352 4939 4280 3062 2531 4026 4217 2689 2500 4567 4311 3198 3477 2948 3314 4376 3967 3202 3094 4021 2959 2958 3269 4112 2829 3114 2726 4933 3769 3566 4819 4821 3448 3371 4078 4011 4512 2742 3209 4189 3893 2845 4579 3882 2886 3427 2776 2522 3180 3690 4656 3959 3183 2569 3638 4587 4154 3434 4446 3118 3306 4698 4339 2531 3667 4718 2805 3053 4166 2830 4125 3268 3852 4590 2980 4011 4684 4088 2939 3618 2857 4813 3232 4744 3211 3993 4783 2673 2909 3803 2573 4465 4255 4163 4747 3752 4995 34 16 20 16 38 31 9 21 35 21 12 35 2 36 13 26 39 15 12 2 25 26 27 33 24 33 31 13 34 12 31 23 19 5 18 14 26 26 32 5 15 17 7 30 21 10 20 17 25 16 7 21 29 5 33 14 26 4 9 33 27 33 12 8 16 16 7 11 20 12 33 3 32 12 22 9 15 31 37 18 11 17 22 4 15 10 11 31 4 28 19 28 39 21 9 20 33 39 29 27 16 3 34 25 15 36 16 26 2 1 15 0 3 29 15 33 18 17 38 4 37 33 5 17 25
3599 3311 3106 3425 3374 2687 2514 3901 2504 4027 2613 2677 4729 2592 4381 3109 4054 3183 3309 4931 4652 3728 3819 4610 4506 3502 2891 3597 3990 2828 4178 3158 3245 4160 3825 2704 4483 3311 4899 3647 4767 3715 4939 3287 2604 2562 3792 4513 4123 4224 2562 3505 4498 2566 3566 4990 4009 4738 2742 3836 3226 4191 2836 4235 3884 3725 4547 4243 3845 4525 4358 4131 2506 3171 2875 4757 4480 4932 4564 19 2685 3487 2749 2991 4319 4643 4720 4511 4930 4958 4004 3220 8 4908 3409 3305 4621 4886 4651 3046 3344 3156 2959 3228 2561 3410 3287 4942 4197 2522 2526 3095 2907 3832 3920 3311 2570 4005 4862 3357 3236 4547 4314 4664 4182 27 3 31 27 13 16 5 15 19 3 34 32 3 20 23 29 24 4 20 23 35 5 8 33 10 24 2 6 23 33 32 38 7 2 17 12 2 36 33 31 9 38 3 24 20 12 15 5 11 25 5 8 31 13 31 18 13 19 37 38 4 4 31 10 39 23 13 34 20 10 36 4 15 23 24 18 21 21 2 12 18 33 16 12 28 11 28 20 28 12 29 34 19 30 39 15 14 36 15 19 19 10 35 36 36 5 34 35 8 8 29 7 0 22 1 15 22 38 32 33 20 6 36 25 38
4091 3624 3767 4087 2614 2813 4483 2864 2859 3783 3923 4151 3703 3178 3726 2787 4316 4879 4233 2510 3073 4098 4118 2796 3357 3821 4147 4181 4361 3859 4357 4983 3367 2767 3028 2967 4773 4743 4631 2614 4746 3398 4916 4647 4858 3463 4211 4691 3258 4663 2539 16 3446 4183 2614 3053 4991 3188 2559 3325 4970 4739 2905 3097 4248 4996 4953 3946 4190 3803 4820 3319 2628 4150 3606 4024 4797 4834 3546 4863 4003 3381 3123 4435 3528 4160 4466 4466 3028 4840 3302 4697 2716 3691 3940 3333 3720 2771 2966 6 2715 4362 2693 4443 2889 2966 4078 2620 3881 3020 2938 3537 4431 2557 3675 4999 4776 3432 4947 4400 3838 4850 4092 4828 2605 12 39 37 20 1 31 3 8 37 20 24 21 19 12 2 6 7 20 28 3 1 36 12 11 14 23 16 18 4 31 25 2 5 5 18 38 30 39 7 36 7 14 12 24 11 37 2 3 10 7 9 34 24 9 17 16 25 18 14 22 16 20 28 34 16 29 8 16 23 7 9 25 6 5 31 8 37 9 5 32 15 22 7 34 23 26 8 7 9 18 22 2 27 12 12 12 12 21 19 27 9 37 5 13 18 1 9 7 35 16 6 34 25 0 8 27 23 18 32 28 37 17 28 13 6
3430 4572 4699 2897 3216 3616 4009 3266 2685 3003 2773 3393 4575 2850 3845 3898 4073 2937 2847 3607 3443 2959 4843 4188 4731 2837 4158 3737 3472 3173 3624 3088 4367 3183 3627 4702 4578 4020 2607 4719 3227 4948 2634 3037 4392 4538 4932 4499 3890 4720 4433 4418 4725 3155 3022 2727 4747 4768 3316 3516 3226 3317 2875 3412 4096 2555 2534 4305 2778 4872 4354 2554 4202 3538 4749 3195 4238 4563 3092 3465 4689 3534 4544 3216 4956 3829 3926 4462 3689 3957 4477 3430 2937 4391 2690 4398 4337 4086 3007 4147 4808 4868 3611 3796 2784 3378 4983 3525 4363 4475 2929 3124 4137 4059 3092 2863 3352 4208 3780 2533 2611 4245 5 4147 4125 10 30 12 28 26 3 16 31 13 37 35 38 5 26 37 9 32 36 13 38 2 28 13 1 7 17 11 13 31 6 15 11 23 31 4 34 30 22 3 4 37 12 11 18 9 29 32 24 19 18 39 26 11 27 22 23 33 2 13 27 39 29 30 15 11 39 24 32 37 13 26 29 37 14 15 33 17 35 8 27 20 22 4 39 25 13 26 24 11 32 1 6 7 16 14 8 17 36 5 18 10 2 29 8 37 13 35 9 11 16 36 9 8 8 0 18 26 8 20 17 24 3 4 16 24
4386 4045 3624 2805 2952 3469 2944 3458 4963 4922 4266 3815 4434 3301 2846 3939 3862 2829 4009 3194 2507 4940 4915 3392 4294 4521 3243 4058 3507 3810 3752 3535 2805 3384 2854 3911 3823 3647 3128 2910 4241 3867 4445 3577 4210 3404 3390 3108 4306 4362 4829 2530 4902 4601 2523 3850 4042 4449 3058 2506 4976 4182 4320 4432 4182 4181 2623 2505 4560 2930 4732 3167 3928 2903 3196 3507 4268 3126 4927 2506 2962 4800 4836 3985 2851 2733 4130 3267 2545 3734 4118 4974 4598 3438 2727 4991 4457 2885 3123 4981 4918 4807 3759 3160 2978 3674 3834 3070 2593 4363 2763 2779 4936 4061 3604 3723 2973 2668 4505 4474 2648 2800 2898 2597 2845 35 34 21 8 5 4 3 5 34 19 25 25 6 6 36 25 12 31 17 13 6 15 16 24 12 16 15 38 17 34 21 12 27 6 2 5 37 9 8 22 33 4 28 30 17 4 27 28 19 12 39 26 4 2 12 23 20 17 18 20 33 24 32 37 32 26 4 32 15 21 36 15 29 17 16 27 16 8 19 18 29 24 35 35 27 1 5 13 26 16 36 38 13 24 5 32 9 21 26 28 6 14 7 32 34 7 22 30 6 26 27 33 29 21 12 0 29 11 16 11 3 27 28 12 6
3537 3713 3625 3454 2828 3555 2614 3213 2540 4965 4735 4863 2805 4064 2829 3538 4625 2882 2568 4293 3500 3979 2746 3827 4133 3099 4734 2868 4804 4175 3970 2517 3496 2956 2610 3465 4512 3999 4885 4408 4649 4970 3255 3172 4029 4635 4475 3020 2908 4789 3433 3397 3345 3540 4390 4977 2691 4970 4007 3933 4680 4892 3373 3538 4641 4588 4477 3604 4080 3563 3509 4691 3224 4787 2669 4276 2651 3338 4222 18 3370 3771 3843 4916 4286 4560 4735 4712 2668 3951 3177 4221 3037 4392 3757 4699 3469 3139 3247 4413 3644 4558 4856 3782 3187 2829 3124 3540 4332 4503 4094 2930 4866 3358 3773 3883 3650 3652 2903 2559 2618 4212 3287 4019 3116 4 39 11 19 31 34 17 8 35 5 7 6 3 12 18 13 3 18 27 3 9 26 27 12 35 2 25 31 6 36 26 19 27 1 30 33 34 19 30 15 21 3 20 24 19 4 31 14 19 38 27 9 11 36 32 39 10 28 12 11 12 2 3 1 20 11 37 34 13 20 30 38 20 28 35 28 24 15 16 27 4 13 20 12 27 17 31 29 18 20 24 28 8 22 28 25 35 9 36 14 20 12 27 9 34 15 3 26 21 7 27 14 35 38 5 25 0 13 13 29 9 33 12 38 27
3276 4554 2910 4129 3036 3629 2504 4545 3774 2936 4254 4397 17 4469 4978 4819 4438 4556 4877 3241 4850 4404 3749 2809 4827 4194 4899 4543 2522 4990 3611 4609 2697 4909 3927 3620 3945 4742 3437 4443 3999 2915 3708 3581 2986 4564 4931 3260 4718 3733 2810 2968 2821 3326 3084 3422 3771 2788 2748 3173 3687 2540 3236 2930 4744 4314 2562 3700 3071 2600 3489 3407 3279 3158 3958 3947 2622 4704 3228 2561 4467 2997 4167 3709 3537 3202 4148 2633 3082 2943 4728 3354 2926 2836 3931 2548 3244 6 3254 3537 2977 2767 4603 2752 4569 4849 3608 4205 3921 3184 3208 3381 4438 4625 3127 4750 2564 3775 2992 3660 2731 4736 2508 4036 3164 8 24 36 21 16 38 2 14 26 39 18 8 7 27 39 21 37 14 30 7 7 36 11 5 21 3 34 1 36 9 17 11 2 29 29 25 9 27 38 26 32 1 8 33 33 34 5 4 35 37 19 23 20 12 21 23 1 36 17 9 33 29 23 4 35 16 30 13 2 29 15 39 36 8 38 35 29 1 26 4 38 37 7 37 12 21 15 8 29 32 22 1 30 14 5 4 13 9 30 10 27 2 27 19 35 34 38 15 31 26 37 28 22 5 2 24 5 0 15 39 14 8 21 5 18
4284 4148 3498 4142 4159 4136 4475 3008 2679 3991 3975 3316 4188 4462 4735 3957 4056 4090 3528 3111 3338 3437 3820 4421 4910 4658 4118 2933 3310 4102 4414 3989 17 3724 2771 4930 3239 4756 4208 4216 3709 2689 4716 4556 4824 4054 3485 3975 2598 4768 3811 4364 4542 2667 3082 15 3039 3218 3960 3800 3426 3470 4706 3030 4182 3611 4300 4771 2548 4663 4367 3161 16 3232 3250 4480 2827 2853 3284 3713 3813 4329 4457 2969 4546 4440 2575 3309 2976 2768 3384 3825 2535 2842 4054 4715 3053 4762 3047 2623 4183 3353 4667 3941 3869 3459 4021 2573 3210 3555 4143 3061 4678 4894 3563 3941 4726 3602 3495 3262 2882 2633 4932 3973 2990 25 12 20 37 5 13 5 17 17 6 9 7 4 21 6 27 11 34 30 34 14 25 34 9 31 28 34 10 23 37 8 14 8 10 35 19 11 22 30 9 7 23 35 13 23 7 27 35 7 18 6 12 32 36 9 15 21 7 2 10 1 11 21 35 9 17 10 16 18 13 16 4 10 32 13 35 22 27 22 35 17 15 11 33 34 6 21 13 38 14 21 29 20 5 13 27 36 4 21 1 3 7 24 17 23 24 4 21 26 7 11 36 14 26 32 19 27 6 0 14 7 11 1 5 9
2531 3935 2890 4902 4114 3597 3292 2880 3103 2638 3758 4497 2901 2785 4621 4827 2718 4087 4180 4892 4057 4207 3263 3259 4854 4161 3437 2959 2978 4376 4160 4293 3979 4978 4746 3737 2794 3117 3088 4675 4086 3150 4683 3847 3823 3348 4609 4235 4080 2597 2642 2872 3670 4667 3753 3731 3130 4636 2690 3773 2504 4542 4749 4969 3982 3145 4249 3437 4883 2789 3775 2984 3108 3189 4335 4632 2930 4731 4894 4573 4676 4754 3848 4814 3739 7 3166 3656 2685 4688 2795 4251 3427 4001 4133 4754 3516 3390 3130 3392 3252 4029 4837 3131 3347 3417 2515 4993 4763 2578 3865 4616 3609 3758 4677 2702 3099 4552 4539 2747 2920 3289 4813 2800 4920 25 26 1 38 12 39 33 30 1 38 12 31 30 32 28 32 22 28 17 25 5 4 35 22 39 21 22 5 4 17 35 30 18 11 39 29 37 38 20 24 38 7 29 6 35 37 13 6 23 32 29 8 1 18 29 26 14 17 11 18 19 20 37 10 30 5 18 12 5 38 32 38 4 33 12 4 36 16 4 13 8 10 18 23 38 22 34 23 25 35 5 19 31 25 33 5 36 5 11 7 19 10 21 8 8 11 36 15 36 25 23 8 21 36 26 4 16 31 3 0 18 32 9 2 22
3433 3953 4000 4526 4188 2739 4122 4874 2676 2609 2559 4704 3440 3653 4472 2636 4626 4324 2844 3131 3613 3719 3563 3512 3358 3576 3542 4257 3838 2926 3887 4107 4487 4375 4444 4111 4439 4022 3404 3555 4297 4058 2582 2867 4363 3175 4515 4986 2925 4303 4249 4218 3382 4750 4617 2792 4816 4336 2590 3313 4688 4076 3496 3904 2673 3607 3077 3248 4739 3974 3231 2900 2895 4733 2823 2949 2503 2534 2547 2634 3351 3461 4330 4981 4400 2949 4029 4763 4920 3199 3253 3559 4178 3015 4468 3762 4235 4705 4269 4412 4778 3197 4622 3387 3338 3754 3519 4715 16 4229 4056 2574 4760 2603 3559 2847 4680 4207 2722 3029 4570 4614 4119 3771 3789 20 27 18 33 2 11 7 32 7 21 15 16 2 1 19 8 34 3 21 12 12 2 15 33 21 6 24 32 35 10 21 32 22 1 33 6 5 2 25 16 6 37 16 23 25 2 9 4 23 38 32 20 7 37 11 26 30 19 24 27 3 36 11 30 2 8 33 19 9 27 7 5 5 7 8 17 23 21 37 35 15 34 36 22 3 15 13 17 11 27 9 6 28 32 21 23 30 16 20 24 22 6 28 21 12 34 4 9 14 15 38 7 33 34 23 9 6 19 2 35 0 8 31 10 23
3623 2788 4486 3588 4068 4637 3290 4323 2500 4969 3853 3340 4838 3767 2875 3787 2875 4829 3956 3589 3081 2653 4854 2516 3466 3232 4085 3268 3629 4041 3274 3921 2901 4715 4606 3545 2845 4406 3659 4796 3103 3378 3287 3418 3788 3545 3310 4264 4981 4737 4056 4081 2821 4169 2851 2671 3808 4995 3984 4683 2520 4658 4814 3343 2843 4257 3849 4045 2744 4747 4422 2987 4664 3353 3131 2754 3707 4775 2730 4831 3179 4464 4673 3506 3246 4681 4841 2661 2988 4791 4933 3054 3346 3787 4831 4173 4440 4110 3348 4998 3563 3780 4098 4849 3648 3751 3668 15 2513 3395 3391 4881 4109 4928 3086 4030 2954 3137 3822 3456 3198 3881 3080 2692 3023 11 31 7 16 20 14 28 17 13 13 15 6 28 5 38 28 8 31 20 15 39 7 2 28 20 1 28 21 26 4 10 1 29 37 8 6 6 39 1 22 5 1 14 32 5 34 22 18 21 18 15 13 14 17 19 2 34 25 27 22 28 3 14 27 7 27 32 33 27 34 38 5 26 28 33 35 36 13 21 3 19 11 18 37 22 8 5 6 1 29 16 25 7 8 27 6 36 1 27 12 35 30 24 17 37 38 17 1 12 9 35 33 1 13 18 23 4 35 20 24 34 0 21 37 11
3385 2824 3475 4735 3307 2768 3399 3389 4172 4885 2916 3769 3923 2991 2859 2768 4612 4270 3914 3122 3307 2813 2688 4097 4774 2704 4216 3555 3851 3104 4722 3597 3746 3755 2895 3090 3778 3973 3407 4554 4784 2672 3996 2753 3681 2799 4319 3155 3940 4327 4625 2537 4904 3930 4297 3719 4178 3266 4880 4662 4671 3616 3162 3893 3063 3294 3821 2848 4082 3585 3654 3246 3664 2538 3427 3679 4460 3511 4648 3972 4201 3654 2536 4598 4684 4904 4688 4036 4976 2556 3878 2861 4668 2534 2895 3959 3357 4848 4539 3820 2563 4221 3092 3226 2975 2680 3600 2647 3166 4112 4362 4114 4022 4094 4289 4494 2979 3336 3282 2554 3055 3245 2612 4124 3363 9 12 34 13 19 35 31 12 6 36 22 6 7 32 14 16 34 26 38 21 8 38 12 29 20 30 14 26 12 11 4 30 38 18 11 12 13 32 20 16 6 37 8 26 16 39 3 38 38 15 37 6 15 28 10 21 8 3 8 31 20 37 23 12 35 19 24 25 13 11 24 16 13 23 9 8 37 36 25 32 30 36 37 19 37 21 34 4 20 31 38 4 30 38 23 22 27 17 8 22 34 17 21 8 8 22 38 29 10 19 39 14 4 11 2 27 20 32 5 38 32 36 0 25 38
4431 3233 4737 3670 3487 3419 4439 4783 4545 4653 2733 3912 4154 3495 4513 3967 3306 4812 3215 4215 3323 4425 3300 2846 3609 3847 2835 4266 3674 4200 2976 3989 3702 4504 3535 3782 3009 2539 2908 2900 2961 4362 4061 2783 3232 4206 4337 4652 4270 4505 3258 2560 4517 4609 4655 3956 4759 4745 4772 4647 4236 4724 4223 3803 3338 4308 3689 2634 3813 3294 2984 2899 4487 2794 3410 3011 3810 4528 2695 3483 3900 4941 3282 3192 3896 3734 4621 4340 4945 3734 4762 4374 4187 3719 4506 4398 2969 3575 3909 3051 4968 3057 3156 2882 4131 4067 3374 14 4105 3748 4639 4485 3501 3456 2637 2886 4214 3725 2957 2951 3939 2614 3576 4444 3000 20 6 34 36 16 12 28 28 24 7 27 19 19 35 13 19 34 30 10 21 16 35 23 5 33 23 8 17 12 1 11 12 25 31 7 8 7 37 26 17 1 36 4 2 35 31 37 27 35 34 2 7 34 37 37 24 13 3 20 6 4 15 30 6 12 13 29 23 33 6 38 8 8 10 1 31 17 22 38 34 18 30 29 28 38 9 30 35 39 31 7 4 37 28 11 30 35 11 15 37 22 39 29 10 24 39 25 21 36 32 9 28 29 37 21 29 1 5 26 5 8 39 19 0 16
3196 3315 4165 4800 4751 2571 2871 3998 4889 4729 4160 3446 3521 4428 3264 3399 4937 2818 4763 4248 4251 3813 4301 3474 4768 4358 3219 3699 2893 4108 4622 2582 2905 4030 4440 4865 3420 4170 4606 4435 3527 4274 3238 4442 4011 4015 3532 4979 3218 2864 4802 2969 2865 4469 3698 4443 3631 3370 3957 3944 4539 2811 2720 3487 4923 3417 2599 3710 4241 2976 4990 2697 2747 4898 2574 3432 3071 2977 3977 3262 4629 4883 4953 4565 3928 3574 3539 3633 3382 4599 3219 4379 3224 3055 3418 4041 2857 3506 2995 4128 3713 3714 4639 4680 3403 3145 3074 2616 4622 4679 4250 3173 2994 4760 3662 3022 4096 3233 4280 3194 3517 3571 3324 4769 3099 11 24 11 15 22 17 9 20 23 29 6 29 13 39 38 28 7 35 15 13 16 34 22 3 24 33 5 3 26 31 29 2 8 36 36 6 25 10 33 10 18 13 29 5 31 11 19 24 5 34 24 33 33 1 17 28 8 5 26 14 7 4 8 29 23 21 7 35 34 5 25 29 20 26 36 29 31 23 24 26 14 9 19 21 36 15 37 19 31 22 7 30 24 17 34 3 28 2 28 8 25 4 30 13 35 25 22 29 7 31 15 15 36 11 28 26 8 37 39 29 21 13 39 4 0
EOF
