NAME: christofides_hard_n75_s0
TYPE: TSP
COMMENT: christofides_hard generated explicit tsp
DIMENSION: 75
EDGE_WEIGHT_TYPE: EXPLICIT
EDGE_WEIGHT_FORMAT: FULL_MATRIX
EDGE_WEIGHT_SECTION
0 30 24 36 33 23 5 12 14 6 5 37 4 8 38 32 8 24 31 16 12 12 10 1 21 36 8 22 31 30 18 26 30 35 22 5 11 2678 3057 3083 4719 2829 2594 4693 4467 3664 4040 4378 3301 4277 3105 2978 4362 3952 3892 2835 3293 3131 3461 4326 4567 3273 4417 4310 2719 3081 4633 4601 2994 4204 4600 4422 4477 12 2946
27 0 1 28 34 19 5 8 20 18 8 1 39 29 9 39 21 34 12 20 6 28 34 13 16 14 23 15 17 31 34 14 37 24 28 31 1 3888 3908 3144 4499 3663 2945 2561 3376 3613 4384 3503 4044 2620 4575 2741 4628 4104 3563 2637 4363 3476 3234 3276 3307 2524 3858 2685 4808 4567 4027 4343 4327 3168 3991 4290 4822 2849 2918
37 38 0 28 19 21 22 32 4 16 22 19 11 34 26 3 14 33 8 31 8 38 5 12 1 24 10 35 22 1 33 33 30 32 5 26 24 4323 2649 2805 2693 3981 4186 4994 3036 4850 4939 2702 3259 3985 2797 3690 2777 2628 4951 4260 4315 3764 3604 4065 4871 2839 3933 2982 2767 4283 2747 4816 3060 3389 2929 4959 2725 3047 4382
23 3 38 0 3 16 28 16 16 15 14 20 8 28 36 18 37 17 39 8 11 22 17 9 25 25 8 39 11 18 27 6 37 39 36 16 29 2970 4868 4321 4649 3143 3110 4885 4854 2617 4813 3920 4753 4506 3233 4352 4783 4899 2565 3072 3226 4040 2747 5 3217 2863 3501 4350 4990 4238 3101 4437 4945 4682 4924 2967 4589 4287 4675
20 3 35 2 0 28 22 19 7 34 23 10 8 8 6 26 23 15 19 21 8 30 34 19 30 37 30 6 4 33 22 31 29 5 16 22 27 4528 14 3107 4972 3723 4058 3299 4464 2745 2749 4650 4352 4380 4263 11 14 3501 2609 4544 3295 4896 3212 3112 2592 4879 3400 3668 2566 2623 2533 2536 2949 2740 16 3878 4864 4983 4383
31 36 17 21 19 0 6 30 9 34 31 16 31 33 5 32 23 5 25 27 17 33 12 33 6 17 35 9 35 7 2 34 37 14 39 32 20 4576 3117 4915 2930 4825 3275 4739 3293 4533 3940 4036 4601 4232 4302 4864 4120 4117 3474 2715 3299 3829 2782 4477 4486 2782 4171 2694 2704 4622 3819 2723 4278 2884 2962 3791 3966 3913 3233
24 16 9 36 17 10 0 32 30 34 24 14 21 31 27 3 34 21 37 6 32 38 30 28 26 14 27 38 26 4 16 18 33 13 14 39 13 4464 3220 4312 4747 2686 3014 3902 3047 4219 4312 4973 2820 4494 4982 4749 2785 3320 3512 3804 3089 2636 4443 4500 2580 3982 3993 4244 3628 4993 4848 4542 3701 3063 7 2720 10 3348 3058
4 11 21 38 9 11 28 0 29 19 9 34 24 28 36 30 11 13 6 7 12 16 26 2 10 10 15 24 10 8 22 2 38 22 27 31 3 4191 6 2598 3814 4501 2697 3997 4905 4576 2944 3353 3641 3309 3301 2794 16 2892 4132 3227 3628 3317 3831 3535 4225 3656 4214 4857 3250 4790 4244 2730 3961 2931 4724 3874 4237 3199 2729
8 1 37 4 14 6 21 9 0 25 21 22 29 23 31 5 13 20 24 30 6 6 26 37 6 3 30 31 17 16 38 12 3 34 26 33 1 3337 4431 4994 2728 4897 4957 2716 4219 4154 4098 4884 3569 2990 2611 3945 2890 3630 2963 2927 3350 4425 3587 4654 4738 4659 3375 3754 2675 3212 4402 3449 2603 3575 4817 3899 3234 4195 3501
24 36 15 26 31 30 6 35 16 0 20 17 30 7 15 16 39 15 28 6 26 6 38 38 19 3 11 5 34 38 10 38 28 14 25 5 39 3757 4992 4627 3313 3953 3829 4797 4648 4663 4210 3070 3218 3097 4398 3941 3812 4335 2582 3184 4396 4809 4539 3509 2905 3411 3516 4539 3712 2810 4129 4990 4647 4847 2857 4705 4652 3726 3571
24 32 18 30 38 31 6 10 31 10 0 1 3 9 10 12 35 7 21 32 38 7 33 18 2 6 1 31 18 27 4 2 37 8 2 25 10 4711 3440 3618 2970 15 4524 4661 12 3953 2518 2989 4363 15 2804 3985 2603 3239 3468 2944 3955 3252 3986 2723 2575 4168 3033 4289 2526 3137 2724 4528 3251 4782 3563 4776 4582 4161 3425
17 2 12 24 25 2 35 31 19 8 9 0 14 21 3 24 18 9 39 29 24 22 31 26 2 18 26 18 30 9 12 35 13 8 12 10 24 3614 4631 2641 2863 4947 2638 4511 3311 3122 3062 4499 4874 2644 2690 4964 4561 2807 4672 2758 2955 4592 4976 2673 4136 3301 3888 3051 4722 3110 3429 3427 2846 3997 4907 3813 17 4958 4095
15 11 38 6 22 39 6 27 33 26 12 31 0 1 22 29 19 38 15 35 8 2 12 19 23 8 6 12 22 8 27 31 14 11 18 38 17 4744 4378 3507 3073 4090 7 4404 3433 2767 4669 4049 4880 4318 4268 4229 2575 2578 3641 4864 3230 2502 4333 2739 3324 3046 3118 4137 4089 3754 2958 2547 2736 3273 2826 2996 2573 4222 3811
21 5 23 8 31 13 27 18 34 30 5 10 20 0 28 22 26 5 26 29 19 18 20 25 31 34 7 28 30 31 15 12 4 18 8 37 29 4667 2750 4608 3566 2862 3887 3341 4578 2823 2540 4640 3062 4719 3166 4413 4051 4205 4496 3816 4593 4771 3959 2726 3377 4606 3089 3539 4134 4091 3728 4203 4014 3551 3841 2872 4555 4214 3505
16 13 19 17 6 18 27 15 9 19 7 9 34 32 0 7 9 23 31 11 36 19 3 36 39 31 33 30 13 4 28 5 23 31 13 19 19 3766 2664 3626 4758 4660 3914 4748 3005 3035 4862 3669 4354 2944 2605 3943 3706 3656 8 4248 3794 4777 2932 3629 3677 4902 4213 3114 2808 4626 4287 4039 4711 3383 4038 2738 4768 3870 2950
34 14 15 23 25 14 11 18 16 5 20 20 7 17 16 0 1 14 1 10 10 30 13 24 26 17 32 23 16 18 4 13 12 9 6 28 39 6 3268 3790 4875 3048 2609 3519 3139 4961 3048 4244 3894 4737 2871 2509 4609 2602 2901 3930 4802 3256 3080 4538 4766 4145 2939 3530 3255 3994 2541 4520 4478 3893 4431 2653 4619 3412 2893
1 2 4 33 23 3 12 1 12 25 30 39 39 32 21 5 0 1 22 24 18 30 36 8 10 10 33 9 21 31 23 37 33 32 34 15 22 3583 3637 3253 3122 3905 2724 4261 4536 4098 3656 3330 4392 4517 2697 3933 3216 3728 3083 13 4719 4877 3713 2851 3309 3315 3743 4114 3337 4326 2578 2812 4825 4799 4327 4921 4755 4626 3191
31 26 22 7 16 16 18 24 6 39 38 16 33 36 9 10 26 0 2 5 19 4 28 6 24 23 38 13 39 33 36 24 12 34 4 38 9 4088 4833 3861 4222 4892 4816 4247 4977 4718 3659 4250 4248 2537 2563 3096 4162 4068 3686 4597 12 4302 3915 3945 3650 2789 3339 3897 4004 3360 4021 3881 2965 3825 2710 4464 4749 4650 3390
5 8 13 11 16 33 15 29 10 19 28 7 7 14 28 32 16 38 0 21 23 26 30 26 13 10 34 19 14 14 25 39 28 25 33 13 31 2503 3759 3657 3655 4210 2581 9 4056 4477 3467 2517 3012 2912 3878 15 2500 2652 3045 4175 3272 4806 2588 4585 18 4250 4662 4784 3085 4306 2547 4244 3614 2508 2979 2975 4898 4186 3454
10 18 1 30 4 8 32 10 10 5 26 25 38 17 5 19 37 13 8 0 30 35 5 29 36 33 30 14 20 12 39 24 20 25 36 34 7 7 4098 4917 4598 4449 2893 3168 4197 3390 4890 4493 4889 3833 2559 3100 3318 3329 4740 3361 4661 3679 3114 4963 4449 3428 4011 3174 4212 3479 2589 4526 3407 2693 3412 4382 4472 4740 3851
5 27 16 14 9 32 14 24 11 25 5 22 12 17 39 32 27 24 24 12 0 32 14 26 27 19 17 21 1 2 6 30 23 14 3 33 5 3318 2727 4875 3569 4739 2693 4935 4458 4903 4685 3292 2629 4845 3208 3028 4627 4056 3924 3995 4743 3198 2740 4567 2997 2685 3577 4802 4331 2743 4890 4823 3961 2678 3643 4332 3159 2869 4414
17 31 27 22 18 13 7 2 21 20 38 17 10 18 8 7 33 25 15 3 20 0 14 22 24 23 4 32 2 16 6 20 23 4 39 35 10 2809 4819 3370 3847 2781 2964 2579 11 2757 4960 2709 3708 4824 4364 4863 2799 3077 4282 4133 3016 2690 4578 3632 2633 4028 4092 4499 3270 4723 4425 2711 4698 3839 3903 4522 3816 3144 3995
27 3 14 9 7 39 21 19 7 23 15 10 22 2 20 12 22 7 39 6 9 31 0 18 28 3 4 32 24 23 35 37 36 26 28 19 13 3049 4627 4935 3998 4242 4600 2903 3956 3008 3574 3991 3644 4457 4612 4883 4928 3894 4208 3114 2758 3129 2565 4973 3019 4750 3089 3897 4435 3733 4672 7 4116 3639 3433 4293 3692 3054 4918
21 21 18 22 14 17 24 34 17 11 33 3 34 19 14 1 27 34 17 20 10 9 39 0 39 10 33 26 34 30 3 28 37 4 14 12 29 3371 4671 3343 3883 2644 8 4146 2910 3051 3459 4766 3055 4969 4858 2617 2500 4523 2922 3222 4683 3783 3774 4283 3133 4234 3092 4133 4542 18 3862 2589 2668 4591 3912 3460 3657 4664 4299
27 10 10 18 38 32 18 18 22 11 20 13 17 38 19 9 36 28 1 6 38 11 5 38 0 17 24 28 24 32 12 26 12 20 7 35 25 4229 3693 3346 4156 3299 4117 3553 4283 4042 3238 3886 3733 4425 4645 4483 3921 3300 3292 3185 8 3783 2893 3025 3852 3738 2501 3872 4967 3027 3797 3971 3341 4103 4736 2784 3452 4562 2666
17 6 10 18 31 20 23 12 6 12 13 5 4 1 22 17 6 30 28 36 22 35 38 17 1 0 17 28 14 8 9 2 27 25 28 22 11 3673 4514 3404 3444 3895 4366 2788 4722 3746 4190 2767 3189 2750 4045 4738 4965 3969 2864 4351 4209 2873 4417 2643 4277 3653 3970 3274 2765 2710 4050 2935 3319 3977 4097 2694 4076 4856 3923
12 34 20 24 3 3 17 38 23 39 35 31 34 39 32 15 36 6 17 35 18 5 1 1 18 7 0 20 22 22 39 38 2 4 21 13 1 2527 4514 3417 2806 3520 4041 2987 3123 4273 3805 4880 4975 3321 2950 2699 4933 3243 2918 2825 3313 4620 4220 3216 3678 4002 3586 3139 2510 2594 3136 3803 3438 4397 4145 4607 4616 3250 2747
17 17 33 2 26 33 32 6 4 8 13 4 1 25 37 29 29 9 15 27 20 22 1 6 31 29 36 0 17 11 11 28 25 20 19 27 3 2682 2897 3157 3099 3705 3187 4741 4157 4571 3041 2958 4714 3869 4571 3896 3409 3458 3128 3949 3919 8 3854 2767 4283 4847 3034 3842 3427 4309 4888 3377 2877 2621 3874 3007 4903 2962 4081
23 24 21 1 24 1 5 30 4 14 13 2 4 27 15 24 4 27 7 17 28 14 1 24 23 7 14 10 0 30 21 32 8 5 15 16 13 3713 2782 3708 3286 4039 4210 3855 4804 4744 3402 4559 3003 4586 3666 4086 3962 4921 3877 4980 4515 2504 3145 3751 4591 2944 4600 4808 4658 7 3563 4580 4124 3486 14 2674 4348 3600 3333
14 9 25 28 13 1 26 21 33 14 14 20 23 21 32 2 39 26 34 13 39 37 39 9 3 17 24 12 1 0 15 4 6 6 24 39 5 4167 3406 4062 3677 3759 4131 2920 4938 4974 4496 4188 3589 4194 3668 2902 3858 4678 2939 3067 2536 3792 4512 2652 3433 4071 3803 4181 4633 4722 2786 4259 4176 4587 3488 3307 4723 4842 4942
27 22 25 35 2 26 17 37 32 21 18 36 2 29 15 18 2 27 11 21 34 1 28 22 11 27 22 24 16 36 0 28 36 18 33 35 1 2988 3056 2553 3620 4338 3870 11 3455 4623 3341 2984 3650 4758 4792 4089 4761 2673 2874 4860 3018 3371 4620 2967 4434 3476 2849 4341 3339 3931 2718 4549 4917 3937 4083 4693 4797 13 4339
37 10 34 37 6 19 12 14 36 1 37 18 38 17 1 7 14 5 18 28 16 23 2 36 10 33 37 7 36 8 6 0 39 2 38 28 38 3594 2570 3813 2862 2782 3684 4247 3448 4171 4781 3249 4019 3685 4710 4914 4316 4211 4523 4070 3655 3505 4933 3765 4273 4811 4158 4139 4751 4519 4222 4154 3191 2670 4612 2920 3643 2639 3251
7 28 12 13 39 5 35 35 7 34 15 18 16 30 3 24 20 17 8 31 32 22 35 33 25 7 9 26 21 16 17 2 0 37 3 37 8 3043 4433 2640 3446 4503 2956 4869 3422 3073 3306 2791 3839 3567 2764 3724 4545 4462 3425 3498 3020 4602 4915 17 3639 3451 4253 4872 4483 3504 4616 4398 3127 4259 4910 3183 4987 2599 4410
22 6 11 2 10 4 8 6 18 17 29 11 2 3 28 9 13 30 15 13 39 23 8 19 30 23 16 26 34 10 32 22 8 0 15 1 28 3224 2626 2779 3711 3968 4493 2543 2811 4250 3258 3905 2942 3660 4150 4930 3607 4542 4617 2527 4628 2633 4069 4048 4643 4331 4911 4186 2829 2800 4586 4306 4173 4582 3428 4080 3167 4417 3193
39 7 39 24 10 27 10 20 31 3 32 3 18 10 29 17 38 27 32 24 18 9 34 33 13 39 3 25 1 13 32 37 10 2 0 16 31 3519 4984 2951 3408 4439 4145 2749 4825 2814 4634 4441 4434 2550 4021 2923 4059 4114 4673 3798 4452 4293 4150 3274 4664 4530 4954 4275 3968 3851 4054 2953 4959 3377 4396 3001 2956 4035 3544
28 1 1 8 21 28 5 19 5 3 23 33 29 5 15 6 9 9 19 16 16 36 20 32 37 27 25 39 4 19 5 33 2 15 24 0 35 4553 3399 3128 3609 4810 2645 3984 3947 4535 2679 4115 2872 10 4107 4822 3919 4795 3375 3536 4818 4396 3679 4497 4262 3954 3756 3762 4657 3507 3545 3879 4855 3267 3995 3044 3760 3972 4012
31 2 20 38 16 2 35 18 2 23 38 3 26 25 33 21 31 35 35 10 5 21 13 38 24 21 12 6 24 39 36 11 27 16 3 34 0 2609 2797 3771 4155 4594 3355 2573 4013 4587 3448 7 2843 2740 3401 2681 3003 2575 3578 3954 3016 3513 4935 19 2716 2958 3680 4248 3173 3560 3689 4873 4536 4224 4357 3962 4983 3830 4517
2678 3888 4323 2970 4528 4576 4464 4191 3337 3757 4711 3614 4744 4667 3766 6 3583 4088 2503 7 3318 2809 3049 3371 4229 3673 2527 2682 3713 4167 2988 3594 3043 3224 3519 4553 2609 0 5 19 38 15 3 38 33 28 39 7 7 14 28 35 32 11 38 23 33 17 30 15 31 22 31 29 4 4 14 17 34 37 29 9 38 34 33
3057 3908 2649 4868 14 3117 3220 6 4431 4992 3440 4631 4378 2750 2664 3268 3637 4833 3759 4098 2727 4819 4627 4671 3693 4514 4514 2897 2782 3406 3056 2570 4433 2626 4984 3399 2797 1 0 26 17 21 33 5 5 17 37 38 31 2 37 38 4 4 1 30 12 6 3 13 32 12 24 14 6 34 9 8 32 34 17 15 16 3 26
3083 3144 2805 4321 3107 4915 4312 2598 4994 4627 3618 2641 3507 4608 3626 3790 3253 3861 3657 4917 4875 3370 4935 3343 3346 3404 3417 3157 3708 4062 2553 3813 2640 2779 2951 3128 3771 35 20 0 30 21 18 35 26 7 27 10 16 33 22 10 16 11 19 33 28 25 17 1 16 27 31 4 12 6 14 18 17 9 9 3 34 7 16
4719 4499 2693 4649 4972 2930 4747 3814 2728 3313 2970 2863 3073 3566 4758 4875 3122 4222 3655 4598 3569 3847 3998 3883 4156 3444 2806 3099 3286 3677 3620 2862 3446 3711 3408 3609 4155 21 13 7 0 3 23 9 36 24 1 2 18 38 34 39 15 6 31 2 34 17 2 11 13 7 22 5 27 20 12 35 27 39 10 14 38 16 5
2829 3663 3981 3143 3723 4825 2686 4501 4897 3953 15 4947 4090 2862 4660 3048 3905 4892 4210 4449 4739 2781 4242 2644 3299 3895 3520 3705 4039 3759 4338 2782 4503 3968 4439 4810 4594 26 26 15 32 0 36 8 31 27 24 38 26 2 28 24 26 26 14 10 22 21 12 26 12 19 27 30 17 15 33 22 9 27 11 4 34 37 14
2594 2945 4186 3110 4058 3275 3014 2697 4957 3829 4524 2638 7 3887 3914 2609 2724 4816 2581 2893 2693 2964 4600 8 4117 4366 4041 3187 4210 4131 3870 3684 2956 4493 4145 2645 3355 18 38 3 6 28 0 34 17 22 36 21 7 21 15 8 33 31 2 16 19 25 18 26 21 34 1 37 9 21 27 9 29 21 27 39 37 12 22
4693 2561 4994 4885 3299 4739 3902 3997 2716 4797 4661 4511 4404 3341 4748 3519 4261 4247 9 3168 4935 2579 2903 4146 3553 2788 2987 4741 3855 2920 11 4247 4869 2543 2749 3984 2573 10 18 29 27 35 23 0 8 37 28 33 38 28 22 14 35 17 27 38 27 27 6 37 9 1 10 16 15 31 5 25 8 1 32 38 11 37 3
4467 3376 3036 4854 4464 3293 3047 4905 4219 4648 12 3311 3433 4578 3005 3139 4536 4977 4056 4197 4458 11 3956 2910 4283 4722 3123 4157 4804 4938 3455 3448 3422 2811 4825 3947 4013 30 7 15 10 1 7 6 0 13 1 12 4 31 36 17 19 30 20 28 34 14 18 10 14 38 35 26 20 5 39 30 23 2 32 25 25 34 3
3664 3613 4850 2617 2745 4533 4219 4576 4154 4663 3953 3122 2767 2823 3035 4961 4098 4718 4477 3390 4903 2757 3008 3051 4042 3746 4273 4571 4744 4974 4623 4171 3073 4250 2814 4535 4587 3 29 22 32 3 29 33 23 0 31 14 6 38 13 37 11 18 20 29 21 34 11 36 28 13 8 13 2 37 32 8 7 32 38 29 27 19 14
4040 4384 4939 4813 2749 3940 4312 2944 4098 4210 2518 3062 4669 2540 4862 3048 3656 3659 3467 4890 4685 4960 3574 3459 3238 4190 3805 3041 3402 4496 3341 4781 3306 3258 4634 2679 3448 12 10 36 17 34 8 11 13 3 0 8 33 1 3 19 2 30 31 32 9 12 10 33 39 29 6 28 18 19 29 21 14 5 30 34 4 26 15
4378 3503 2702 3920 4650 4036 4973 3353 4884 3070 2989 4499 4049 4640 3669 4244 3330 4250 2517 4493 3292 2709 3991 4766 3886 2767 4880 2958 4559 4188 2984 3249 2791 3905 4441 4115 7 15 11 16 33 17 24 17 17 7 31 0 9 32 7 29 29 24 2 22 17 35 2 29 6 24 16 28 10 38 8 27 18 15 14 30 8 39 11
3301 4044 3259 4753 4352 4601 2820 3641 3569 3218 4363 4874 4880 3062 4354 3894 4392 4248 3012 4889 2629 3708 3644 3055 3733 3189 4975 4714 3003 3589 3650 4019 3839 2942 4434 2872 2843 24 6 3 24 19 18 10 21 29 23 27 0 34 4 14 33 22 28 12 28 12 5 16 37 14 6 27 17 17 31 2 35 1 30 17 23 16 25
4277 2620 3985 4506 4380 4232 4494 3309 2990 3097 15 2644 4318 4719 2944 4737 4517 2537 2912 3833 4845 4824 4457 4969 4425 2750 3321 3869 4586 4194 4758 3685 3567 3660 2550 10 2740 24 3 14 31 34 38 24 35 29 38 6 23 0 10 31 16 17 24 11 7 1 31 28 13 14 30 31 26 35 4 4 27 9 32 1 39 11 14
3105 4575 2797 3233 4263 4302 4982 3301 2611 4398 2804 2690 4268 3166 2605 2871 2697 2563 3878 2559 3208 4364 4612 4858 4645 4045 2950 4571 3666 3668 4792 4710 2764 4150 4021 4107 3401 15 2 23 14 32 23 27 22 13 2 39 2 2 0 18 5 35 2 3 29 33 17 21 18 35 32 14 27 32 24 22 23 7 13 8 28 38 14
2978 2741 3690 4352 11 4864 4749 2794 3945 3941 3985 4964 4229 4413 3943 2509 3933 3096 15 3100 3028 4863 4883 2617 4483 4738 2699 3896 4086 2902 4089 4914 3724 4930 2923 4822 2681 12 13 2 1 18 20 23 35 27 30 1 35 8 38 0 1 25 9 27 25 30 12 29 8 17 30 18 21 24 25 1 32 34 10 29 3 14 26
4362 4628 2777 4783 14 4120 2785 16 2890 3812 2603 4561 2575 4051 3706 4609 3216 4162 2500 3318 4627 2799 4928 2500 3921 4965 4933 3409 3962 3858 4761 4316 4545 3607 4059 3919 3003 20 32 14 21 27 32 31 15 9 28 4 21 16 13 9 0 27 17 5 24 20 7 28 10 28 7 5 3 29 6 5 24 32 20 26 20 10 36
3952 4104 2628 4899 3501 4117 3320 2892 3630 4335 3239 2807 2578 4205 3656 2602 3728 4068 2652 3329 4056 3077 3894 4523 3300 3969 3243 3458 4921 4678 2673 4211 4462 4542 4114 4795 2575 23 2 36 11 2 12 28 16 27 5 25 36 25 7 13 33 0 1 12 16 1 34 13 21 7 11 23 10 37 21 21 32 19 2 28 4 10 19
3892 3563 4951 2565 2609 3474 3512 4132 2963 2582 3468 4672 3641 4496 8 2901 3083 3686 3045 4740 3924 4282 4208 2922 3292 2864 2918 3128 3877 2939 2874 4523 3425 4617 4673 3375 3578 7 31 23 27 17 26 1 32 10 9 14 22 39 17 11 32 36 0 38 8 33 31 23 19 36 14 5 9 23 1 35 36 26 9 24 7 20 7
2835 2637 4260 3072 4544 2715 3804 3227 2927 3184 2944 2758 4864 3816 4248 3930 13 4597 4175 3361 3995 4133 3114 3222 3185 4351 2825 3949 4980 3067 4860 4070 3498 2527 3798 3536 3954 4 35 5 17 30 13 10 32 32 1 4 25 31 26 18 17 32 5 0 1 32 30 15 17 39 38 22 10 25 16 37 26 12 28 32 27 12 33
3293 4363 4315 3226 3295 3299 3089 3628 3350 4396 3955 2955 3230 4593 3794 4802 4719 12 3272 4661 4743 3016 2758 4683 8 4209 3313 3919 4515 2536 3018 3655 3020 4628 4452 4818 3016 7 37 23 29 18 21 36 30 22 39 28 1 1 30 8 17 3 27 18 0 9 10 9 24 31 3 30 22 26 3 2 17 18 2 11 34 3 28
3131 3476 3764 4040 4896 3829 2636 3317 4425 4809 3252 4592 2502 4771 4777 3256 4877 4302 4806 3679 3198 2690 3129 3783 3783 2873 4620 8 2504 3792 3371 3505 4602 2633 4293 4396 3513 8 25 25 26 13 26 34 12 28 26 10 9 35 29 3 13 15 22 23 2 0 23 28 4 16 29 26 37 23 29 28 24 31 11 27 14 7 2
3461 3234 3604 2747 3212 2782 4443 3831 3587 4539 3986 4976 4333 3959 2932 3080 3713 3915 2588 3114 2740 4578 2565 3774 2893 4417 4220 3854 3145 4512 4620 4933 4915 4069 4150 3679 4935 18 11 25 23 16 21 12 5 8 14 28 22 24 21 14 6 7 33 7 34 6 0 34 7 25 10 30 37 31 14 20 32 7 13 16 35 27 17
4326 3276 4065 5 3112 4477 4500 3535 4654 3509 2723 2673 2739 2726 3629 4538 2851 3945 4585 4963 4567 3632 4973 4283 3025 2643 3216 2767 3751 2652 2967 3765 17 4048 3274 4497 19 29 18 5 14 5 31 14 33 39 15 6 29 2 12 8 17 30 18 37 37 2 38 0 3 6 30 14 17 21 6 26 32 4 5 20 18 17 9
4567 3307 4871 3217 2592 4486 2580 4225 4738 2905 2575 4136 3324 3377 3677 4766 3309 3650 18 4449 2997 2633 3019 3133 3852 4277 3678 4283 4591 3433 4434 4273 3639 4643 4664 4262 2716 32 34 39 18 27 37 35 27 35 6 12 19 26 33 11 6 20 31 38 39 23 11 33 0 8 10 26 37 5 33 31 6 8 11 23 34 2 34
3273 2524 2839 2863 4879 2782 3982 3656 4659 3411 4168 3301 3046 4606 4902 4145 3315 2789 4250 3428 2685 4028 4750 4234 3738 3653 4002 4847 2944 4071 3476 4811 3451 4331 4530 3954 2958 8 31 28 4 24 26 6 36 8 35 29 16 39 23 11 39 31 28 3 4 19 33 37 8 0 24 32 14 7 29 36 23 23 20 7 32 38 31
4417 3858 3933 3501 3400 4171 3993 4214 3375 3516 3033 3888 3118 3089 4213 2939 3743 3339 4662 4011 3577 4092 3089 3092 2501 3970 3586 3034 4600 3803 2849 4158 4253 4911 4954 3756 3680 26 18 37 27 25 23 4 14 8 8 23 22 27 13 6 30 26 33 26 26 29 11 10 20 11 0 37 6 17 23 12 13 31 24 38 28 23 26
4310 2685 2982 4350 3668 2694 4244 4857 3754 4539 4289 3051 4137 3539 3114 3530 4114 3897 4784 3174 4802 4499 3897 4133 3872 3274 3139 3842 4808 4181 4341 4139 4872 4186 4275 3762 4248 24 23 23 14 24 29 31 15 17 20 20 29 5 28 20 36 34 17 4 28 36 2 6 26 18 20 0 23 18 39 12 27 7 24 21 25 29 15
2719 4808 2767 4990 2566 2704 3628 3250 2675 3712 2526 4722 4089 4134 2808 3255 3337 4004 3085 4212 4331 3270 4435 4542 4967 2765 2510 3427 4658 4633 3339 4751 4483 2829 3968 4657 3173 35 38 1 37 11 11 14 3 26 9 25 2 35 34 28 14 10 35 27 20 9 3 27 35 31 9 20 0 29 10 2 24 1 36 14 28 22 28
3081 4567 4283 4238 2623 4622 4993 4790 3212 2810 3137 3110 3754 4091 4626 3994 4326 3360 4306 3479 2743 4723 3733 18 3027 2710 2594 4309 7 4722 3931 4519 3504 2800 3851 3507 3560 32 36 38 15 2 11 8 22 24 23 20 34 18 34 34 20 32 10 18 27 9 19 2 28 14 7 31 22 0 4 4 31 33 8 33 36 8 5
4633 4027 2747 3101 2533 3819 4848 4244 4402 4129 2724 3429 2958 3728 4287 2541 2578 4021 2547 2589 4890 4425 4672 3862 3797 4050 3136 4888 3563 2786 2718 4222 4616 4586 4054 3545 3689 8 13 9 13 32 39 31 15 6 30 10 14 36 18 8 26 13 20 26 9 24 7 9 37 30 24 32 18 27 0 17 37 36 20 10 26 9 3
4601 4343 4816 4437 2536 2723 4542 2730 3449 4990 4528 3427 2547 4203 4039 4520 2812 3881 4244 4526 4823 2711 7 2589 3971 2935 3803 3377 4580 4259 4549 4154 4398 4306 2953 3879 4873 28 2 14 5 23 16 9 30 37 37 33 29 32 14 2 39 1 18 3 32 14 3 13 1 34 16 33 38 33 11 0 19 12 22 24 18 22 15
2994 4327 3060 4945 2949 4278 3701 3961 2603 4647 3251 2846 2736 4014 4711 4478 4825 2965 3614 3407 3961 4698 4116 2668 3341 3319 3438 2877 4124 4176 4917 3191 3127 4173 4959 4855 4536 14 4 34 32 29 23 39 22 1 21 38 7 13 33 3 27 16 18 12 14 12 3 20 34 16 25 38 30 6 34 6 0 14 33 16 37 36 11
4204 3168 3389 4682 2740 2884 3063 2931 3575 4847 4782 3997 3273 3551 3383 3893 4799 3825 2508 2693 2678 3839 3639 4591 4103 3977 4397 2621 3486 4587 3937 2670 4259 4582 3377 3267 4224 5 20 18 7 26 14 6 20 14 26 11 36 37 26 1 35 8 15 39 34 12 32 8 23 32 38 31 16 16 13 18 22 0 13 22 33 26 7
4600 3991 2929 4924 16 2962 7 4724 4817 2857 3563 4907 2826 3841 4038 4431 4327 2710 2979 3412 3643 3903 3433 3912 4736 4097 4145 3874 14 3488 4083 4612 4910 3428 4396 3995 4357 29 21 14 14 20 2 28 35 10 15 32 21 23 13 33 7 14 21 14 19 22 29 7 32 29 26 3 4 7 10 36 7 8 0 3 16 29 20
4422 4290 4959 2967 3878 3791 2720 3874 3899 4705 4776 3813 2996 2872 2738 2653 4921 4464 2975 4382 4332 4522 4293 3460 2784 2694 4607 3007 2674 3307 4693 2920 3183 4080 3001 3044 3962 13 34 21 31 20 28 17 27 37 7 21 10 6 21 4 22 19 32 5 23 24 35 20 36 33 25 26 14 36 3 26 35 32 4 0 22 3 19
4477 4822 2725 4589 4864 3966 10 4237 3234 4652 4582 17 2573 4555 4768 4619 4755 4749 4898 4472 3159 3816 3692 3657 3452 4076 4616 4903 4348 4723 4797 3643 4987 3167 2956 3760 4983 8 32 20 34 19 22 25 35 21 21 16 28 21 12 7 32 24 3 28 26 13 34 6 7 39 7 2 1 30 16 24 13 19 36 35 0 36 17
12 2849 3047 4287 4983 3913 3348 3199 4195 3726 4161 4958 4222 4214 3870 3412 4626 4650 4186 4740 2869 3144 3054 4664 4562 4856 3250 2962 3600 4842 13 2639 2599 4417 4035 3972 3830 26 3 25 31 35 25 26 9 6 17 8 10 13 7 33 17 35 11 29 5 31 30 4 34 24 39 24 26 12 3 39 3 1 27 13 11 0 31
2946 2918 4382 4675 4383 3233 3058 2729 3501 3571 3425 4095 3811 3505 2950 2893 3191 3390 3454 3851 4414 3995 4918 4299 2666 3923 2747 4081 3333 4942 4339 3251 4410 3193 3544 4012 4517 2 13 13 4 2 26 14 17 14 11 2 5 38 37 30 28 29 37 10 37 7 11 37 4 4 36 7 25 34 12 35 15 16 20 33 24 2 0
EOF
