NAME: christofides_hard_n450_s0
TYPE: TSP
COMMENT: christofides_hard generated explicit tsp
DIMENSION: 450
EDGE_WEIGHT_TYPE: EXPLICIT
EDGE_WEIGHT_FORMAT: FULL_MATRIX
EDGE_WEIGHT_SECTION
0 7 22 21 27 2 17 13 32 17 39 22 17 16 38 13 22 10 11 6 8 21 25 15 5 12 25 31 31 35 3 32 25 25 35 7 7 10 30 12 28 10 2 25 29 19 37 36 34 35 31 12 4 4 27 34 24 12 28 26 35 10 21 5 20 1 22 2 3 13 39 2 13 3 36 12 21 34 36 10 36 18 39 19 7 31 23 28 16 24 39 2 8 37 37 15 38 5 38 31 24 37 29 30 31 7 13 38 38 26 29 11 25 16 29 35 30 34 24 5 25 19 7 27 5 12 5 1 7 23 29 27 22 16 20 23 32 39 4 21 33 17 23 18 6 2 36 26 15 30 1 22 21 20 5 12 20 22 17 14 39 31 30 28 39 20 38 22 34 7 13 15 31 27 24 1 22 8 24 7 30 39 34 3 7 32 23 15 3 10 6 20 11 33 3 14 32 4 17 18 19 21 25 22 23 16 9 1 5 15 25 9 23 29 38 9 12 18 32 9 17 37 3 39 22 3558 4315 3997 3316 4151 2737 4152 3187 4448 4968 4378 3981 4354 4923 2699 4400 3418 4099 4104 4746 4154 3309 3425 3348 4054 4236 3582 3747 2666 3827 2703 3785 4463 3986 4202 3677 3762 4224 3863 3170 3203 4811 4050 4186 2650 3702 3566 2737 3791 4916 4883 3534 4365 3978 2766 3008 4888 2986 3470 3041 2682 3184 3558 4212 3206 4078 4626 3419 19 4588 4728 2603 4938 2680 3082 2570 4891 3712 4512 3520 19 4662 3252 3314 3476 4755 2878 2877 3465 3912 2571 4877 4616 3683 3922 2798 4552 2866 4232 3955 4625 3746 4637 2723 4098 4893 4928 3212 3530 3672 2564 3641 2834 4575 4881 2875 2896 3285 3452 3430 4941 3261 3593 2701 4287 4588 4949 3852 3798 3125 3462 3692 2668 2747 4341 2991 3379 2729 2524 3851 4704 4229 4533 4425 2710 3114 4228 4061 2660 2664 4684 2723 2723 4330 4180 3550 4913 3728 4668 3863 4505 3206 2830 4633 4881 2881 3351 4339 3131 2675 2891 4924 4832 3203 3967 3137 2884 4884 4193 2901 4264 2668 4184 3329 3946 2771 3799 3353 4957 3997 3639 4184 4676 3798 4191 4000 4829 3361 4023 14 3244 2518 3898 4608 4902 4984 2900 4263 4118 3385 4628 3760 3262 2806 4514 4570 3043 4723 3845 3800 3696 3109 4290 3164 3838
10 0 21 6 30 12 6 2 36 10 8 37 20 11 5 16 21 15 28 6 33 20 22 11 1 29 21 1 2 1 24 3 14 13 5 29 17 29 16 27 15 19 5 29 11 27 24 32 8 11 2 12 3 23 5 33 16 9 30 14 6 28 18 8 24 35 5 37 3 16 4 12 33 16 21 34 36 25 35 32 14 32 28 17 15 12 6 30 14 26 13 25 8 19 15 26 4 1 18 18 25 17 4 7 12 22 17 25 32 2 21 20 29 7 19 20 6 3 7 3 5 24 28 21 26 3 13 18 3 31 26 3 16 19 16 39 8 4 20 3 10 35 15 11 35 33 13 3 28 35 20 35 25 36 38 33 22 32 16 10 6 10 7 22 16 17 21 39 39 4 15 36 11 23 12 25 16 37 14 14 6 7 14 3 23 1 15 2 14 10 33 19 10 1 8 13 32 24 17 32 15 17 27 8 10 21 38 32 5 37 22 18 10 22 21 21 6 14 14 28 8 39 33 2 36 3667 4576 4559 2974 3122 2796 4210 2589 3367 3969 4592 3551 3422 4732 4044 3322 3443 3708 3346 3938 3203 2693 2858 4993 3895 4058 4751 3577 3257 3314 3966 2758 2838 3246 2731 3615 4024 4466 3804 4751 4063 4850 3929 3261 4465 3927 3955 2983 4734 2945 2508 4891 2689 3849 3484 4832 2762 3038 4570 3241 2609 2752 4053 3771 4363 4468 3237 2877 2641 2515 4816 4650 4699 4818 3768 4390 3964 2506 4045 4072 4908 3072 4802 2654 4425 3118 4350 3235 2512 4143 3473 2921 4381 2909 2561 2825 4569 3593 3573 3465 4821 4200 3176 4611 2568 4413 2868 2926 3637 3575 2872 4299 4922 3814 2508 3818 3986 4366 4293 3775 2725 2599 2864 4558 4639 3841 3993 2943 4109 3769 4127 4850 2735 4388 4207 4956 2804 4381 3817 3682 3689 2932 3949 4629 4601 3253 4993 4900 2737 3150 3549 3026 3797 4337 2940 4071 4764 2931 4127 2626 4274 3422 4832 3596 3071 2618 4463 4451 3029 4641 3705 2741 4464 3575 4160 2598 3194 3466 4892 4927 4673 4641 3192 3583 4717 4764 3254 2548 4445 2974 4351 3586 2836 4662 3515 4706 3367 2689 4628 2956 4766 2809 3953 2834 4283 4943 4699 3833 3483 2945 2862 4665 4221 4079 4700 3112 4299 4856 4585 4763 3357 2897 4551 3898 3398
5 26 0 8 19 3 29 24 2 38 9 2 31 28 24 7 1 13 24 18 7 34 15 17 17 17 33 28 31 8 37 35 8 28 13 38 12 28 19 1 7 17 7 21 29 16 5 23 6 9 29 27 35 36 35 24 17 21 16 5 9 5 9 11 27 9 26 30 6 8 36 29 19 33 38 9 28 25 20 6 16 27 1 28 39 5 38 1 21 4 31 24 23 11 22 4 18 23 34 30 29 31 35 29 38 23 34 19 39 30 7 5 14 34 15 36 9 35 10 25 25 17 15 37 5 31 5 36 31 15 26 26 17 28 33 4 2 5 9 20 32 21 13 20 9 35 20 5 3 14 14 1 17 23 16 36 27 24 30 32 15 34 19 3 20 9 32 27 15 5 1 21 26 25 8 24 9 11 37 32 33 39 23 15 13 33 6 8 35 21 1 39 23 8 32 31 1 10 11 27 14 9 6 29 24 5 9 18 20 34 20 17 23 2 8 38 22 28 15 22 14 26 3 5 8 3953 3984 4955 4636 4044 3145 3979 4279 3315 2574 2533 4330 4570 4864 14 3635 4521 2503 3549 2874 4549 2687 3834 3395 4222 3540 3544 4998 4969 4373 2571 3151 3738 2654 3806 3288 4449 4502 3686 2857 3415 2684 3998 4183 2734 4603 3857 4650 3151 4028 3517 3487 2868 3032 4513 4616 4157 3735 4760 3655 3088 4208 3590 4939 2807 3306 2751 4284 4941 4766 3037 3700 4646 4707 2604 4342 2854 4647 3673 3029 2733 4282 2638 3636 4865 4464 2596 3985 3369 4790 4542 4403 4420 4243 2676 2563 3903 2776 4480 4764 2999 4666 4325 4111 3125 3632 4926 4679 3096 4865 4624 3808 3013 2546 2578 4400 3278 3233 4911 3880 4812 4232 2666 3681 4734 3739 4213 2525 2572 3582 3340 4003 2967 2638 2753 4063 2577 4071 3853 3110 3517 3131 4635 4830 3625 2826 4506 4530 2722 4590 3339 2874 3814 4537 4860 4310 4832 4244 3403 3457 2778 3200 3441 3742 3134 3010 4948 3121 2984 3467 2724 2559 4612 3511 2805 3089 3813 2872 3991 2505 2536 4815 2865 3668 3448 4240 4409 3941 4873 4364 3738 3560 4512 3267 3997 3860 2838 3364 4911 2974 4242 2554 4386 3038 4470 3517 2642 3663 6 3945 4059 4719 4194 4650 4219 4950 3371 4593 4409 4690 3951 2893 3813 3920 4848
22 18 18 0 2 1 20 8 39 31 32 14 23 27 30 34 6 14 20 16 36 36 35 4 11 32 26 8 5 38 10 11 20 9 37 33 12 7 28 27 4 29 26 38 36 12 33 10 17 11 39 31 18 3 36 11 23 32 1 16 2 6 15 11 8 32 3 1 33 24 1 1 7 14 8 27 26 33 28 22 10 33 15 37 32 38 38 19 5 26 18 19 4 26 9 15 18 27 26 29 34 27 2 24 5 30 7 26 18 33 29 20 19 12 16 35 34 33 23 5 18 8 8 12 23 1 4 20 26 37 35 34 39 31 8 24 26 26 27 29 7 2 37 23 9 39 35 33 9 19 29 28 6 2 4 31 1 12 19 26 20 2 38 24 37 23 18 14 13 30 26 4 39 4 6 29 35 3 25 37 6 12 9 25 20 2 12 3 31 7 25 26 4 29 19 29 15 18 14 12 1 35 13 23 36 31 24 4 26 32 18 28 8 39 39 26 33 33 17 9 2 19 16 2 9 3874 4104 4428 3107 2825 3639 3928 4657 3430 3947 3394 4195 4379 3060 3724 3791 3442 3632 4208 4495 3107 3056 4644 2960 2909 2828 4222 4623 4045 3038 4242 4019 3601 3836 4011 4371 2954 4484 4615 3099 2590 3169 3524 4496 4547 4124 4450 4139 3794 3842 3308 4102 2970 3281 4186 4816 4743 2544 3457 3854 4845 4488 3818 4659 4316 3377 3541 4177 3907 2842 3377 4355 4465 2641 3151 4932 4322 3476 4899 2586 4784 3272 4605 3621 4847 3785 3668 2553 3033 2514 3512 4093 7 4368 3571 4317 4112 3578 3096 2674 2554 3824 3442 4638 13 4930 3516 3461 3651 3897 4461 3149 4267 3099 4035 4488 3657 4491 4015 3785 3465 3204 3191 4254 3311 3238 3582 3872 4887 3053 2861 2876 4637 2529 4690 3640 3185 4981 4413 3073 4626 4156 2773 4998 4823 2593 4140 3818 3156 4043 2936 2978 3002 3034 4734 3771 3820 4038 4490 3564 4038 4084 2851 4050 2789 4794 4398 4382 4662 4452 4225 2717 2751 3669 4600 4120 3476 2596 3393 4678 4432 2952 4736 3413 3145 2571 4707 3229 3365 3764 4647 4244 2529 3351 2981 3695 4186 4047 3544 2567 4058 4970 2838 3529 2632 3965 3763 3120 3016 3828 4500 4559 3582 4887 3408 4805 4159 4042 4563 2635 3568 4332 2722 4956 4491
17 34 6 4 0 14 4 8 7 10 23 2 16 35 39 20 10 12 34 22 3 17 36 38 3 16 38 5 10 15 39 14 30 37 36 17 9 30 28 32 14 12 17 15 29 25 26 30 6 3 2 33 22 34 13 32 21 8 10 32 31 28 33 19 6 35 36 5 37 35 1 2 28 21 11 24 13 32 36 32 30 16 3 29 37 11 36 23 19 11 37 23 30 36 26 19 7 24 13 6 13 24 21 14 38 32 33 7 2 28 8 17 2 26 32 3 33 4 31 30 12 17 20 25 20 28 30 35 37 21 23 2 17 7 31 28 27 3 16 32 32 30 29 2 1 13 14 19 37 33 32 11 29 23 39 3 12 16 19 1 30 25 38 18 38 1 9 37 16 24 14 8 2 27 24 1 25 26 24 6 1 2 6 1 18 19 20 22 33 39 22 10 31 31 11 13 24 28 30 4 11 30 30 36 8 30 1 4 7 16 19 3 15 33 16 13 22 21 35 35 5 39 3 14 36 4063 2786 4910 4407 2524 3989 4440 4519 4709 4670 4038 4927 3170 4410 4870 3315 3987 3662 3189 3578 2691 3050 2590 3191 4372 2807 2616 3988 4672 3586 4897 3914 3994 4407 4673 3127 3008 3568 3795 3784 3186 3178 3268 3171 3561 4526 4585 3062 4326 4940 3789 2528 4076 3435 2972 4493 2843 4290 4631 3423 2695 3261 2678 3973 4952 3894 4790 3302 3684 3722 4939 4740 2797 2602 3602 3473 3941 4797 3363 3882 3219 3129 3728 2811 2809 3653 4233 3446 4556 3188 4445 4379 2831 2672 2701 4990 3622 4061 3853 4413 4370 4395 3093 3344 4556 3184 3732 3354 4973 3883 3064 3914 4931 2850 4868 4419 2726 2541 4250 2966 3886 4216 4734 4317 4308 3666 3730 4524 3069 4317 4914 4516 4284 2901 4517 4553 4439 3892 4997 3100 3745 2802 3575 3021 3668 3989 3135 2681 3922 4359 4679 4791 3713 4302 2966 2808 4353 4079 3733 4679 4273 3252 2537 4723 4770 2892 4348 4709 4057 4104 3392 3933 4840 4312 4695 3981 10 3091 4551 2657 2710 3096 3731 4350 4184 3964 2839 4846 4211 2635 3961 4875 3194 2595 2643 2664 4525 3671 3582 4688 4434 3944 3700 4040 4197 4882 2713 2566 4381 3924 3521 3727 3402 4111 4092 4694 3823 2958 4506 2737 4619 4065 3155 3774 3474
9 15 39 13 6 0 30 20 2 38 37 36 16 24 30 34 35 38 6 5 16 9 9 33 17 39 34 1 35 13 18 39 3 17 37 39 1 35 9 26 29 1 13 18 12 34 5 15 22 25 3 11 5 35 33 18 30 22 14 10 3 10 34 15 35 32 31 13 3 23 26 39 34 26 13 31 5 27 16 19 21 26 34 8 33 36 14 3 30 21 28 35 31 27 1 1 32 21 31 5 13 35 27 9 5 4 23 16 7 14 28 19 5 39 35 17 7 21 11 27 5 35 29 8 14 26 20 11 18 15 12 24 16 18 23 7 13 8 38 36 8 27 16 19 16 32 1 10 3 3 20 18 1 14 19 14 12 4 11 8 18 25 2 24 17 22 34 35 13 36 26 29 1 38 16 29 1 24 32 16 22 16 4 1 28 10 11 32 14 31 24 6 24 19 10 22 1 2 4 4 2 18 15 12 7 11 37 12 7 29 38 5 11 21 16 39 28 16 26 28 39 14 1 39 31 3799 4128 3967 4123 2693 4661 4841 2880 2977 4631 2877 3195 3662 3556 4450 3749 3486 4321 3093 4323 4097 4137 2754 4739 3135 3360 4859 4911 3298 4080 3618 4279 3852 4316 4385 3768 4068 3946 3650 3878 4198 2516 2566 3608 4600 4752 3877 3269 3601 4884 4573 4659 3041 4219 3293 3820 3042 3916 3768 3528 2642 4868 3153 4833 4067 3314 3207 2751 3154 3893 3862 4774 3735 2514 3653 3165 4737 4970 3150 3687 3217 3089 2944 4671 4805 2505 3886 4550 2657 3993 4847 3596 3382 4179 4138 4440 3423 2987 4192 3698 2559 3456 3431 4551 4715 4374 2536 4982 4862 3215 4664 3320 3221 2658 2956 3834 4986 4168 2795 4232 4670 4303 2802 2989 4854 2574 3255 3773 3683 4020 4966 3764 3767 3567 3119 4963 3969 2606 3087 4999 3422 4950 2903 3205 3856 4189 3760 4174 3457 4882 4438 2626 2505 4783 2815 4224 4452 2608 2857 3578 3804 3295 2989 2902 3299 4812 3615 2898 2568 3941 3304 4307 3266 3298 3323 4778 4069 4313 4553 3637 3644 4807 4049 4772 3432 4242 4585 2812 3585 4784 4105 2860 2702 2603 3894 3501 3275 2625 2515 4278 3353 3473 2590 3740 4379 3856 3211 3017 2685 2960 3768 2554 4681 4387 4325 4228 4494 4381 4721 2674 4785 4777 4596 3924 3899
18 31 14 22 35 10 0 35 1 33 25 15 30 35 14 8 7 25 15 22 12 15 18 21 7 26 12 26 30 39 28 34 7 34 34 34 10 21 35 17 26 25 23 29 35 18 11 26 31 18 18 1 34 38 36 24 33 28 4 39 31 35 6 11 30 33 12 23 35 37 25 2 3 29 16 15 17 25 20 21 28 2 1 20 30 16 38 24 38 31 11 8 15 9 22 39 13 8 33 31 11 24 36 18 36 38 2 15 18 32 26 20 6 32 16 16 36 39 3 30 10 9 13 18 36 21 7 30 39 30 23 16 2 4 3 15 27 33 13 8 35 15 26 11 27 11 30 15 14 24 38 37 39 27 34 9 34 39 8 35 1 15 35 2 23 38 36 30 9 27 5 19 16 14 3 39 5 23 38 5 27 30 5 27 10 15 26 26 37 31 28 5 18 24 7 34 15 3 28 5 3 33 37 29 27 27 14 24 34 19 26 30 34 4 35 19 38 27 19 15 17 38 33 20 19 3867 2731 3633 4471 3886 2690 2718 4627 4595 4855 3633 3504 3605 2848 4120 3590 4920 4399 3581 4329 3623 4000 3668 3117 3943 4380 3111 4873 2642 2735 4134 4785 4493 2614 4816 4645 3867 4330 2568 3874 3769 2523 2693 4287 3837 3275 3290 3602 4019 4707 3166 3715 2739 4006 2691 3821 2884 3457 2905 4475 3890 4878 3537 4983 4926 4942 3934 4698 4401 4161 3540 3718 3441 3182 3411 4763 4837 2732 3000 3962 3482 4203 4721 3249 3699 2983 2996 3014 4874 2634 4669 4452 3710 4357 4039 2549 3749 2689 3104 3419 6 3683 2516 4935 4064 2655 2556 3404 4649 3241 4570 3203 3354 3081 4423 3053 3481 4109 3907 3291 3252 4774 4847 3951 3883 4657 3295 3218 3620 3388 2653 2857 3264 3978 4256 4859 3901 4083 4786 4087 4515 3566 2560 3649 2954 4208 3254 3696 3052 3696 3577 3285 3692 3162 2581 2713 4551 4079 2696 3611 3525 4524 2881 4811 2833 4099 3588 3132 4180 2838 3052 3125 3658 4022 3185 4151 4023 4244 4413 2868 4029 3841 3213 2564 4909 3156 4188 2966 3641 2765 4568 3927 4638 3216 4128 4619 2902 2802 3264 2669 3385 3480 3969 4016 3972 3330 4770 4131 3141 4436 2844 3718 4213 3755 3934 4809 4841 4839 3519 12 4170 2799 3696 3497 4805
28 24 8 5 5 13 30 0 2 23 22 22 24 31 20 10 5 31 18 28 15 11 5 14 8 35 3 6 27 19 6 18 12 2 13 34 18 22 37 17 17 39 39 1 37 25 35 14 39 10 16 1 38 33 27 5 38 23 8 24 21 20 24 9 6 33 19 36 25 8 5 2 28 36 1 1 30 19 37 4 20 14 25 12 12 21 13 14 2 9 26 23 6 12 19 11 22 24 34 6 17 28 2 13 30 31 7 26 22 19 21 16 13 20 3 33 4 17 36 24 24 31 4 25 22 33 27 34 22 1 4 5 39 33 38 33 32 2 1 3 31 2 34 14 36 37 20 37 11 8 29 26 7 9 38 1 24 37 30 6 4 3 32 3 18 25 17 20 4 1 7 2 21 38 27 17 17 32 18 8 6 33 6 25 9 6 32 36 31 8 34 18 10 3 15 31 32 30 10 14 10 20 21 24 15 6 26 6 27 36 23 26 11 30 3 5 6 37 11 22 26 23 18 24 21 3258 4931 3273 2725 3921 3661 3419 4413 4984 3753 3077 2636 4089 4797 4365 2723 3059 4037 3225 3905 2724 4225 4568 4972 2877 4487 2750 4345 3435 2878 4516 3306 4693 3583 4330 4438 2903 2893 2974 3608 2799 3032 3261 3220 4599 3683 4927 4378 3334 3650 4761 3846 4731 4930 2808 3865 2650 4764 3771 4257 4609 4562 3957 3274 2931 3798 4727 4334 4580 4618 4415 3730 3587 4514 4535 3672 3724 4495 4899 3071 3769 3114 4857 4816 4331 4339 4898 2774 3455 3863 4697 3489 4490 2542 4344 3239 2842 2987 3976 2693 4405 2579 3983 3151 4099 3272 3295 3235 4697 4875 4740 4791 3446 3480 4055 3046 3534 4341 2529 4148 3438 2757 3174 3890 4121 4911 3763 2662 4483 3776 3305 3206 4317 2606 3137 3293 3884 3643 4045 4938 3858 4602 2938 2998 3245 4483 3282 4525 2655 3140 3758 4894 3400 4315 4967 4743 3617 4464 3269 4176 2812 4134 3097 4911 2978 4749 2566 4645 4340 3760 3543 2713 4328 4487 3948 2621 4292 4233 3371 4659 3406 4469 4512 4171 3408 2671 2837 4877 3033 2676 4000 3676 4976 3012 3929 2622 2517 4838 2924 3295 3846 3038 4466 2912 4430 4662 2653 4786 2672 4203 3859 3508 4655 2946 3153 4824 3717 3136 2699 4724 2608 3760 2555 4709 2877
5 2 36 3 32 14 28 8 0 34 3 16 4 15 27 15 7 9 27 26 4 22 12 27 29 33 16 24 7 18 6 39 18 3 10 17 9 20 26 22 2 27 4 11 10 35 18 11 33 30 37 39 6 3 30 39 8 32 4 11 27 19 13 26 24 5 3 28 28 32 32 27 4 33 13 16 13 20 6 22 19 15 8 21 1 7 34 26 4 3 9 29 25 26 12 9 37 16 29 34 20 14 26 5 7 25 6 6 5 11 33 26 26 15 24 34 7 36 10 15 20 37 23 32 9 21 20 20 5 16 3 32 22 24 1 8 16 11 36 13 1 38 6 4 10 20 18 1 34 27 4 24 11 38 23 4 35 21 14 28 10 25 35 11 7 20 16 32 22 22 18 23 14 22 20 2 16 3 31 32 34 35 14 26 36 8 31 25 8 15 3 36 38 7 1 37 6 18 31 26 2 19 27 17 16 5 20 33 4 22 6 26 12 12 7 20 15 35 8 35 30 21 33 23 24 4653 4510 3343 2507 4018 3844 3347 3303 4305 2928 3808 4353 3893 3474 4736 4077 4631 4663 3421 3610 4774 3854 4779 3869 3880 4349 3046 4358 3068 3963 3359 4965 2635 4184 3937 4524 3953 4611 12 4430 2857 2654 4739 3948 3355 2649 3166 4025 3203 2698 3896 2686 4636 3790 3785 3399 3810 3751 4149 3373 2611 4134 3267 4574 4604 3305 4471 3984 4437 2854 2824 4978 4549 3882 3192 2888 4605 3868 3714 3939 3261 3235 3036 3997 2708 4900 4003 4379 4176 2769 3827 3922 3708 3737 4957 3527 4964 3888 3507 3717 3416 2887 3195 2888 4839 2862 2535 4712 4482 4301 4497 2549 3597 3897 3150 3948 3575 4265 3544 4788 4142 4601 4214 3075 2873 3915 4820 3060 3745 4049 3344 4253 4884 4947 3374 4754 2789 4631 3454 3572 4948 4526 3857 3879 4642 4618 4106 2508 3210 3762 3795 3768 4048 3589 4486 3047 4942 3410 4744 3570 3382 2925 2773 4694 4637 3754 3006 4372 4507 3667 3712 3467 3493 3869 2674 3829 3303 3719 3069 4574 4055 2673 2654 4151 4719 3398 4959 3584 4986 4717 4831 4342 4160 3946 4398 3641 2511 4511 4986 3484 3705 2733 4328 2821 2811 3649 3371 4610 2636 4444 2973 2581 4319 4449 4288 3881 4731 3411 3993 4140 4595 2860 3194 4843 4905
36 38 37 3 31 29 9 26 8 0 24 21 26 20 4 35 22 39 8 16 11 17 6 16 20 19 15 3 30 7 16 38 25 8 8 13 29 28 24 29 25 14 32 39 28 22 27 25 12 26 18 28 12 10 34 32 5 12 19 38 22 15 1 38 7 7 12 9 35 33 4 26 6 21 16 27 32 29 2 31 25 38 30 15 24 30 31 16 21 3 10 23 14 39 6 37 34 30 38 25 1 23 30 38 32 7 39 24 19 35 21 38 21 6 8 11 31 29 5 20 21 23 14 5 31 24 18 14 11 8 15 12 6 3 16 1 20 14 27 20 34 34 12 37 32 13 25 37 9 28 32 27 1 5 18 6 15 25 28 12 14 20 14 18 25 30 36 16 36 29 5 13 17 19 38 13 27 26 33 11 33 13 20 34 28 24 4 21 10 6 31 15 8 6 23 31 21 16 11 15 3 28 28 3 18 34 2 32 6 22 25 13 11 2 4 17 7 12 19 37 29 6 4 24 12 3521 2662 3468 2628 4198 3359 3795 3099 4745 4276 2820 4465 4986 4485 3983 2809 3420 3910 3234 3443 3921 3348 3079 3459 4366 3811 2807 2553 3823 2772 4671 2931 3768 3957 4912 3179 4790 4043 2584 2614 4942 4852 4078 3910 3666 4125 3894 4613 4642 3092 3984 3095 3891 3562 3771 4963 4337 3010 2632 4150 4198 3760 2954 4868 4017 4604 2717 3611 4926 2830 3673 4430 3525 4859 4392 4122 6 4184 3913 2619 4095 2735 3432 3322 3647 3668 4490 2831 4116 3793 3285 2785 3523 2778 3485 3785 3451 3610 4375 3011 2965 3086 4910 4494 4580 4590 4340 3600 3098 3439 2915 3957 2746 3147 3256 3381 4341 3348 4278 4041 3938 3734 3164 4945 4728 4390 3830 3353 4746 3000 3287 2676 3200 4328 3206 3357 2636 3904 4358 3432 3815 3219 3523 3275 3987 4858 4084 3547 4921 4547 4486 4972 4968 3902 4843 4039 3270 3612 3339 4898 2939 4414 3487 3120 4091 3544 4352 2634 3535 3094 4819 4269 4490 2605 2902 2908 3267 4105 4851 2818 2541 2649 2989 4701 3818 2623 3478 2865 2737 4537 3113 2618 2549 4572 3265 3951 4315 4456 3207 4762 4485 3392 4137 4621 2983 4097 4354 3541 3492 2620 2778 4566 4793 3673 2529 4580 3952 4982 4816 3140 2981 3204 2532 3348 2566
26 17 20 9 22 17 14 27 23 7 0 39 35 18 23 12 5 7 34 35 20 8 13 1 38 34 36 35 3 3 10 28 23 29 10 27 33 36 14 36 3 17 23 5 19 22 29 25 14 39 35 16 20 10 34 8 6 4 4 13 1 18 24 13 37 39 31 19 20 12 30 11 33 15 1 13 29 13 27 27 26 11 37 9 27 38 34 25 8 3 2 16 7 20 10 18 18 32 14 5 35 33 3 25 22 24 25 2 1 11 11 18 20 3 9 2 14 28 11 4 37 20 13 21 30 22 4 9 35 32 9 13 34 25 7 6 19 6 17 15 18 11 19 4 33 13 34 18 18 3 38 2 5 14 15 16 7 26 22 19 3 5 24 13 12 22 29 8 31 13 7 2 15 31 36 9 16 13 17 11 19 13 20 28 18 31 8 39 9 16 8 38 32 23 29 6 3 30 1 3 6 15 6 10 7 19 7 25 30 26 10 14 5 18 32 25 31 11 39 30 23 17 11 18 27 4285 4754 4859 4151 4580 4829 4840 4244 4054 2524 4006 3537 2569 3196 4004 4844 4939 4119 3973 3563 4371 4902 2661 3524 2864 4405 2942 4595 4849 4571 3046 3964 3293 3466 2946 4010 4634 2867 2933 3151 3846 3463 4699 4851 3382 3609 2541 4091 4182 4470 3081 4602 4172 3895 4535 4857 4930 4755 3386 3237 3341 4177 4781 4185 2829 4788 3187 4715 2514 3806 2645 4569 2635 3879 3671 3937 2718 4991 2678 4307 4703 4030 4936 4576 4558 3924 2879 3175 3234 3198 4590 4312 2666 4321 4780 4657 4020 4390 4326 3518 3902 3292 4516 4809 4178 3636 3451 3742 2546 3440 3414 4311 2941 4026 4114 2729 3842 2869 3996 3147 3687 3706 2775 4496 2674 4437 4630 3612 4354 4188 3465 4552 3776 4563 4410 4667 3770 3305 3716 4456 2933 3756 2613 3558 3183 4596 4594 3465 4145 3641 2946 4357 4211 2796 3609 4087 3127 4775 4768 3070 3762 4275 3494 4073 3986 3063 2639 3641 4371 3219 3047 4973 4246 4844 2937 4865 4765 4855 2703 3351 3474 2832 15 3075 4458 3257 3666 3349 2620 3346 3149 4921 2622 3065 4643 3723 2782 4052 3168 4049 2635 2718 4614 4420 4563 4690 3063 2901 3198 4110 4773 3465 3592 3591 3722 2886 2733 2825 3996 2778 3031 3010 4226 2664 4587
10 37 5 10 34 5 14 11 29 7 21 0 21 20 34 36 24 1 18 24 25 35 20 24 35 22 28 27 39 11 7 12 15 36 16 1 21 24 28 10 26 21 20 21 20 33 7 38 28 12 26 17 24 12 33 32 5 8 12 32 8 26 23 38 36 9 27 6 17 31 19 18 7 19 35 26 26 13 24 12 28 3 13 15 32 34 14 9 2 11 35 20 24 33 30 21 3 29 21 24 11 14 12 38 1 23 27 39 29 15 28 8 23 25 30 29 22 8 20 11 39 4 5 3 24 4 28 5 3 29 35 27 14 35 25 32 8 18 3 24 13 4 12 12 9 34 7 30 29 35 3 5 2 36 35 1 32 1 23 10 9 27 9 10 38 26 18 31 21 12 14 3 25 30 8 17 28 15 38 15 14 35 8 32 21 11 11 38 34 35 32 24 38 14 24 30 27 2 13 30 36 35 17 13 20 8 28 9 1 10 20 28 2 22 9 9 1 4 26 6 22 30 9 17 29 2568 2741 3364 2675 4042 4571 3495 2812 4334 3820 2977 3694 4696 2842 3389 2615 4221 3024 3683 3067 4090 2739 4054 4271 3259 4054 3093 3379 3722 3248 3414 4560 3010 4802 4480 4867 4035 3962 3474 4835 4267 3136 3839 2602 4242 4053 3590 3693 4437 4280 3595 3163 3849 3101 4149 4351 3088 3389 4546 4768 2862 4599 11 3572 2917 4669 3745 3043 4189 3289 4082 4770 2721 4027 3296 3970 4273 4938 2921 3338 2875 4973 4861 4143 4965 3928 3310 3805 3801 4229 2977 3848 4955 2724 2717 2933 3447 2518 4492 3498 4869 2666 4363 4750 2669 2718 4040 3849 4887 4996 3103 4393 3696 3958 3961 3419 3984 4441 4081 2762 2649 4288 4605 3464 4723 3117 3705 4834 4545 4013 2956 2750 3374 3114 3639 2816 3018 2510 3008 2798 3630 4448 4902 4411 4210 2630 3156 3477 2667 2648 4318 3497 4515 2720 4408 4194 4038 3590 3821 3901 2866 3366 4729 3852 3222 4752 3943 3058 4945 2858 3458 4830 3041 4053 3979 2706 3720 3440 2716 4577 4308 3184 4789 4878 3073 2709 4689 3037 3077 3177 4682 3311 3010 3642 4214 3230 3242 4450 3989 4745 4161 3706 3210 3384 4954 4827 3086 2845 3904 4688 4963 2534 4538 3373 3507 4974 3196 4892 2932 3992 3874 3281 3677 3122 3390
37 36 5 14 24 35 16 32 9 11 39 34 0 36 28 22 33 34 25 14 4 11 35 19 16 17 20 19 33 19 28 24 19 1 2 10 28 7 33 15 29 21 33 22 38 3 13 20 16 29 37 35 30 26 36 33 36 10 28 4 23 22 14 31 9 8 39 27 13 17 24 27 24 34 24 10 9 22 38 30 29 33 6 25 22 16 33 10 15 26 7 16 17 14 14 28 1 5 9 7 39 26 35 29 13 26 1 15 30 14 21 3 19 35 32 17 12 18 19 34 20 26 31 4 20 12 9 11 17 6 13 36 31 25 6 1 2 23 11 13 26 9 10 26 28 1 30 31 17 35 28 3 17 21 35 14 31 4 7 1 13 25 4 27 19 39 29 11 34 19 31 26 34 26 10 32 18 33 6 39 12 38 36 32 19 26 26 24 34 32 19 12 21 32 15 27 7 2 31 27 14 4 25 35 15 18 15 33 36 16 12 37 36 34 13 16 36 17 39 5 6 8 28 28 10 4320 2576 2854 2532 3368 4318 3131 4008 4791 4705 4629 3683 3966 2702 4419 4213 2949 2902 3475 3161 4411 3387 2764 2651 4526 3904 4604 2946 3093 2600 4278 3044 2796 4986 3677 4839 2668 3077 4283 3090 2755 3126 3451 3238 4732 3060 4268 3433 3649 3827 3266 4363 2524 3180 3460 4659 3510 3911 3787 3929 4380 4011 3976 3715 3136 2508 3656 2982 2664 3364 3228 4133 4869 3050 2630 3847 4336 3392 3277 3488 3071 4705 4067 4516 3497 3185 2571 4932 4062 3395 3970 4527 4174 4615 4794 4260 2517 3295 9 3231 4604 4944 2682 3769 4985 3846 2508 3307 3048 2673 4700 2551 4250 4108 4711 4381 3823 2548 3387 4325 3055 3078 3268 3870 2644 3072 4195 4003 4834 3384 3355 3835 4451 3969 3086 3231 3036 2778 2564 3670 3968 3713 3279 4676 4225 3947 3767 4141 4675 3633 3477 4821 2658 4057 2996 4816 2522 3487 4485 2656 4567 3787 3240 4468 4498 3389 3070 3656 4735 2739 4160 4278 4783 2619 2922 4899 4256 4278 3404 3181 4086 4908 3708 3075 3203 4477 3864 2734 4277 2937 3329 2506 2976 3401 4284 4101 4467 3094 4534 4278 3798 3194 3936 3492 3450 4076 3667 4889 4468 4102 4365 2571 4067 4242 4767 3146 4465 3585 2502 3129 3707 4677 3325 3824 4193
19 32 12 33 10 39 16 24 32 20 5 37 18 0 30 3 32 35 27 38 35 7 21 19 21 25 19 18 11 6 7 1 26 13 20 24 20 22 18 20 21 16 30 20 31 18 34 36 34 10 16 18 24 11 17 10 23 37 24 16 29 3 3 4 32 18 13 33 37 11 10 26 24 12 16 18 22 25 27 36 36 29 13 3 13 3 36 32 12 28 29 29 26 16 26 25 38 24 31 22 29 19 24 11 16 10 12 30 12 14 5 10 8 27 19 3 11 15 11 4 26 12 13 38 33 39 39 26 32 28 13 25 16 6 18 29 12 6 17 31 16 25 8 7 13 25 12 9 2 23 9 37 16 31 29 2 2 31 33 37 11 33 10 19 19 33 4 2 4 14 20 13 33 23 4 8 9 9 18 16 32 19 9 20 22 6 2 9 5 26 17 21 5 34 16 27 19 23 10 14 27 32 37 2 11 2 2 4 39 5 26 21 28 2 38 38 29 16 13 32 1 28 18 32 15 4606 2549 4204 4494 3355 4902 4547 4362 4310 2510 4088 4744 4024 3610 3924 4900 2504 4890 3607 3430 4398 4761 4607 4050 4410 3579 3117 4309 2633 3130 3550 3107 4077 3404 3168 3080 3230 2721 4978 4381 4598 3631 2677 4683 3615 2501 2836 3300 2543 4369 3613 3368 3343 3372 3076 3277 3945 2611 4368 3237 3842 3291 3204 4329 3782 2696 4656 2899 3127 2520 4025 4675 4955 3671 2563 4717 2521 4379 4576 4155 4608 4529 4281 4649 2593 2526 4876 3782 3119 4777 4993 3781 2817 2874 3093 3624 3717 2964 4415 3445 4113 3230 3010 4618 4345 4670 2777 2745 2754 3920 4488 3284 3363 2981 3913 3482 4180 4547 2914 3871 2760 3471 4545 4829 2719 3167 4753 3599 3364 2640 2856 4113 2552 3763 3422 4356 4019 4492 2869 3497 4255 3238 4703 2533 2531 3823 2725 3920 3203 4228 3448 2877 4625 4380 3665 4890 3151 3871 2982 3155 4845 3503 2674 3515 3633 3824 4270 2921 14 3630 3092 4913 4820 4526 3181 4638 3954 3780 4249 4708 4485 3981 3906 4918 4082 2899 4997 4248 4950 4474 2533 4573 2855 2757 4428 3567 4269 4547 4421 2713 3391 2719 3479 2553 4313 4200 3550 3659 3357 4577 2870 4065 3319 2876 3636 3511 3641 3604 4772 4546 4158 2852 3281 4786 3458
24 26 24 9 18 28 10 7 13 23 22 11 6 9 0 4 9 21 9 22 4 36 25 8 25 24 25 10 36 34 29 32 32 33 22 34 20 4 17 2 19 23 22 2 21 11 30 32 2 3 16 19 29 14 13 30 24 30 17 5 17 26 8 37 8 23 37 14 11 7 21 16 19 12 22 38 19 4 2 23 10 37 33 23 16 2 3 4 16 1 28 34 4 7 12 10 9 35 1 6 37 26 31 35 6 11 10 23 36 34 20 27 39 11 31 33 10 14 5 30 24 17 5 30 14 5 12 12 18 30 8 16 15 18 1 26 28 36 5 4 2 22 4 6 16 10 33 10 25 23 17 19 22 19 7 23 21 2 37 17 1 15 6 31 2 38 12 12 11 31 23 29 34 24 9 25 9 12 13 24 34 25 12 15 27 5 18 11 5 5 22 7 37 10 32 16 9 16 15 39 25 37 10 24 18 16 14 14 35 37 3 21 29 1 26 36 26 34 38 12 29 37 33 6 37 3562 2629 3657 13 3829 4935 3310 4419 3804 4329 3426 4662 4160 4240 3692 3218 4626 4916 3753 4565 4427 3498 2710 3599 3455 3155 4497 4350 2904 3905 4118 3954 3371 3046 3187 4294 4028 4022 4605 4129 3528 3749 2842 3841 3113 3735 4863 4024 2848 3759 4450 4703 4152 2572 19 3258 3292 4062 3638 2932 3291 4509 3517 4145 4081 3017 4647 3164 4879 3090 3130 3111 4496 4477 4886 3828 3437 4963 3951 4391 4890 4287 2976 3605 4514 4072 3709 3159 4591 3931 4386 3779 4526 4385 4114 2933 4628 3047 4380 3603 4548 2558 4342 4245 4146 2551 2778 4177 2546 4831 3446 2611 3233 4977 2999 4179 3470 4951 4859 3045 4705 3519 2736 2503 3770 4969 4438 4531 3757 2715 3232 2600 3358 4986 4958 2681 4047 3053 4569 2691 4070 3211 3231 3482 2607 3547 3962 4218 3948 4023 3552 4692 4551 4774 4730 3302 2769 3092 4395 2631 3717 3713 2916 2772 3885 4239 3521 3991 2721 2685 2869 4781 2964 3004 4142 3903 2811 3869 3767 4796 4431 3377 3625 4574 4890 4617 3465 4553 4925 4399 3457 3070 4262 3627 2741 3453 3220 3736 4211 4223 4859 3914 4110 3175 4040 3804 3395 2621 4676 4781 2893 2537 3171 4399 3184 2885 4098 4933 3406 4103 4480 4379 3583 3233 3039
13 19 22 7 1 25 10 11 12 17 21 1 36 10 10 0 25 21 27 22 26 3 6 39 35 19 29 38 18 36 39 1 15 24 28 20 23 5 3 7 9 11 4 23 36 39 25 18 33 39 6 23 15 35 14 21 35 4 5 5 26 8 30 1 10 4 39 39 33 26 21 32 18 20 27 33 13 39 13 12 39 7 39 35 34 30 11 24 22 3 30 2 9 9 11 27 5 26 30 14 6 24 35 33 17 27 30 5 3 37 4 26 6 5 31 3 30 21 11 38 37 8 14 8 35 30 39 22 29 32 16 15 27 4 6 33 31 25 18 4 37 23 34 12 3 36 18 18 36 25 5 9 39 34 19 24 7 23 19 32 2 30 13 24 27 3 38 10 3 3 3 27 5 39 1 7 14 4 20 27 1 17 29 3 33 12 4 27 20 30 20 26 11 28 18 38 10 11 11 4 18 37 11 17 2 34 21 32 24 32 1 27 20 3 24 19 12 4 17 16 20 34 10 11 3 3117 2679 3327 3671 4552 4949 3236 3241 4788 4790 3378 4984 3196 3296 2904 3171 3737 2581 3194 4670 4246 4766 3865 3344 4706 3814 4593 2856 3263 4351 3371 3178 4951 3038 3566 2868 4881 4207 3783 3076 4870 3099 3627 3644 4993 4329 4015 4763 3198 3086 2559 2856 4114 2526 3739 3765 3820 4028 3652 2709 3866 3583 2704 3882 3230 4092 3776 2988 3541 4645 4906 4055 4107 3825 3414 3384 4008 3476 4175 12 3954 2584 2842 2552 4557 4255 3255 4225 3855 2713 4262 3323 3856 3972 3475 3414 3953 3923 4152 2760 2611 3864 3868 3697 3376 4484 3943 3323 4512 4087 3903 4734 2696 2758 4292 2730 3580 3481 4174 3816 2677 4459 4079 2684 3604 3381 3322 4382 4805 4918 4342 3517 2978 3507 3684 4521 3185 3142 4309 11 3180 3418 3335 3232 3952 4091 3078 4738 2775 4843 4563 2685 2920 3994 4560 4657 4568 2616 3344 3224 3661 4303 3832 4588 3887 3091 3994 2646 3198 3514 3794 4450 4402 4398 2968 3231 3628 4923 2532 2816 3415 3442 4791 4347 3757 4952 3344 2565 4448 4739 2540 3828 2689 3354 3275 2668 3157 2624 4397 4877 2837 2532 3762 3483 3248 4496 4788 4325 3911 3885 4270 4206 3830 4594 2976 4372 3775 4028 3039 4931 4893 3505 3949 3226 4405
25 36 3 30 9 14 6 27 11 33 18 6 9 19 27 30 0 17 3 34 19 33 22 32 36 12 18 35 7 4 3 10 13 21 13 19 6 1 30 9 19 3 18 21 11 33 36 22 17 26 32 36 22 38 12 2 15 27 8 20 20 23 14 13 1 33 34 9 14 28 30 17 8 31 8 16 27 30 10 26 39 7 25 33 27 15 12 13 5 36 33 33 28 6 36 33 10 5 1 30 3 26 5 7 5 23 34 26 28 38 39 20 5 11 37 14 28 15 35 30 14 17 19 22 12 28 31 24 13 22 25 17 1 37 35 25 17 5 33 29 1 20 3 33 2 17 28 14 4 34 23 2 20 3 17 35 13 22 9 39 27 9 13 10 14 31 35 2 15 5 22 4 4 28 29 29 22 11 31 39 13 6 11 2 36 26 17 28 38 23 17 19 29 39 37 28 12 8 12 17 24 31 12 32 24 4 36 14 19 3 23 24 5 11 1 25 23 28 37 27 12 19 13 32 30 2707 3266 2677 3863 4606 4312 3864 4387 2627 3431 4006 4701 3516 4361 3182 3739 4881 3911 3436 4585 3100 4966 3188 3054 3489 4781 2690 3547 4017 2750 4133 4975 3353 2759 4398 2895 4764 2673 3211 3737 2597 4927 4932 2772 4809 4288 3032 2745 4190 3056 4736 3178 4736 3327 3797 3867 4688 3119 4797 3508 4279 3603 4743 3424 3710 4528 4411 3539 4326 3530 4182 4709 3364 3410 3073 4199 4340 2636 4592 3035 2650 2752 3513 2803 2581 4056 4253 3129 3713 4740 3593 2887 4303 3323 4860 2734 4384 2969 2536 3817 3248 3987 4174 2646 2674 4839 4737 2818 2577 3637 4913 3078 4135 4389 4491 3625 3235 4435 3255 4253 3003 3108 4058 4827 2925 4499 3802 4405 3741 3806 3256 2883 4161 3482 3592 2527 3566 4594 4384 4277 2525 3701 2857 3806 4187 4055 4804 2617 4713 2675 2563 4352 2839 3702 3177 4099 4711 4144 3388 4393 3352 2742 4298 3089 4896 4069 3683 3608 2515 4558 4698 4669 3208 3931 3030 4175 2605 3617 4051 3138 3924 3333 2720 3368 3686 3466 4287 4532 3887 4222 4192 2765 4570 3511 4085 3706 3569 4034 4694 2721 4763 2876 3323 3884 3941 2598 3726 2797 3405 3679 3216 2797 4193 4749 2673 2764 3543 2925 3500 3056 3309 2609 4893 3874 4481
9 13 38 12 34 21 14 14 18 35 5 11 33 31 35 7 38 0 5 9 36 33 27 9 35 22 24 1 28 33 33 6 14 31 19 28 24 23 25 1 20 33 22 12 30 37 12 32 10 30 26 24 37 24 22 7 39 19 2 2 35 15 20 9 37 20 4 20 16 30 16 4 1 35 20 3 34 25 21 23 9 20 32 20 18 28 5 39 22 9 25 11 32 5 11 13 5 32 4 39 24 26 3 5 38 21 17 14 27 3 17 19 6 27 19 15 24 14 35 15 35 5 30 36 37 32 32 10 39 1 19 8 38 22 39 15 7 4 38 19 34 35 21 27 18 37 23 28 15 9 19 32 21 19 7 28 10 24 10 30 28 12 3 14 17 32 15 7 11 19 30 23 27 10 37 27 38 8 22 19 10 11 17 12 2 23 26 36 20 7 24 7 11 6 39 8 30 31 4 3 3 28 34 25 8 14 19 4 5 1 35 37 22 14 39 36 23 7 13 23 2 4 23 16 33 4195 4303 3634 3622 4767 3147 2880 3141 3246 3076 4981 2847 3946 3808 4586 3643 4668 3241 4639 2656 3220 3372 4600 4719 3346 4491 2768 3344 2753 4519 3826 3134 4906 2754 3323 4163 2712 3687 4000 2925 4069 4426 2628 3267 2948 4694 3947 4015 3798 3897 4303 2732 4436 3669 3350 4753 3289 4291 4223 4110 4366 4859 3301 4938 4087 4655 4068 4647 4692 3207 4142 3075 2705 4934 3494 4306 4046 2555 3432 2858 4306 3384 2682 4683 4149 3952 3213 2568 3531 4204 2795 4026 2622 3130 4488 4514 4675 2972 3874 3671 4068 3321 2920 4465 3692 3559 2700 3614 2819 4137 3473 3020 4325 3137 3964 4781 4745 3964 2695 4838 3024 2626 2600 3491 10 3248 4934 2665 3316 3747 4248 3965 4515 4596 2518 6 4788 4735 4552 3186 4734 3613 2816 4701 3809 4823 2578 3524 4023 2636 4141 3964 3540 4151 4521 3851 3379 3144 4665 4494 3341 4642 4815 3800 3120 2879 2703 4926 3218 4130 4051 4367 3778 3505 3055 3873 4552 4558 3964 4159 4576 3280 4177 4648 2685 2553 3573 4155 3552 2759 4195 4475 3181 3575 3245 3829 4125 2666 3791 3409 3880 4374 4587 3679 3015 2948 3145 4212 4519 2700 3864 4490 4103 2972 4951 3030 3804 4980 4802 4536 2771 4960 3845 4087 4215
38 29 21 32 34 18 39 23 19 21 18 22 14 34 27 14 11 29 0 10 20 18 34 8 19 20 1 31 13 15 18 17 27 22 34 1 9 32 39 12 23 19 23 25 4 22 5 5 10 31 10 11 29 36 35 27 24 23 31 36 38 12 31 25 30 8 9 19 1 2 35 7 29 36 12 38 13 27 28 5 32 20 17 20 32 35 24 13 15 11 8 35 14 31 36 13 20 21 12 11 4 36 15 9 8 12 24 14 12 18 37 9 39 10 15 14 8 39 23 25 19 3 30 11 37 6 7 12 33 13 8 33 18 16 28 3 32 9 36 39 31 34 21 38 26 20 7 18 4 7 16 14 15 16 15 16 16 37 25 10 16 2 3 35 12 26 4 12 26 11 34 21 25 39 7 15 28 39 11 2 21 8 19 15 28 6 32 31 16 10 23 6 13 35 27 3 6 17 22 33 28 35 16 11 18 1 3 35 14 33 18 29 18 26 13 31 23 8 1 36 29 27 18 28 9 4094 4360 3496 3229 4872 4849 4883 2865 3721 4780 2685 3490 4049 4208 4316 3841 4085 4503 3865 3225 4970 2800 4511 2696 3052 3359 4623 2876 4969 4932 3720 4051 4751 3932 3194 4325 3124 2809 2622 3357 4853 2808 3358 2873 4337 3751 3253 2530 3331 3839 3514 3268 3989 3671 4866 3304 4153 3259 3570 3459 4896 4471 4779 3575 2678 4643 2801 3430 4100 4515 3927 2664 3999 3671 3003 3816 4236 4590 3724 2725 3729 3583 4640 3176 3896 4032 3486 4138 4059 3359 3331 3266 4664 4719 2981 2767 3903 3353 4763 3523 3388 2855 2598 4745 2740 2790 2754 4465 4846 4280 3347 4319 2898 2572 2857 4191 4954 3759 4187 4439 4977 3426 3190 2918 3120 3494 3054 3100 4894 2896 2877 3454 3951 3683 3286 4423 3397 2513 3042 4447 3929 3750 4876 4725 4074 4588 4485 4406 4212 3671 4035 3212 4767 4898 3134 4841 3207 4961 3389 2771 3706 2771 4322 2507 3199 4298 4279 3661 4576 2540 3047 4661 3152 3663 2914 4861 4726 3123 4199 2861 3298 2922 3136 4199 4478 2518 4698 3460 2934 3204 3658 2747 3438 4932 4776 3499 3815 3458 3495 4403 4077 4674 3494 4113 4492 3710 3768 4904 2651 3719 4669 3035 3261 3679 3832 4090 2585 3350 3865 2548 2968 3743 3626 4054 4589
14 11 12 37 24 31 16 7 11 6 2 5 26 32 26 19 28 12 12 0 21 37 38 23 2 16 39 26 34 23 9 10 16 19 35 17 5 20 35 19 16 19 22 17 30 16 24 8 25 30 6 27 35 12 27 37 31 25 9 5 25 37 14 22 9 13 37 5 23 25 13 23 25 23 11 12 31 3 39 15 16 31 18 25 24 37 5 7 39 26 26 27 13 35 29 12 7 39 8 13 13 32 16 14 5 36 30 8 21 6 10 12 8 7 7 30 2 27 2 32 25 2 24 23 9 10 6 12 2 27 28 32 5 19 13 30 14 14 24 10 3 4 31 6 25 34 22 35 12 36 38 36 37 36 24 19 31 38 24 24 35 31 39 35 2 29 9 35 21 9 27 31 5 10 5 27 16 7 28 28 37 27 12 2 3 36 15 5 4 22 7 9 30 24 15 17 39 12 26 36 39 16 20 36 14 6 17 15 29 39 12 38 39 11 36 33 9 9 22 24 14 31 26 39 29 4343 3263 3565 4207 4586 3259 3704 2694 3870 4163 2518 4380 3023 4116 4637 4081 3732 4795 3976 4480 3940 3880 3879 3237 3625 3552 3937 3212 2650 4476 2764 2712 2533 4828 3824 3837 2972 4448 3731 3974 3099 3160 4467 2831 3592 3719 4935 4048 3771 3485 2506 2706 3287 3344 2684 2817 2950 3597 3568 3771 3659 3236 4664 4837 3879 3107 3836 3741 2506 3633 4212 4077 3872 3700 3990 4426 3934 3271 4218 3635 3068 4803 2751 3624 4897 2834 4401 4332 2931 4840 4466 4840 3443 3075 4637 3157 3807 2745 4574 3378 4485 2916 3758 3109 4685 3527 3244 3559 4042 3200 4035 3628 4513 2990 4853 4468 2651 4841 4290 4512 3128 4016 3026 3202 2683 4063 4770 2690 3667 3066 3814 2649 3584 4488 3630 4167 2603 4247 4765 3112 2711 4204 3302 4090 2733 4256 3967 2681 2756 3399 2676 4712 4127 4171 4152 3391 3733 3854 2820 3261 2801 3051 3485 2888 3986 3562 2811 4925 3669 3547 3561 3543 3704 4126 4189 4362 4305 3175 2655 3363 3988 2966 4462 3674 2763 3182 4479 3203 3568 3753 3346 3496 4047 2751 4257 3335 3490 4692 4311 3812 3710 2690 4078 3860 4317 4229 3250 3110 2997 4157 2733 4474 4610 2904 2942 2923 3239 4943 2504 3309 4172 4008 4598 4935 3673
21 33 20 39 35 6 36 34 14 31 39 13 30 2 34 34 7 12 11 29 0 7 24 18 4 38 33 3 31 18 23 24 34 37 29 18 31 7 24 4 38 1 22 36 18 31 3 39 35 27 15 16 17 34 7 26 7 7 38 31 12 20 9 22 8 16 39 30 32 10 13 8 33 2 37 38 38 1 28 13 16 24 19 16 25 30 39 33 34 19 39 37 14 11 39 32 20 38 39 15 17 31 8 32 27 1 10 26 3 35 22 35 30 4 30 17 32 3 21 26 2 34 15 5 5 3 29 5 10 11 29 24 2 11 8 24 13 17 24 23 27 10 17 8 3 24 38 22 8 10 39 17 6 34 24 14 24 27 16 19 39 28 7 15 7 3 28 9 15 1 24 26 1 18 34 30 28 25 29 31 28 36 2 29 26 5 4 1 19 7 25 8 22 19 17 11 21 6 22 8 1 20 9 14 10 11 17 28 14 30 11 12 34 34 5 18 19 38 12 8 15 30 11 19 14 3028 3364 4828 3616 2597 4822 3628 4936 3086 3550 4126 3393 3555 4366 3114 4618 2838 2856 3903 4692 4405 2775 4462 3793 4720 2835 3436 4844 4855 3409 3654 4903 3699 4864 3027 3569 3301 4823 3652 4027 3212 2602 3599 3716 3166 4025 2691 4460 4726 3406 4686 3413 4180 3979 4779 3682 2673 3511 3980 2955 4651 3259 4283 4651 2693 3263 4339 4694 4418 3255 4105 3277 3364 4775 2520 4405 4331 3595 2781 4426 4779 3915 4996 3675 2501 3335 3192 2726 2795 4840 4306 2730 4983 2847 4079 4534 4244 3846 3951 2828 3982 3223 4322 2916 4281 3979 4901 4776 3870 2942 4439 2878 3247 4070 2577 3981 3172 3522 2771 4340 4670 2791 3128 4091 3647 4016 3234 4030 4420 4068 3742 3052 4590 3853 4446 2559 3996 4439 4532 3749 3549 4435 4260 4829 3378 3400 3820 3977 2669 2659 4977 4044 3188 4677 4276 2965 4928 4288 4350 3361 3618 3163 3795 2518 2880 2972 3077 4829 2819 4367 3424 3063 2538 3820 4970 4628 4114 3771 3351 3377 2599 3316 4259 4369 3887 4608 3660 4101 3167 4200 4116 4483 4750 2758 4662 3689 3343 3498 3188 3042 3224 3774 2971 3456 2597 2931 2567 4625 3754 3277 4590 3334 3248 4531 3286 4977 4740 4115 3736 3305 4883 3363 3891 4856 15
13 4 12 38 6 7 35 12 21 26 11 1 38 17 11 22 4 26 7 29 12 0 23 38 5 9 12 33 38 27 33 13 8 21 37 28 33 14 12 34 27 17 30 21 13 32 24 37 2 28 34 9 1 5 6 32 36 15 38 20 37 28 23 9 36 2 33 32 7 22 1 38 2 19 18 37 7 20 35 10 7 13 19 25 32 36 37 8 13 32 13 2 38 9 34 21 10 3 39 38 2 35 3 16 14 39 26 12 11 12 30 38 5 17 36 11 2 27 26 19 27 25 15 8 4 38 33 25 30 38 21 9 20 20 19 22 39 23 30 2 27 13 16 38 20 37 9 9 18 7 27 13 31 27 1 22 18 21 20 25 21 12 39 26 12 21 10 32 11 16 27 16 26 7 39 39 30 20 2 18 13 39 28 38 26 32 26 23 4 3 28 29 39 29 27 20 23 18 32 32 27 12 36 21 9 4 1 14 18 33 14 20 37 26 6 7 8 5 3 4 37 32 36 11 7 3342 4272 3769 4001 4801 2807 2846 2756 3899 3116 3300 3623 4060 2540 3219 3428 4401 2618 4854 3640 4128 4764 2561 3506 4120 3201 3767 2691 2714 4796 4552 4092 4391 3898 3299 3848 4714 3163 3397 3090 2953 3522 3541 3037 3586 4247 3100 3881 3265 4390 2903 2738 2852 3905 4262 3202 3292 4346 4097 4104 4574 2906 3340 3813 3450 2932 4506 3127 4163 2543 2662 4719 3297 3758 4943 4823 4530 4050 4620 4021 4226 3240 3905 3404 3021 3107 2979 3531 2804 3690 4986 3747 3806 3799 2947 4398 3450 4113 3959 3665 3269 3248 4820 3375 3677 4098 3738 2631 2788 4356 4642 4942 4217 2816 2997 3877 2757 3624 3217 4758 3178 2764 4143 2507 4398 4388 2857 2743 4351 3433 3606 4434 2621 4312 2867 3350 4616 2724 3552 3546 4822 4766 4422 3930 3538 4440 3080 4071 2761 3161 3942 4883 2576 3782 3540 4226 3811 3941 3610 3865 3183 2717 3401 3597 3400 4934 3912 3640 4108 3759 4052 4175 3219 3511 3012 3731 3507 2740 4645 3184 3143 2554 2769 3289 4538 2767 2566 3333 4048 3170 2793 2622 2700 2621 3221 3797 2930 3461 3353 3939 4871 4940 3686 4086 2551 4067 4419 3525 4985 4185 4050 4981 3167 2991 4567 4793 4469 2795 3448 4583 4296 3762 4129 4052 3742
31 18 17 15 38 28 24 18 1 34 1 31 20 1 34 6 1 11 31 2 19 10 0 26 4 3 15 31 29 36 18 31 22 39 29 17 33 33 6 15 28 27 28 30 5 25 19 8 1 27 27 23 5 6 22 13 14 19 30 12 20 25 38 5 6 20 21 7 21 19 31 24 11 28 35 20 3 37 31 15 33 10 16 14 22 39 24 7 15 8 31 16 24 34 35 24 13 19 12 2 23 7 33 32 19 30 29 13 5 25 25 33 39 13 37 25 18 9 32 15 18 3 13 9 3 26 23 5 13 24 17 33 39 16 2 14 20 19 11 12 29 6 33 3 4 5 2 1 15 22 36 28 26 17 2 28 13 12 35 29 10 22 19 30 4 16 35 23 29 10 2 27 34 22 19 18 21 34 35 20 20 28 38 2 23 20 21 27 28 22 25 19 22 4 36 3 20 22 29 38 3 24 35 37 1 5 5 15 7 36 1 29 31 19 37 17 9 20 29 26 30 16 33 32 8 4905 3751 2798 3755 4503 3777 2550 4659 3824 3556 4178 2569 4622 2605 2527 4407 4406 3051 3283 2818 3346 4999 3974 4665 4072 3836 4944 3119 4229 3716 4934 4073 3044 4928 2558 3556 3421 4968 2748 4774 2811 4634 4237 4773 2653 4698 3816 3044 3580 4395 4562 3239 3777 3440 4257 3188 3371 3483 3358 3660 3372 4931 2931 4617 4819 2996 4019 4857 4688 3236 4028 4837 4745 3574 4955 4058 3185 3598 4394 4490 2900 3196 4098 3175 2518 3648 4023 3457 4871 3261 4872 3352 4956 2737 3040 4403 3722 4604 3250 4107 4329 4095 4609 3786 4112 3272 2984 2880 3623 2697 3619 4719 3295 3119 4584 4428 3568 4121 3748 4751 3275 4687 2576 3574 3012 4306 4295 4530 2541 4972 4015 3833 3377 3046 3357 3148 3714 2594 3075 3979 3021 2904 2687 4783 4167 2724 4270 3615 3425 3929 4382 4981 4840 4612 3997 4920 4469 3627 3231 4734 3892 2568 2775 3293 3171 2602 4640 4746 3397 3934 3417 4208 3117 4634 3163 2590 2830 2814 4669 3496 3287 4635 4516 3641 2770 3647 3795 3152 3083 3802 4007 4571 4114 2938 3934 2929 4522 4308 4584 3953 2913 2793 4719 3321 3710 2724 4552 2959 4716 3701 4093 4653 3999 2858 4089 4405 4348 4569 3896 4475 3539 4161 3155 3259 2782
12 14 15 19 8 18 31 5 28 32 32 24 17 7 21 12 34 1 27 12 15 37 14 0 39 15 10 36 10 18 3 11 8 27 21 10 3 27 22 4 2 16 4 26 11 12 14 7 9 27 22 32 3 10 24 6 12 5 34 29 23 35 24 17 14 6 11 20 18 21 38 10 10 34 30 35 26 28 16 37 27 16 31 3 21 32 29 16 10 17 36 21 35 38 24 12 29 39 13 35 12 25 35 11 32 14 28 32 30 32 27 18 15 38 33 30 4 23 22 5 5 13 29 11 3 17 27 19 11 5 19 21 4 31 39 10 11 25 35 7 11 28 16 32 14 18 28 2 34 19 30 3 34 27 12 19 4 39 30 3 35 14 24 21 18 27 17 28 19 13 38 25 14 22 32 25 33 1 32 21 28 38 8 24 35 23 14 24 31 28 36 4 9 38 24 36 3 30 14 4 2 26 29 32 12 3 18 20 7 27 1 32 22 20 19 25 25 12 35 25 15 34 15 21 34 2544 3267 3880 3022 3047 2882 4509 4750 3130 3773 4873 4308 4010 4621 3853 3752 2787 4139 4163 4312 3460 4410 3039 3592 3733 4650 4376 4490 2657 4267 3373 3651 3309 4561 3475 4194 4553 4278 3257 3098 4776 3386 2836 4739 3105 3911 4016 4580 2886 2633 4519 3844 4222 2684 3168 3205 3682 3207 2724 4789 4735 4317 3093 4932 4190 4952 4112 2569 3853 2911 4157 3388 2780 3449 4986 4940 3458 3270 4073 4767 3826 4138 3920 4129 2666 3388 4178 3563 3021 3769 3976 2831 3509 4899 4991 3086 3359 4394 4800 4457 2768 4053 4976 3870 4356 3068 3235 2591 2923 2975 3677 3163 3955 2883 3784 3709 3342 3415 4801 4298 3419 4465 4300 4971 4478 4282 3155 3282 3520 4262 2954 3079 4713 4403 4400 2547 4717 2839 3228 3111 2514 3637 3377 3230 4678 4605 3995 3094 4040 2884 4374 3167 3592 2746 3934 3438 4486 4463 4074 2930 4992 4282 2584 3756 4390 4893 4669 3955 3406 2544 4959 2723 3377 4595 4318 3799 3839 4011 3128 2694 3898 3462 2524 2842 2712 4532 3426 3095 2928 2694 3554 3993 3073 4442 4581 2826 2685 4756 4160 4596 3437 4561 3318 4050 2581 3582 3987 4726 4691 3517 2858 4826 3350 3305 4962 4189 3853 3952 4350 4577 4115 3604 4676 2559 3739
39 27 9 18 24 23 17 26 37 33 37 23 11 12 6 31 13 11 11 18 7 31 39 7 0 18 39 12 9 37 17 18 30 3 33 9 31 18 20 17 17 34 18 38 5 34 23 15 20 26 35 11 22 3 4 29 26 36 33 29 27 33 18 9 30 15 33 6 2 19 30 24 16 2 31 20 24 30 32 10 28 39 25 27 36 27 22 37 11 24 15 18 17 30 5 6 10 29 20 11 16 14 19 26 39 30 29 32 15 14 23 17 24 28 39 34 10 37 10 35 10 16 19 26 25 21 12 27 22 18 19 31 14 16 39 31 20 18 31 18 38 17 38 30 2 39 24 7 32 20 19 19 20 17 35 33 29 31 37 15 29 14 25 9 21 35 11 12 17 10 34 11 25 5 2 25 39 16 13 16 39 12 3 1 25 7 33 6 4 39 29 20 22 30 38 23 34 36 19 27 18 36 19 38 36 7 23 16 1 18 23 9 5 13 36 9 34 11 38 10 2 13 30 21 20 4407 4735 3144 3384 4003 3127 2667 3521 3827 2939 3605 3925 4109 4233 4481 4428 4833 4493 4685 4681 3786 3157 3540 4047 3984 3449 3143 3283 2591 3446 3777 4223 4362 2925 3094 3963 2789 3482 4597 2527 4745 4917 2957 4095 2807 3186 4433 3761 3077 6 4933 4291 4266 3898 4065 4704 2750 4134 4901 2711 3785 3089 4783 4086 3678 2941 3053 3422 2758 4861 4988 2800 4042 2646 2743 4997 3679 9 3268 4899 3383 4578 4030 2776 4446 3739 4437 3024 3147 2964 3841 4127 2767 3752 2632 2904 3855 4425 4955 3659 4360 2672 4615 4142 4925 4319 2976 2508 4236 3845 4837 3641 3658 3703 4453 3428 2686 2582 3368 3390 3242 3406 2635 4439 4686 4733 4115 3439 4930 3389 4214 3412 3940 4140 4647 4482 3467 2559 3153 2797 4644 4179 4161 3631 4521 4578 4011 3229 2838 4262 2877 2785 2896 4709 4423 3879 3271 2672 3697 3353 4377 3365 2855 4764 2986 3500 3968 4095 3757 2997 3155 4632 3198 4292 3192 3538 4022 4911 4676 4902 4465 4814 4346 3865 4250 2993 4711 3519 4719 3425 4515 4374 2760 4852 4890 3548 3969 4140 4343 2589 2640 3984 3765 3976 4743 2862 3671 2552 4114 3732 4352 4432 4919 4911 4489 4452 4318 2633 3454 2994 4607 4540 2966 2982 3265
13 16 31 2 19 6 5 14 20 14 18 10 15 20 34 9 2 4 16 8 28 28 32 31 4 0 31 34 27 5 21 28 28 35 36 7 27 18 18 11 9 38 21 25 30 9 24 38 25 16 14 36 15 4 19 28 5 7 15 33 8 25 7 24 4 36 23 32 26 14 12 24 6 5 1 8 9 18 33 25 16 4 8 28 32 3 11 28 32 36 35 1 30 9 24 19 4 27 4 32 34 15 14 15 23 28 18 39 30 39 5 24 16 39 30 34 26 1 38 17 20 1 19 23 24 33 1 9 36 38 4 32 14 10 4 35 3 25 35 18 25 31 34 16 20 27 23 39 6 2 12 36 12 5 33 22 33 36 26 13 39 25 37 8 33 4 2 20 4 30 12 39 19 23 25 18 35 13 29 4 6 26 2 3 1 1 19 25 28 32 2 34 21 10 19 32 28 20 9 35 19 29 38 5 2 16 26 1 10 37 36 16 4 20 11 29 20 29 23 31 2 11 35 20 6 4134 4495 3297 3530 4369 4198 4491 3044 4400 3834 2645 4039 3405 4552 3047 2813 4885 4067 2587 17 3256 4643 3734 4232 3304 3198 4927 3193 3948 4500 3477 4876 4664 3172 4514 4130 2823 3677 4485 4543 4537 3094 3980 4220 4892 4979 2699 3552 4717 2684 4067 4847 3557 4677 3737 4072 4622 4321 4118 2760 2877 3703 3766 4723 3458 2812 4312 3069 4282 2760 3665 3394 4064 4362 4669 4970 2948 3125 3535 3532 4445 4474 4114 3266 2712 3728 3710 3069 3615 4473 4686 4659 2652 4081 2559 4986 4476 3474 3464 3673 4101 2510 2571 4712 4227 3510 4263 3285 4724 3611 4427 4279 3874 4549 3257 3157 4846 3269 3748 2680 4512 4298 4844 4103 4434 4109 4211 4555 4282 4141 3410 3585 3494 3652 3485 4903 2689 3404 3982 3954 3117 4028 4815 4991 4542 3525 4816 4095 3725 2949 3382 3491 3152 4255 4854 2639 3909 4067 4815 3163 4908 2837 4514 3668 4242 3203 4538 4472 3712 2609 2792 2610 2730 2588 4722 3434 3574 4292 4433 2532 2809 4051 3137 3982 3091 3008 4163 2822 3300 3848 3927 3910 3514 4711 4094 3599 3094 4907 2976 4875 4022 3451 2505 4053 2778 2801 4795 4968 4359 2862 2627 4435 3137 4775 3062 4897 2655 3136 3778 3019 4492 3649 4982 3659 3398
15 2 15 27 2 35 33 18 12 1 17 38 24 20 6 20 37 8 13 36 34 3 29 9 14 24 0 5 2 39 23 37 12 21 23 17 29 6 6 3 25 18 11 16 16 33 23 12 18 31 18 30 8 26 8 31 23 23 24 27 22 33 6 13 32 29 19 26 38 7 13 14 28 21 29 39 2 38 17 8 36 11 33 9 18 22 38 29 36 21 21 22 14 32 29 17 24 13 27 34 16 31 22 25 21 13 18 7 15 30 33 36 1 23 17 10 24 32 13 5 5 26 15 11 5 33 13 31 9 33 27 35 7 37 13 22 15 14 17 31 37 12 24 6 12 4 21 22 36 18 34 12 37 32 31 34 23 32 26 22 7 10 31 9 6 17 11 23 16 12 30 25 22 7 28 23 12 37 15 33 28 5 20 9 4 20 15 22 38 18 20 14 6 24 10 30 28 18 37 39 27 27 22 15 38 13 30 9 14 5 20 39 33 33 10 17 12 38 16 22 18 33 4 23 37 3702 4599 3712 4119 3942 3539 3692 4683 4864 3539 3121 2891 3106 3519 3795 4430 3894 4442 2663 3806 3249 3717 2959 4709 3429 2861 3901 3895 3733 3946 4405 2805 4010 3181 3767 3138 3625 3046 2649 4761 4559 3714 2712 4184 4520 4488 4427 3979 2650 4015 4950 4058 4274 4046 2763 4954 4618 3253 3729 4100 4913 4272 3446 4210 2924 3806 3364 4097 4497 4879 2887 4366 3512 4323 3747 4673 3888 3957 4412 4784 3564 3391 4475 4212 2692 4976 2984 2588 3823 5 3464 4400 2690 3506 4812 4008 4016 4155 4876 4039 3023 3378 2665 2877 3057 3415 4372 4119 4588 2750 3166 3032 3978 4707 3354 4208 2942 3531 4846 3657 4029 4010 4311 3728 3063 4904 4461 4980 2839 3121 4998 2684 2732 4622 4371 3012 2701 4671 4919 4899 4774 4412 3090 4398 3873 3853 3782 4040 3862 2549 2857 4189 4866 2619 4764 3190 2702 13 4767 4802 3359 3736 3954 4314 2927 2669 3980 4282 2797 2669 3402 3827 4830 2843 3619 3965 3124 2813 2774 2804 4621 4161 4033 3325 4575 4202 2718 2716 3456 2978 2705 3387 4466 3966 3802 4519 2950 3719 4111 4841 4366 3511 2979 3435 3454 3561 3353 3126 4963 2900 3194 3661 3426 4490 4796 3890 4731 2873 4849 3482 4108 3939 4313 4685 4151
39 26 38 29 16 3 15 25 34 32 17 18 24 13 8 30 8 22 34 6 16 35 23 25 18 29 24 0 7 22 12 37 17 18 16 26 28 25 2 38 37 23 33 7 20 24 4 13 21 5 32 18 28 5 28 19 5 3 17 18 24 5 5 2 1 2 16 21 30 16 14 2 19 32 1 1 6 26 5 7 6 20 18 9 36 4 27 38 28 5 1 39 36 25 5 12 8 32 23 13 10 13 7 30 19 34 12 32 20 28 30 7 26 16 7 3 20 10 35 12 20 6 17 4 2 32 30 19 19 19 9 21 18 19 37 10 11 24 25 18 6 19 39 3 1 16 14 21 2 32 38 35 14 28 19 24 25 34 39 33 5 32 25 36 35 15 18 16 39 36 14 20 28 1 28 26 34 9 23 23 6 1 6 16 9 24 14 39 2 22 21 19 15 28 28 15 23 34 21 27 18 17 7 20 31 13 9 15 5 15 35 30 19 17 25 2 24 17 38 27 24 6 26 18 39 2638 2633 4511 4924 2500 4816 2587 3905 3607 2923 3614 3561 3497 2644 3965 4833 2815 4171 3388 3226 4992 3479 2615 3565 3583 4483 4989 4009 2646 3827 3662 3275 3886 4702 4516 3156 4916 3362 2775 4233 4836 3374 4876 4265 4034 3741 3208 3734 2863 4126 4922 4632 3058 4649 4841 3974 4807 3530 4728 2776 4940 3944 4063 2945 2694 4747 4144 3963 4799 2540 3584 3546 3108 3383 2568 4880 2608 2965 3268 3969 2749 3820 3842 3190 3518 4627 14 3907 2656 4860 3689 2579 3209 3639 3993 4210 4190 3222 3419 3363 4608 3024 4233 3407 3770 4284 4582 4131 3582 4784 2778 4627 4907 3354 3275 3829 3583 4050 4220 4331 3340 4539 4392 4712 3364 3859 4549 3104 2669 4013 3309 2554 4022 3433 4216 3766 2828 3234 3372 3306 4367 3159 4490 3006 3333 3204 4383 4149 4596 4893 3184 4916 3315 3312 3982 4388 2740 2544 4879 4868 3518 3409 2984 4047 3856 3179 4223 2935 2756 4911 4810 3504 2743 3399 4985 4025 2508 4760 4548 3616 2694 2559 3049 4301 4031 4436 4777 4541 3748 3692 2945 2566 2826 3816 2891 3485 3102 3062 4146 3189 3298 2814 2912 3830 3353 3546 3768 2574 2999 3457 3693 4525 3628 2918 2578 2744 3083 4713 3791 3455 3272 4365 3516 3564 4760
28 11 26 25 2 11 21 21 33 28 17 18 23 9 35 26 22 20 33 31 3 9 31 11 24 15 19 1 0 25 22 28 28 21 9 17 4 39 12 23 13 16 28 37 26 36 15 9 14 2 25 28 16 33 37 31 34 4 35 37 30 38 37 28 10 20 30 2 9 34 18 11 17 2 18 25 3 21 24 27 34 37 13 14 24 37 31 31 29 14 21 29 31 4 19 37 26 34 36 19 21 33 36 38 10 18 14 2 30 35 7 38 22 39 20 18 31 17 21 35 23 21 1 26 32 33 30 38 27 15 21 32 33 28 34 23 25 27 1 29 17 15 31 32 20 18 17 20 37 10 16 34 12 6 12 2 13 1 32 21 24 11 31 32 5 13 31 22 38 38 7 8 13 36 11 32 31 33 28 30 17 37 19 31 30 29 38 32 3 4 1 10 35 24 5 7 1 8 4 13 26 28 5 21 6 8 34 13 4 30 19 7 13 7 13 2 31 25 3 23 38 11 28 36 9 4249 2955 4266 3281 4221 3469 4669 2512 3716 4293 3442 3085 3849 4258 4463 4450 2577 4634 4157 3065 4085 3067 2696 4087 3629 2711 3820 4373 4876 3213 3775 4244 4249 4183 3999 3554 4401 2864 4972 3762 4017 3311 4582 3034 4905 4685 4150 4997 4594 4026 4601 2531 3606 3897 4699 3612 2979 3201 4202 3691 4553 3270 4868 4682 2602 3292 3305 3563 4289 4500 3134 4593 4884 2719 3890 4307 4916 2744 3859 4908 4000 11 3264 3649 3417 3970 4600 3896 2743 3375 3069 4921 3051 9 2715 3047 4630 4206 3862 3031 4474 4375 4979 4706 4234 2611 4154 4054 4671 3519 3156 3611 3793 2824 3901 4535 2710 4622 3788 2876 2844 3321 3364 4508 4831 3430 4859 4322 4089 3770 3329 2752 3297 2684 4851 4119 3059 4954 2739 4378 2987 4115 4098 2622 2624 2898 2938 3085 2771 4521 3448 3102 4688 4978 3448 3515 4041 3817 4419 4700 3680 4150 2520 3649 3154 4221 4059 4034 4933 3189 4854 3229 3364 4165 3456 2665 4157 3635 4080 3773 2602 2561 2760 2982 2906 4539 4114 4189 4939 2603 2817 3896 4127 3720 4831 4315 4980 4378 2852 3728 2904 4708 3666 4670 3654 3107 3576 4874 4318 4495 3103 3364 4576 3419 3901 3482 2732 3955 4106 4826 3729 3020 4657 4297 3248
3 8 35 11 10 39 11 27 1 28 29 1 15 39 32 6 28 15 2 6 6 35 34 1 5 22 15 22 18 0 12 32 24 35 2 28 34 28 19 19 17 32 25 28 3 19 33 20 14 7 37 1 16 24 29 34 25 27 11 22 36 1 9 23 2 19 25 22 25 9 34 30 18 33 20 9 17 16 22 7 30 24 39 32 37 6 33 9 4 9 28 32 20 13 12 30 12 33 9 3 15 31 26 1 9 29 24 23 32 15 29 16 39 31 9 39 38 5 24 4 38 32 10 28 35 36 24 6 38 17 20 37 21 21 37 6 25 5 27 11 34 21 23 1 28 11 13 13 9 19 12 29 10 19 33 1 17 17 26 31 12 4 6 2 18 22 25 32 32 31 26 31 13 31 31 39 19 19 15 32 12 9 39 32 36 18 37 20 19 7 3 8 22 32 36 15 16 18 39 30 37 21 19 25 6 14 10 35 29 20 24 19 2 13 5 35 2 39 6 12 34 3 16 4 34 2740 3132 3202 2893 4792 4432 3374 3950 3274 2656 3539 2887 4057 2809 4037 3882 3184 3229 4198 3547 4955 4953 2802 3175 3099 4994 4201 3890 2814 4673 3503 4396 3069 2925 4814 4031 4084 3052 4558 4747 4939 3881 4214 3766 3038 3021 2729 3055 2575 3896 2766 4556 3618 4867 4152 4032 2526 4062 4257 4438 3919 3158 3631 2501 3966 3239 3177 3388 3789 4561 4353 3944 2594 4270 3361 4388 3058 4152 4705 3499 3226 4817 3052 3398 3066 2736 4203 4462 3792 4081 3692 3899 4748 2910 4607 4656 3487 2674 3478 3365 3823 2756 3183 4103 3848 4190 3837 3083 3177 2849 3182 4231 2634 3993 3725 3268 4735 3289 3423 4215 2549 2543 3168 4317 3559 3106 4017 4448 3903 3601 3278 2808 4922 4469 3287 4980 2952 4463 3674 2753 4899 3963 3887 2963 4394 2969 4971 3510 3349 4059 4544 3004 2957 4081 4536 2847 4933 3493 4873 2914 4060 3310 3747 4824 2858 2918 4509 3890 3253 4908 4230 3806 4375 2933 2925 3647 4707 2622 4816 3721 3656 2631 4270 4608 4013 4659 4970 3988 3408 3054 3918 2686 4858 4639 2831 3755 3513 2817 3902 3214 4723 3487 4355 14 4299 4097 2661 4591 4359 3096 4280 2593 4680 3212 3482 3446 2659 4064 4975 4849 4766 3626 3395 3187 3180
9 34 11 9 3 8 22 6 5 8 16 1 35 10 33 8 10 20 19 11 9 23 10 8 1 34 35 2 35 5 0 5 33 29 4 7 21 23 18 3 36 37 13 32 23 27 23 18 12 6 8 17 28 39 31 3 24 14 8 17 35 10 6 1 39 17 33 38 28 19 37 13 37 17 36 12 2 25 21 2 12 32 31 16 16 10 20 11 7 36 11 35 37 21 24 39 24 18 11 30 37 19 11 14 19 24 20 3 17 34 31 22 26 38 35 39 14 1 21 12 11 33 39 30 27 34 25 39 14 16 30 25 30 4 11 24 16 24 32 1 1 9 4 24 33 9 31 17 13 38 6 14 11 13 10 15 6 6 24 34 11 9 7 22 21 17 22 32 32 9 29 33 2 1 4 20 3 9 4 23 2 39 34 9 32 33 22 8 12 6 36 4 27 15 8 7 23 18 7 1 30 13 14 34 18 39 13 19 2 32 7 14 21 37 14 12 17 3 4 13 5 18 25 7 33 3759 3424 2795 2822 3742 4667 2609 2600 4984 3401 3736 3340 3525 2857 3323 3561 2727 4560 3701 4888 2995 4009 4138 3926 3350 4025 3912 3927 3438 4165 3969 4659 3602 3763 2938 2908 2675 3089 4493 3575 4866 4042 3058 3282 2709 3169 3488 3537 2501 3156 4040 2619 4400 3093 4877 2569 4428 3105 2847 3453 4676 4860 3189 3193 3363 4231 4073 3513 2662 3366 3906 4273 2551 3005 4538 4295 3674 3965 4127 4311 3919 3448 4349 2995 4229 4218 4729 3992 4283 4798 4562 3018 3349 2582 4338 2944 3841 2644 3857 3138 4720 4022 3721 4127 3729 4152 4496 4584 3015 4553 3859 4585 4594 4797 3413 2872 4167 3373 3045 3235 4491 4578 3997 3762 3238 4840 2870 4938 3714 3322 4479 2730 2806 3468 3953 4005 3015 3593 2721 4836 3665 4276 2870 4441 4875 2783 4264 3696 4357 2936 3597 3887 3250 3885 3128 4250 3455 3304 3666 2742 4160 4522 3210 3303 4771 4651 4277 4123 3895 3479 3625 2535 3667 4473 2502 3699 3977 4643 4244 4378 2781 4616 3232 3698 4933 3713 4313 4211 3723 2644 4937 3312 4202 4747 2678 3323 4552 4894 4988 3130 4820 4265 2918 3405 3516 4765 2682 4873 2872 3268 2979 4155 3871 4673 2653 4789 4220 3365 4717 4468 2721 2608 4112 4598 3417
20 9 34 20 4 38 31 23 17 5 3 8 8 16 22 4 6 12 17 15 29 38 15 20 8 32 35 6 30 17 22 0 32 15 30 11 14 35 33 33 38 8 19 29 13 26 18 36 32 13 37 8 11 4 18 32 24 1 21 14 14 1 28 28 37 24 24 5 19 8 37 14 22 28 38 12 19 10 17 34 13 30 15 23 27 27 25 23 26 35 13 36 17 21 26 19 18 8 17 20 19 31 26 12 30 5 17 18 30 25 31 24 36 34 3 20 26 21 33 5 29 26 32 13 5 39 27 17 12 8 21 39 21 27 20 24 1 23 26 28 25 18 16 11 2 24 25 15 36 27 10 22 38 6 23 12 13 13 39 3 3 29 12 10 37 34 20 21 20 21 4 35 34 18 9 8 14 9 37 16 4 1 12 37 19 10 28 20 23 8 14 18 34 26 12 2 24 32 24 6 4 15 12 34 20 21 28 26 25 27 36 36 20 17 29 27 18 8 1 23 32 35 24 30 21 3613 3315 2892 4918 2958 3405 3741 3246 3629 2705 4660 4204 3410 3772 2694 4559 3261 3737 4756 3763 2956 4627 3902 4868 4234 4753 3414 3040 2826 4039 2605 4561 3405 2556 3596 3632 3653 4689 2854 2973 13 3101 3246 3257 2545 3841 2758 4529 2806 3535 4004 3324 3129 4777 4382 4788 3190 4842 2613 4258 4698 4583 3950 4371 3843 2855 3250 4447 4916 4274 3290 3474 4449 2656 3628 3861 3304 2676 2579 3837 4745 3126 4891 4294 2597 4218 3569 3937 2743 4237 3606 4052 2776 12 3876 4221 3041 3823 3248 4785 3811 4080 4327 3179 3339 3493 4302 4227 3875 4841 3966 2572 3452 3990 3112 3303 4973 4543 2800 3882 3351 3234 3029 4744 4210 4279 4802 2590 4780 2728 3340 3973 4312 4901 2598 2820 4016 4453 4129 2651 2596 3585 4675 3107 3138 3684 2894 4930 3237 4348 3776 4432 4693 4272 4442 3648 3527 3865 2991 4123 3853 2857 2874 2973 3157 4225 2979 3580 2812 4984 3635 4770 4434 4172 2521 2796 2878 4946 4000 4635 2652 3891 4670 4112 3663 3813 3735 4160 3376 3508 3968 4568 2816 4171 2636 4479 4926 4066 3663 3530 4342 3261 2864 3681 3899 4607 14 4165 4366 2793 3560 4867 4225 2812 4347 2612 3219 3088 3167 2511 3132 3355 2977 3537 3016
4 5 23 9 25 22 6 37 5 31 11 14 25 7 9 6 23 27 2 25 34 30 26 16 7 16 19 3 33 32 23 34 0 34 32 27 13 36 37 17 34 15 36 37 10 20 14 5 16 9 11 18 31 4 35 15 15 19 28 22 33 16 17 39 14 34 30 13 24 3 18 35 25 19 13 9 33 33 7 33 23 13 22 15 30 20 31 35 28 3 2 20 34 6 10 14 34 25 6 31 29 9 31 22 18 17 2 22 32 23 38 34 18 6 16 37 26 34 35 26 5 10 28 1 2 26 36 30 37 27 20 19 33 18 10 18 39 32 27 4 22 17 29 21 34 24 8 39 26 23 14 33 26 4 36 24 8 1 24 10 28 7 36 39 33 27 17 21 29 33 22 31 31 34 5 14 7 1 8 13 16 17 20 26 3 2 23 2 33 8 39 3 7 16 32 6 36 38 14 11 14 37 31 13 21 28 14 20 30 35 3 23 35 16 16 36 20 34 15 22 16 8 39 18 13 4280 3716 3463 2824 4138 2658 4272 4963 3739 4522 3652 4503 4997 3626 4000 4950 2589 2749 3768 3393 4940 3625 4372 4195 3291 2668 4000 3980 4536 2701 4313 4732 2697 4346 2974 2705 4233 3615 4621 4764 2558 3062 2786 3386 3089 4389 3374 4936 3706 4661 4601 3613 4094 3427 4965 4783 4731 4126 4659 3106 3679 3571 4771 3736 3921 3379 4622 4693 4552 4058 4893 3792 4605 3024 2777 3348 4031 2847 3442 2616 2776 2979 3577 4580 2670 3094 4108 3676 3620 4900 4684 3139 3277 4753 3089 3957 3607 3628 4054 4669 3341 4563 4837 4139 2770 3427 4382 2649 4984 4516 2914 3474 4155 4110 4576 4611 2802 3377 4405 3457 4154 3604 3043 4663 3033 4870 4739 3078 3538 4998 2820 4378 3997 4039 2948 4447 3304 2627 2996 3300 4812 3047 3967 2957 3020 4761 3600 2627 3161 2762 4380 2945 3316 3288 3506 3224 2543 3428 4210 4769 4932 4407 3898 3559 3941 3195 4586 2640 3075 3361 4856 4483 3799 3512 3824 4114 3357 3119 3159 2919 4121 4642 2739 2574 3702 4153 2726 3219 2507 3950 4779 3039 3506 4065 3934 3297 3243 4725 4403 3018 3711 4314 3260 4137 4654 3388 2817 4933 4207 2715 3906 4335 3033 4319 3733 3569 2927 4487 2768 3034 4849 3552 3916 3558 3500
27 16 20 39 13 24 34 5 36 15 39 2 21 20 19 20 33 26 11 29 35 27 14 4 18 15 31 29 12 23 4 14 35 0 16 28 4 5 22 15 5 32 36 23 2 17 15 1 39 29 28 12 1 28 9 36 32 5 24 39 13 35 23 9 25 22 28 17 36 5 38 13 17 29 10 17 8 6 16 31 29 12 1 20 6 39 10 14 8 24 37 13 18 32 2 14 20 12 26 26 5 37 5 6 8 7 20 23 35 25 22 37 31 6 22 21 38 30 7 2 11 12 13 13 13 27 37 14 38 15 30 9 15 15 28 19 30 23 21 25 5 35 1 7 3 17 4 13 23 30 29 22 14 3 15 12 24 27 38 34 8 2 8 36 31 15 30 23 2 12 5 6 18 27 5 12 6 6 29 25 31 34 28 11 23 4 12 36 35 15 26 38 30 3 22 7 20 19 28 25 2 39 21 1 8 25 1 9 19 20 20 27 22 32 38 7 23 21 18 27 36 25 13 25 16 4632 3625 2908 3745 4991 3483 4675 4554 3174 3104 2923 4453 4338 3783 3402 3205 3158 4086 4256 2988 3850 2514 3292 4116 3617 3981 2712 4638 3452 4680 4503 4675 3258 3519 3162 4516 4037 3951 3484 2955 4464 3693 3337 4118 4711 4511 4344 2897 4542 3234 4748 2969 3716 3522 3360 2712 3904 4235 4118 3617 3737 3727 2523 2832 2949 4120 2940 3954 3823 3509 2739 2730 4060 4440 4031 4605 4442 3612 3885 3838 2618 4849 4718 3305 3494 4714 2818 3288 3463 2821 2902 4725 2611 3349 2556 4645 3556 3118 4504 4263 3658 4545 3447 3454 3890 2751 4613 3688 3491 4366 4776 4452 4553 4226 3102 3876 2704 4080 3839 4612 2672 4418 4650 4663 2945 3417 2923 2939 3336 4575 4070 4534 3365 3084 3036 3961 4899 4134 4192 4778 2643 2807 3265 4248 4172 2961 3585 3393 3030 3391 4185 3004 3646 3897 4164 4810 3153 3799 3410 3801 2881 3457 4419 3600 4004 4464 3783 3178 3099 2885 3885 3283 2695 4642 4426 4224 2558 3798 3877 3523 4954 4156 2501 3344 2693 3676 4208 2830 4351 3034 3774 2830 4397 4485 4756 3315 3699 3790 4996 4714 4772 2719 4599 4191 3783 4086 3323 4404 3785 4596 4449 4642 4287 2617 3479 4352 2764 4463 3294 4657 4196 2773 2923 3402 4147
17 24 2 24 19 28 28 25 18 27 34 10 38 35 32 2 21 3 14 17 39 17 7 37 14 28 6 11 32 17 38 20 36 22 0 15 22 3 5 14 17 27 34 30 19 32 1 20 22 31 24 7 2 16 25 10 38 8 36 15 11 25 31 14 38 33 17 6 29 18 30 2 38 2 38 31 14 20 12 25 38 14 34 28 13 29 39 39 24 29 26 32 8 17 18 8 23 38 13 10 32 1 31 16 3 31 24 13 30 10 19 2 6 35 39 31 33 6 4 16 10 37 26 5 19 39 37 24 12 17 35 23 5 23 2 16 27 19 18 28 17 13 6 22 15 32 26 31 1 1 37 35 12 16 21 20 26 10 31 21 2 11 28 5 12 25 11 6 25 25 26 7 30 26 33 18 33 8 25 38 10 10 18 20 35 39 3 17 6 14 28 21 5 3 21 39 12 17 10 31 8 20 9 25 19 26 5 9 23 33 14 11 9 9 5 37 26 13 18 25 14 7 22 11 22 3339 4111 2729 3254 3876 3684 3276 3448 2618 4553 4950 3613 3006 4909 4959 3577 4669 3845 4849 2754 2789 2835 4209 2873 3964 4574 3756 3160 4141 3732 3096 4946 4567 4741 4921 4019 2767 3765 4430 3426 3996 4715 3770 4469 3327 4645 3560 4026 4876 4909 4908 4059 4422 3808 2653 4320 3798 4288 2851 2686 3228 2655 4216 2683 2838 4956 3396 4613 3698 3610 4741 4051 4709 3597 4641 4212 3894 4932 2710 4119 3569 3298 4782 3344 4727 4173 3878 3159 3776 4473 3738 4361 3441 2819 4042 4004 3755 2644 4726 3616 3848 3438 4380 2673 3625 3556 3497 4622 3149 3416 4776 3454 4140 3404 4416 4768 3224 3849 3886 4674 4764 3636 4886 4642 4118 3707 3068 3197 4489 2791 4827 3716 2928 4390 3393 3054 4739 4677 4075 2540 3942 4748 4242 3149 4418 4663 3807 3765 3155 3241 2677 3369 2568 3720 4543 4165 4213 4078 4920 4904 3717 2957 3848 3236 3621 4445 3123 2853 4948 2794 3446 4355 3431 4728 4181 2998 2959 4399 2718 2825 3863 3259 2778 4196 2772 4337 3348 2602 4961 3677 3174 2706 3543 4546 3670 3253 4308 4009 4534 4344 3331 3534 2908 4286 2961 4821 2730 4030 2512 3921 3410 3254 3316 3485 2501 3328 2690 4511 3925 3852 3240 3313 4263 3849 3378
29 36 23 12 34 17 31 25 27 21 3 12 12 18 32 18 25 3 15 20 2 13 20 22 14 35 21 37 33 4 17 2 19 6 33 0 2 11 38 18 22 14 14 16 26 28 12 22 18 38 20 19 3 16 10 39 31 23 2 29 16 30 11 29 11 1 34 13 18 25 39 24 28 26 10 15 29 27 10 29 39 13 31 13 1 28 23 4 6 19 24 17 6 21 35 19 5 7 13 5 14 22 23 9 20 34 4 9 14 13 21 22 18 12 12 36 37 13 4 20 1 24 30 35 31 24 30 19 30 27 23 10 18 38 38 16 28 6 30 13 23 12 13 21 26 37 2 32 17 30 1 2 24 36 12 26 2 10 2 13 36 18 8 18 10 18 14 28 15 32 32 36 36 20 37 24 5 12 8 8 8 20 8 5 32 14 6 31 20 20 8 16 13 17 22 15 29 14 11 32 3 21 5 13 29 34 14 26 29 19 13 9 14 18 34 22 2 31 11 25 3 25 10 18 34 3969 3129 3263 2709 2921 4766 4995 2907 3003 3001 4322 3373 3818 2997 3244 3370 3782 3438 4989 4517 4636 4635 4868 4322 4427 2628 3441 3271 3780 4045 2691 3102 4932 4466 4774 2519 3606 3315 4952 2729 4726 4076 3740 4995 4105 4160 4126 4253 3752 4577 2827 4596 4302 4425 4290 3228 2518 4402 4770 3852 4519 3087 4519 3313 3590 3806 4667 2681 2708 3902 4496 4490 4237 2952 4076 4260 4998 3250 4103 3124 4817 3276 4572 2571 4710 4771 2637 4770 4142 4611 3451 2632 12 3050 4789 4066 3947 4006 4714 4047 3517 3786 3934 3314 4354 3813 4666 3402 4119 4672 4824 3534 4769 3435 4350 3751 4362 3222 3780 3620 2756 4261 4598 2613 3472 4758 2789 4543 3982 3650 3725 4318 2848 2887 4459 3619 2591 3824 2761 3709 4290 2523 2878 4322 3787 3766 2835 3949 2712 2912 3616 4581 4457 4076 3565 4180 2903 4076 3442 2714 4946 4790 3744 3510 4126 4515 3969 2972 2936 2899 3237 3746 4898 3038 2719 3660 3801 3818 3789 4292 3415 3418 4617 2944 2741 3843 3897 2953 3808 3900 4089 3543 4231 2733 2573 3307 2648 4510 4279 2982 4148 4620 3017 4595 2961 2987 3462 2904 3796 3147 3469 3348 3745 4935 4471 4010 4581 2684 3052 2775 4854 4001 4739 4077 2677
3 36 2 26 9 21 20 2 35 3 16 18 38 38 28 28 19 17 36 28 39 22 39 6 35 4 31 37 22 33 22 23 3 13 12 28 0 36 8 25 4 5 6 31 19 16 8 31 38 14 33 20 13 22 31 28 3 26 3 29 12 25 12 8 29 5 23 14 3 19 39 3 12 14 28 36 35 24 3 33 37 25 13 21 9 16 39 5 33 14 14 18 6 28 21 15 11 18 13 3 6 24 30 23 6 38 34 13 31 39 18 36 35 19 1 37 26 32 24 12 35 37 26 25 29 20 34 8 27 22 19 7 26 33 26 33 6 16 26 21 6 1 21 33 3 38 9 14 20 39 5 36 20 31 26 30 20 13 32 5 36 36 21 32 35 11 6 17 12 17 33 35 29 36 23 7 6 22 6 14 33 8 33 23 38 19 3 7 18 32 33 2 1 16 4 28 38 16 25 11 18 5 9 11 31 38 39 19 31 31 28 38 12 37 7 1 28 38 10 37 3 15 34 25 39 2542 3478 2667 4290 2588 4861 4298 2592 4238 3869 2789 4730 4134 3261 2972 3521 3991 4238 3580 3126 3803 3117 4304 3714 2681 4426 3816 4814 3966 4459 4527 3187 2983 4078 3177 3866 2591 3050 2721 4651 4633 4199 3993 4203 3310 2729 4635 4734 4815 3886 4138 2686 4361 4151 3531 2523 3062 2981 4162 3565 4861 3027 3247 3918 2693 4490 4059 3452 3453 4910 4110 2935 4370 4426 3977 3535 4750 3244 3332 4874 2638 4178 2973 4735 4351 4281 3303 4906 2558 3892 3505 4027 4224 4064 2876 3774 3940 4989 4241 4433 2882 2743 3793 4447 4781 3019 2574 3969 4647 4430 3258 3640 4069 3324 2975 3589 4695 3277 4423 4722 4453 2692 2606 4262 2820 3518 4576 2581 2774 4842 4438 3195 2573 2978 2875 3188 2700 4389 4867 3253 3823 3446 4098 2967 2604 3910 4812 3743 4653 3453 2722 2966 4786 2911 3351 4984 3501 3273 2595 2810 2776 4104 4156 3537 11 3310 4329 4620 4237 3362 3786 3014 2742 4590 4024 3587 4151 4249 2728 4807 3960 3224 3719 3593 2888 2801 3560 4849 4880 4173 3434 2588 2581 4946 4770 4239 3863 3725 2588 4084 2722 4486 2501 4605 4351 3303 4169 3482 3300 4210 3445 3853 4774 2732 3692 3833 2866 2666 2756 4339 3585 3841 3236 4266 4748
34 30 17 2 18 37 23 32 1 1 29 20 24 7 1 34 33 26 39 24 12 4 12 37 8 35 21 19 22 12 22 24 11 15 20 28 6 0 21 31 18 38 29 16 17 30 8 28 14 1 12 13 34 36 35 20 2 26 13 5 21 16 14 38 34 24 2 3 21 34 6 2 4 4 22 33 29 39 26 17 12 26 24 19 3 2 24 5 6 22 4 37 4 22 35 18 24 1 34 10 21 32 23 35 30 28 30 14 8 19 6 26 4 12 20 34 36 20 35 27 1 28 22 19 8 38 12 12 14 9 33 13 37 10 1 34 7 7 3 7 26 36 9 8 6 28 15 18 6 11 11 4 16 9 5 15 7 8 14 5 8 1 20 2 5 17 28 33 19 5 36 4 4 29 26 39 22 27 1 22 27 7 8 21 36 6 20 16 11 25 32 35 31 28 23 26 5 11 4 17 6 32 38 17 18 18 1 6 25 7 20 8 24 35 14 35 8 22 36 27 8 11 30 39 33 2523 3491 2855 3136 2727 3932 3400 2738 4775 4523 2523 4968 4403 3560 3794 4764 3509 4819 3349 4981 3916 4962 2672 2509 3510 4515 3721 3960 4264 2584 2922 3481 3824 15 4229 4487 4044 4473 3864 4120 2717 4831 4348 2871 4542 2855 3153 2708 4063 4733 4257 4993 2524 4066 3127 2524 3612 2763 4056 2737 2537 3241 4303 3835 3455 3188 4840 2782 2978 3002 4212 3026 3710 4927 3568 3523 4611 4705 2615 3909 4794 4501 2527 3981 4760 4529 4603 3903 4072 3729 4234 4060 2630 4389 4445 3460 3693 4574 4359 3297 3508 3888 4827 4349 3056 2980 4312 2794 4003 4051 4563 2624 4562 4277 2914 3064 3187 3483 2915 4497 3370 4477 4358 2520 2707 3962 2862 4937 3482 3871 2719 3294 4527 2732 4357 3585 2634 3734 4365 4636 4722 4031 3578 2565 2794 3164 3665 3226 2697 2852 3120 4675 4955 4375 2590 4001 3762 4571 4864 4278 4076 2777 3600 4212 3197 3522 2747 4647 2766 2873 3154 3811 4783 4792 2816 4206 4833 3750 4793 2539 4791 4321 3186 4959 4062 3993 4483 4086 2576 4507 2582 4090 3635 3775 4942 3454 2904 3040 3272 3117 2869 4519 3202 2560 4258 2589 3057 2753 3109 3683 2959 3921 4582 3582 3112 2851 4659 3754 2955 3048 4294 3992 3075 3822 2885
6 25 39 23 30 13 7 16 22 18 13 27 30 25 1 21 27 35 31 33 23 8 38 1 24 2 7 13 4 35 24 29 6 38 36 12 5 32 0 9 10 11 7 26 39 18 37 9 39 14 16 8 12 1 39 37 10 8 30 25 39 18 8 24 38 17 13 21 24 26 8 38 17 33 31 30 39 22 35 27 22 11 7 39 25 38 3 15 17 3 18 16 6 4 5 16 37 15 2 5 23 19 17 28 10 5 2 21 29 29 11 11 36 9 6 19 31 7 25 34 16 37 16 38 13 21 36 8 15 30 35 2 33 7 23 5 19 26 33 6 22 3 20 1 16 26 9 37 11 30 9 18 39 36 30 4 9 17 24 16 7 37 13 17 33 26 25 25 4 5 29 13 16 15 37 6 30 39 29 22 5 19 31 1 13 4 36 36 27 36 33 3 38 33 13 19 14 23 30 34 38 26 38 11 17 16 12 6 14 19 31 36 37 20 21 17 26 8 5 33 31 37 30 29 33 4733 2860 2560 4091 3011 2575 3914 3398 4697 3880 3087 2956 2813 4976 3232 3536 3402 9 3789 4178 3184 2900 19 4412 3856 3971 13 4120 3550 4423 3314 3940 4273 3986 3713 4843 4777 3149 4601 4425 2604 4060 2616 4923 3632 4118 3570 4878 4959 2548 4697 4151 4946 3024 3132 4330 4974 3576 3212 10 2537 3121 4308 3697 3373 4601 3100 2868 2697 3002 3233 4900 3344 3683 3184 3077 3616 4464 4868 3533 2894 2580 2891 3786 3811 4940 4593 4236 4151 2603 3379 3617 9 4110 3344 3849 2741 3670 2957 4298 3690 3324 4410 4686 3741 3406 3956 3582 4490 3998 3260 4995 2719 4968 3197 3685 3353 3612 3220 2500 3288 2574 3240 3170 3862 4870 2932 3200 4142 2700 3331 3215 4301 4726 4574 3040 3267 3328 4516 4445 3789 4387 2650 4771 3399 4007 2977 4177 3911 2908 4323 4849 4938 4480 4348 3500 2852 3861 4461 3731 4187 3786 4981 4525 3209 4387 4076 4769 2666 3164 4509 3658 4505 4861 4588 3060 4089 3210 2576 3826 4686 4716 4591 2998 4629 3312 3346 2544 4532 2794 4266 3416 2844 4966 4227 2824 4638 2627 2504 3326 4852 4159 3809 3670 2629 2686 2709 2565 4166 3848 3611 4331 4471 2594 4952 4592 3647 2815 3795 3038 3788 4140 3616 3201 4678
20 22 30 21 18 35 25 2 19 37 5 14 2 10 3 34 21 18 37 9 6 31 38 34 24 38 39 7 31 1 6 18 36 9 17 21 37 2 24 0 13 4 20 19 16 3 13 35 7 36 31 28 4 22 8 28 18 23 35 24 28 17 36 8 29 13 31 13 21 33 35 29 3 14 12 2 27 31 30 7 15 7 19 30 25 17 18 38 28 23 13 5 39 29 16 38 34 16 11 25 31 26 18 7 21 18 12 19 17 34 23 12 29 4 31 20 39 14 35 32 32 21 37 19 18 3 23 13 19 28 10 6 30 30 28 2 7 7 11 22 1 26 28 29 22 2 31 2 39 10 13 21 38 3 14 6 4 18 18 2 4 36 14 38 15 33 12 1 23 23 21 25 12 36 8 2 7 35 3 19 35 9 34 25 10 18 14 2 13 3 23 14 23 30 1 20 21 16 30 37 5 30 28 8 30 28 30 7 39 32 17 24 36 7 35 33 9 32 33 15 38 24 39 8 38 3849 2731 3074 3410 4605 4704 3746 3146 4175 3511 3392 4788 2509 2997 3731 3626 3990 4000 2936 3675 3105 3826 4841 3842 4105 4858 2829 2729 4028 4019 3288 3998 4630 3836 3396 3103 3239 3946 4639 4300 3058 4056 3751 3204 4150 4321 4644 2659 3161 4293 3790 4853 2725 2612 4934 3585 4037 4009 2919 4545 4130 2651 4200 4018 2778 2814 2872 2674 3857 4282 4165 4794 4081 4158 3724 3248 4791 3469 4739 2850 3159 4379 4051 2702 4551 4100 4867 4298 2578 3126 4185 4406 2627 3683 4853 2812 4100 4625 3855 3057 4399 3360 2808 3618 4003 3558 4761 4120 4545 2618 2969 3876 3089 3820 3903 4446 3922 3292 3143 4223 3684 3890 3776 3434 2736 3220 4244 4040 4435 4093 4624 3072 4628 4105 3810 4481 3571 2590 3411 4014 4617 3743 3140 4597 4645 4099 3181 4296 2667 2845 3386 2753 3044 4898 4596 3400 4489 3359 4005 2748 3714 2631 4913 3745 3416 4980 3597 4231 3858 2704 2633 3557 4737 4305 3272 3593 2561 4934 8 4358 3440 3672 3478 4294 3377 3353 4421 4230 3473 2536 4106 4140 4338 2892 3400 3987 2832 19 2984 3838 2896 4473 4621 3922 2810 2853 3385 4914 2863 4794 4349 4217 4006 3809 4541 7 4742 4296 2520 2909 4327 4107 3781 4312 2992
38 24 16 4 21 4 32 18 12 25 32 26 25 36 30 6 30 29 13 28 14 33 17 33 37 3 16 2 14 12 3 26 2 33 12 24 30 11 22 37 0 5 8 6 18 15 7 12 21 27 19 30 13 38 13 4 12 20 33 39 2 7 5 32 7 16 12 36 19 1 39 34 4 7 27 2 33 32 37 15 24 3 18 22 27 2 35 30 23 22 33 25 21 15 22 12 25 26 32 11 21 23 29 36 27 10 11 27 18 23 17 1 11 25 3 15 34 19 5 17 1 27 34 18 9 13 11 20 39 13 9 21 36 30 37 5 39 7 12 16 20 20 7 39 1 5 34 14 26 16 22 39 10 1 25 34 36 9 23 25 12 19 13 2 30 19 19 21 22 39 31 5 27 28 32 19 34 24 32 1 37 23 31 1 17 6 7 2 29 19 17 15 10 21 23 7 23 5 18 16 15 13 36 9 7 17 33 22 24 3 33 36 33 1 9 38 4 15 31 24 14 13 9 33 14 2652 3016 4865 3612 3409 3081 3625 3756 4607 2781 2978 3656 3665 4818 3223 3968 3631 2964 3477 4778 4916 3281 3322 4357 3467 3611 3426 4157 4788 2698 4394 3942 2746 3260 4330 3091 4638 2598 3751 4376 3459 4429 3101 3866 2960 4293 3804 3875 4265 3627 3478 4510 3912 4174 4246 4061 4321 3423 4846 4404 3122 2758 2960 4758 4854 2813 4107 5 3164 3770 2940 2897 3473 2700 2579 3070 4186 3261 2925 4432 3344 4658 4153 2529 2803 3374 4890 4590 4323 4170 3213 16 3521 4842 3022 4923 4003 3592 3988 4831 4868 4005 3579 3934 3985 2653 3061 3326 3270 4053 4478 4666 2617 4421 4408 4292 4251 3055 4415 4002 2675 4745 4170 3234 3548 4390 2611 4214 3226 2542 3130 2640 4842 4782 3344 3549 4266 4795 3958 2825 4580 3941 3625 3345 3434 2632 4169 3958 6 3567 2933 2852 4684 4238 3821 2987 2735 2769 4256 4733 4457 4134 4659 4185 3805 4863 3781 4434 3387 2545 4466 2827 3909 3599 4055 2999 4632 2967 3918 3347 3479 4403 4224 4367 3419 3783 2795 2721 4143 2973 3948 2932 4364 3020 3342 2970 4806 2780 4411 4303 4793 4294 4827 3169 3781 4490 4238 3379 2531 4212 3759 2535 3602 3105 2742 3933 4994 4251 4248 4115 3714 4701 2521 3055 3851
37 2 37 17 4 16 9 9 37 39 27 10 28 15 4 31 17 33 37 17 30 3 1 13 9 13 22 23 15 4 31 29 34 20 3 2 27 26 27 16 10 0 27 30 28 26 19 6 19 5 9 14 14 2 39 36 34 39 36 21 16 2 10 32 26 19 6 15 26 15 3 31 25 20 4 25 32 18 15 39 15 25 20 35 1 36 13 30 14 26 6 27 34 20 26 12 4 15 38 35 10 12 24 25 12 35 26 37 29 17 35 39 30 35 39 5 29 21 35 4 12 25 33 17 4 34 11 2 12 14 39 27 13 13 28 39 20 29 30 17 31 3 19 23 9 15 2 29 8 10 39 15 17 34 14 22 11 24 21 22 8 17 32 11 21 34 14 36 38 18 24 38 17 5 9 30 10 19 21 22 18 16 30 14 39 8 2 1 38 26 23 37 29 34 19 8 19 6 6 16 39 20 20 35 39 1 18 1 26 28 6 20 17 11 29 31 30 24 23 31 9 2 32 10 34 2910 4706 4167 3284 4974 3310 4757 3324 4025 4899 4112 4002 3010 4220 3926 2644 2755 4927 4527 4381 2845 3899 3323 3609 4090 2803 4915 3390 4004 3892 2640 4845 3319 2528 3683 4011 4138 3351 2748 2559 3171 2816 3301 4607 2741 4448 4157 4304 4662 4875 3901 3535 2543 2775 2569 3297 4558 2735 3941 3313 2833 3590 4642 3731 2914 3728 3623 4965 4099 4286 3334 4146 4807 3684 3087 2669 3695 2881 4843 2594 3268 4279 2541 2950 4813 2730 3142 3816 4693 3583 3004 4694 2829 2988 3431 3640 4293 2933 3764 3452 2578 3785 4251 4698 3113 4278 2803 4145 2823 3646 4532 2887 4247 4287 3115 3148 4612 2979 4281 2581 4389 3926 4605 3652 3040 4683 3360 3014 2887 3587 2965 2634 4271 4467 3948 3556 4169 4014 2773 4679 3009 2505 3669 4256 4167 4125 3502 3268 4908 4931 4951 3029 4574 2824 2843 2964 3628 4428 3913 2549 3227 3816 3099 3499 3952 3308 2721 4653 4757 3706 2830 4807 3118 4769 4562 3626 4386 2790 2964 4385 3535 3778 3011 2867 3172 4729 3242 4987 4012 2634 3051 4915 4500 4206 4188 3399 3479 3133 3297 4781 4325 4442 4817 2553 4985 4547 4789 3796 3947 4650 2873 4791 2703 3040 3844 4948 4581 3171 4309 3944 3407 4141 3467 4512 4356
4 26 15 22 27 7 24 18 35 2 7 5 26 15 18 20 28 26 28 28 7 6 30 35 15 22 2 6 37 37 15 36 13 21 30 2 13 21 9 1 28 12 0 14 18 35 19 5 14 9 31 3 22 21 29 28 8 31 37 2 18 25 35 5 39 36 18 25 16 10 11 9 19 2 5 1 34 21 30 2 2 29 7 7 10 5 24 38 12 5 15 1 21 16 30 14 1 26 35 25 37 16 3 29 17 6 36 26 12 1 1 16 11 16 21 13 17 8 2 35 19 26 5 27 37 19 19 12 36 3 2 32 23 27 28 24 25 30 38 23 6 39 28 4 21 31 25 27 28 5 3 24 26 32 14 13 36 8 24 27 37 38 35 8 24 15 9 23 22 19 6 19 19 35 33 21 18 20 11 13 34 18 12 9 27 1 13 29 16 1 26 8 34 27 14 15 28 33 14 7 4 36 21 15 10 25 7 19 26 9 18 21 2 13 31 6 19 12 8 15 19 37 22 16 34 3678 4981 3654 2933 3294 4293 4856 3028 2532 4295 3127 4394 2787 4390 3088 4455 3388 4391 4782 3572 3299 3033 3972 4908 4255 4761 2895 3360 3310 3626 4018 2543 3471 3693 2712 4472 3336 2698 2907 4988 4744 2808 3721 4199 2616 2649 4858 3877 2908 4621 4542 4240 3184 4940 3137 3357 3802 2895 3286 3103 4962 2651 4629 4422 2896 2574 2810 4355 4852 4604 3519 4414 4054 3503 3765 4547 2553 4372 2949 3387 3679 2809 3478 3658 3017 3644 4951 4413 3507 4361 3619 4544 4572 3778 4119 2804 2628 2673 3287 3154 3521 3423 4377 4996 2890 4660 2785 2867 4935 4560 4972 3893 3789 2883 2658 2831 3397 4044 4462 2829 4658 2558 9 3533 3151 3587 2923 3131 2760 4298 2667 3856 4016 3908 3580 3459 4788 2950 4631 3172 3816 2581 3621 4372 4773 3794 3837 4871 4147 4371 3140 4468 3728 3685 4311 3017 4002 2644 2592 4979 3160 2519 2862 4519 4192 3041 3663 4096 3910 4193 3736 3169 4056 2985 3786 4369 4595 4532 3977 3419 4937 3739 4927 2599 2694 3824 3050 4608 4736 4817 4550 3576 3929 3038 2823 3718 3663 3222 3400 2506 3988 4333 4458 4893 3683 4947 4212 3210 2801 3204 2954 4092 3913 4121 3288 4806 4330 4572 2708 3334 4018 2839 4267 4825 3677
38 33 31 33 10 24 14 3 9 2 12 21 16 27 20 14 36 3 31 12 36 2 33 2 15 12 26 36 35 14 5 15 31 36 6 29 14 38 15 28 19 34 39 0 3 2 28 2 29 30 22 37 38 13 34 3 9 9 23 13 37 30 28 6 7 14 5 21 3 29 5 11 4 24 23 16 2 17 15 11 1 24 3 15 36 14 4 13 6 11 7 34 28 23 13 7 26 17 9 33 36 5 24 29 22 14 4 2 38 12 17 23 39 30 2 25 15 20 18 35 39 29 15 32 19 4 20 37 19 24 5 6 27 11 16 12 25 22 36 31 5 27 16 11 34 2 24 39 6 24 39 30 4 27 17 32 22 2 25 13 20 1 28 36 30 24 39 1 6 29 2 13 39 12 35 26 25 22 6 17 2 36 29 33 22 9 8 23 8 25 19 9 23 36 6 39 15 32 16 36 18 22 13 11 11 9 11 1 12 15 30 16 16 18 38 37 30 12 1 32 39 6 7 28 27 3769 2760 2937 4341 2775 3445 4027 4891 3134 4069 4023 4695 4830 4552 3991 4765 3301 4761 3587 4105 3381 4560 4787 3091 4564 3237 3671 4733 4636 4910 4933 3708 3590 2728 2897 3054 3217 2704 4937 3270 4123 2641 3687 4239 3507 4167 4441 3985 3471 4748 3437 3770 4071 4474 3485 4730 3930 2711 3547 4622 2918 2976 3543 2831 2923 3335 3178 3515 4521 3535 3672 2903 4218 3069 4162 3404 3424 2652 3192 3579 3908 4963 3903 3940 3437 4392 4379 3191 3592 2965 3329 3634 4447 2855 2687 4033 3289 3587 4133 3048 4977 2964 4573 3002 4582 4961 3830 3339 3849 3431 4789 4682 3866 3067 4989 4548 4595 4754 2889 2967 4972 2614 3543 3808 4058 3029 2606 3148 4901 3842 3501 2541 4663 2924 4655 4277 3673 3932 4595 4122 3576 3333 3858 3740 4258 3424 3130 3292 3034 3433 4861 4920 3822 4222 3858 3777 2718 4868 4552 4709 3668 3716 2606 3041 3083 3505 3420 4838 2587 4834 3283 4181 3192 4577 3793 4488 4323 4632 4484 4177 2690 3070 4001 2542 3614 3088 4697 4325 3618 3676 2667 3045 3389 3943 3754 3314 4069 4879 4562 3544 4414 3856 4337 3940 3776 3564 4321 3983 3080 2818 3248 2883 4967 4626 3689 3982 4475 3246 2664 4743 3220 3236 3661 3829 3688
32 14 36 26 7 18 4 8 11 25 7 6 17 19 8 19 16 20 10 1 3 10 28 39 15 36 9 25 17 22 26 27 18 27 8 28 24 29 36 14 39 8 3 23 0 15 29 14 19 3 19 34 9 36 1 14 27 17 17 37 25 22 33 24 33 10 39 12 8 10 10 35 3 23 4 17 3 21 8 18 6 18 14 9 5 8 28 22 35 13 28 30 9 7 17 16 37 10 39 37 9 34 35 10 29 2 15 30 31 33 19 36 24 35 39 35 2 38 21 21 18 30 38 36 15 7 4 9 22 33 37 26 20 25 16 36 23 26 29 26 27 14 28 14 16 38 14 4 16 24 2 11 18 18 6 18 13 16 21 25 19 36 2 22 18 1 33 38 26 25 29 29 18 19 3 6 6 21 7 6 22 35 5 14 1 13 37 6 5 28 5 23 38 2 39 32 33 30 29 18 12 27 21 30 18 35 31 20 2 39 36 30 34 15 15 6 31 7 1 23 18 32 2 21 10 3651 3670 3471 3988 4353 3237 4229 4659 2511 2815 2926 4730 3854 3031 4869 4843 3921 3066 4292 3656 4112 3944 2675 4353 2520 4309 4471 4630 2647 4101 4003 2952 4933 3717 3845 4276 2602 4158 3114 2716 2539 3192 3187 4534 3855 3597 4510 4349 4173 3828 4176 4194 4294 4709 2508 4828 4397 4069 3899 3999 2761 3779 4647 2730 4302 2658 4871 3102 3383 4414 3468 4622 3404 3921 3758 2843 2653 4447 3881 2818 3987 4346 3298 4641 2519 4516 3530 4714 4112 3509 3422 3635 4654 3872 3690 3932 3347 4358 3227 2884 3721 3557 2573 4776 4887 3240 4189 4265 3514 4126 2559 4964 4791 3636 3606 2703 2637 3593 4629 4756 3548 4951 3362 2887 3454 3647 4672 4742 4656 3604 3483 4020 4375 3665 2853 3734 4567 3953 4034 4857 4400 4045 3308 3248 4292 3800 4955 2946 3378 4899 4595 2587 3757 4217 3012 2789 3806 3212 4198 2923 3641 4288 4139 4191 3453 3663 3929 2787 2790 4500 3396 3151 3443 3337 3648 3253 3257 4443 4044 2998 3400 2699 4425 3231 3278 2878 4124 4011 4249 4565 4941 4370 3027 4745 4565 4156 4963 4805 3477 4823 3344 4729 2967 3064 2718 4857 2928 4707 3981 3386 4935 4374 3146 2512 3706 3792 4951 4682 4680 4364 4405 2760 3659 2707 3514
19 22 14 34 14 34 13 10 38 26 11 5 23 38 29 25 5 2 23 10 21 20 2 5 8 1 12 28 36 25 38 31 1 33 28 9 17 35 35 3 13 19 35 39 17 0 9 16 30 32 6 3 14 25 31 16 6 38 20 8 18 26 34 16 35 39 4 11 29 6 1 13 20 11 1 34 2 28 4 11 25 38 11 14 20 7 11 2 5 3 33 33 36 11 17 14 22 4 19 7 35 10 19 30 39 14 11 3 14 24 27 16 3 6 31 34 8 23 27 11 12 30 25 17 39 23 38 15 7 21 38 35 12 2 28 8 33 38 27 39 9 33 21 32 8 34 37 2 33 30 24 29 28 13 36 12 37 8 28 30 15 18 32 5 16 3 8 16 12 9 11 34 11 9 5 23 39 38 29 8 22 34 31 12 13 2 38 21 20 27 18 28 18 15 22 38 1 17 29 26 35 29 39 4 27 10 14 39 26 16 14 7 25 1 32 34 38 15 12 14 23 31 34 1 4 4874 3866 4320 3899 3940 4324 4244 4604 3435 4897 2759 3914 3619 3181 4197 2962 3948 3039 4613 2948 3350 3900 4989 3314 3448 3943 4651 4878 4672 3954 4420 3127 2784 3401 2891 2825 3156 3374 2984 3437 4439 4974 4526 3703 3303 3101 4612 2704 3030 3885 4262 2892 3020 2789 3705 4506 4844 4482 4550 2605 3191 4761 4354 2966 3514 3260 3608 2736 4784 4045 2580 4191 2659 3954 4201 3373 3053 4984 4842 3738 2924 4743 3694 4238 4519 4094 3821 3441 3238 3343 4202 4887 4990 3143 3664 4016 2797 4989 3832 4163 4267 4408 3269 3598 2657 4377 3332 3289 3310 4893 3786 4704 4249 4527 3032 4605 3410 3151 4064 3573 3679 3451 3764 3696 3575 3429 3616 3452 4003 4126 4873 3737 4242 2882 4743 2728 2929 4526 4562 4454 3911 4991 2646 2603 3199 3663 3170 2841 4255 4857 3254 4656 2805 4533 2612 4455 4438 4730 4358 2522 3521 4204 4021 3089 2976 3681 3077 4439 3568 4795 3453 2633 3796 2637 4710 4373 3162 3801 4522 4027 3986 3628 4805 4173 2542 2991 4801 4932 3875 2822 2557 2630 4073 2534 2756 3021 3181 4997 4442 2748 2948 3196 4352 3566 4746 4087 2692 2717 2771 3891 3512 2903 4109 4301 3435 4974 2720 4748 3570 4294 2898 3254 3732 4481 3698
15 4 27 39 33 22 3 12 31 11 33 25 28 28 36 30 3 13 18 22 2 4 12 13 10 35 30 33 12 1 21 3 31 2 14 9 8 27 34 26 20 38 37 35 22 37 0 36 30 25 9 4 12 19 39 25 18 25 25 2 22 3 5 10 3 27 22 3 25 7 16 30 28 33 9 6 11 39 24 12 3 22 21 32 3 1 36 6 24 16 31 35 30 23 32 12 38 18 4 16 25 28 10 23 29 5 11 2 11 6 31 29 7 24 3 33 31 8 34 2 2 35 13 1 3 9 33 12 28 31 16 20 36 33 6 12 6 9 31 11 22 31 10 9 36 33 11 22 32 38 37 35 19 25 12 31 25 19 35 1 31 5 35 37 16 36 11 36 10 26 27 23 5 7 16 28 27 5 11 17 11 24 12 13 2 6 13 34 7 27 36 23 1 15 19 35 29 18 27 20 22 37 7 19 23 20 21 35 28 13 39 32 29 3 12 3 29 30 3 9 28 36 9 39 1 3089 4992 2866 3115 3479 3056 4531 4038 2775 2753 3041 2633 3447 2695 3041 3278 4376 3589 3252 3844 4898 3975 3071 2812 4829 4081 3597 3112 2818 3498 3108 4217 2931 2951 4411 4974 2639 3570 3348 4915 4175 2934 4256 4780 4664 4377 4165 3192 4964 4818 4157 3216 4849 4265 4488 4312 3969 3180 3647 4492 2748 2874 3390 2681 4868 4654 4270 3433 2613 3737 4084 3068 4928 3981 3357 4065 3204 3319 2828 3513 4020 4482 3210 3071 3254 4756 4747 2776 2929 2853 2889 2963 3994 2679 3733 2556 2584 3446 3855 4261 2720 3792 3135 3017 3270 2815 3872 2824 3792 4251 4601 3248 2736 3064 3135 4409 2934 3547 2786 4450 4261 4389 3411 4874 2980 4884 3243 3900 3623 4675 3117 4199 4013 3104 3758 2505 4304 3802 4099 2638 4705 3814 3057 3472 3946 4586 3538 2642 4864 3732 4444 4898 2732 3357 3362 2745 4051 4539 3865 2741 4273 3022 4542 2970 2845 3028 3718 4868 3867 3775 3579 4480 4342 2684 3979 3440 4646 3344 3563 4579 2652 4880 3352 13 4692 4146 3918 3768 3673 4600 3932 3974 4196 2965 2756 2746 4072 2681 4139 3241 2925 4849 3824 4694 4923 4847 3325 2920 3263 3034 4138 3998 3237 4984 3634 4698 2979 3334 2547 2599 2954 4881 4303 3006 3843
4 19 23 3 11 4 7 38 12 1 20 9 12 14 25 6 29 24 35 33 28 36 12 16 39 19 22 31 1 3 32 16 17 19 19 19 3 27 30 1 36 5 2 17 19 35 1 0 25 20 15 32 14 32 32 26 25 12 14 1 31 14 29 20 25 4 11 29 21 7 22 37 16 20 7 11 4 20 21 29 24 39 18 34 37 24 30 9 15 31 8 29 32 19 3 7 7 4 28 11 20 21 36 31 24 27 15 7 22 39 14 28 26 7 9 17 13 28 30 3 14 29 4 2 12 21 26 29 17 30 33 16 1 26 10 27 24 26 24 3 4 37 21 33 29 30 1 36 9 14 10 31 9 24 28 34 28 17 25 5 10 16 34 35 2 1 11 20 8 12 23 29 21 10 23 1 1 15 29 27 16 39 27 17 4 23 19 13 10 6 22 23 8 7 5 29 15 11 8 34 39 29 33 5 15 18 10 10 24 23 1 22 20 27 16 32 14 15 25 18 25 36 17 39 38 2988 4130 2602 4952 3227 3582 3009 4230 2884 2556 3848 4720 3849 2640 3143 4037 4541 4535 3084 3066 4880 3629 4257 4678 3701 2585 2730 3528 3268 4579 3756 3961 4085 3233 3567 4150 2721 4387 4522 4173 4054 4708 3023 3897 3081 3906 4536 2894 4524 4856 2548 4078 4973 3003 3372 3021 4922 2668 3796 4770 3277 4541 4502 3072 3566 2560 2508 2933 3507 4127 4511 3836 4960 3802 3622 2721 4170 4876 4949 3992 4657 4624 3505 3153 4526 4634 4189 3488 4558 2841 3499 4987 3901 3706 2913 4924 3221 2536 2881 2809 3311 4731 2674 4304 4836 3291 3905 3607 4514 2807 3641 4681 4150 4350 4965 3301 3416 4840 4326 2882 4386 3178 3106 4323 4188 4289 3173 2685 4337 2954 4423 2980 3440 2555 3961 3589 3637 3274 4923 2939 3854 3856 3914 3802 3259 3431 2706 4546 3218 4525 3641 2783 3899 3208 4481 4882 2962 3349 2927 3594 3585 3806 3065 3491 2679 3267 3805 3358 3248 2970 3252 3833 4492 3465 4971 2723 4348 2538 3902 3708 3574 2913 3202 4226 3029 4264 4940 4453 3331 3468 2751 2506 4227 3087 2821 3059 3983 2940 2962 3458 3173 4778 4321 4229 3600 3749 2517 4834 4674 2794 3900 2667 3309 2957 3949 3584 2715 4190 4670 4235 2956 4572 4113 2805 3161
21 38 33 19 22 7 16 21 9 36 5 31 8 1 37 31 11 21 26 38 33 37 25 1 21 35 2 6 7 7 14 20 17 6 36 18 37 9 33 34 10 13 15 3 25 21 11 22 0 39 13 7 5 34 5 4 20 39 12 35 30 19 21 3 37 27 18 24 30 35 34 10 25 24 13 14 26 11 25 25 6 9 11 10 2 3 24 16 8 25 24 1 38 33 35 35 37 31 9 23 37 1 9 28 36 39 21 15 33 23 4 14 26 39 32 4 17 34 37 14 38 23 11 1 26 36 18 4 20 13 4 1 37 28 28 39 19 31 24 26 34 3 21 22 32 2 26 5 19 6 4 14 6 34 14 9 19 6 17 16 24 27 26 17 13 37 24 8 32 15 32 13 6 24 32 9 26 38 1 7 2 17 26 2 9 23 37 23 28 35 34 17 3 12 32 38 25 30 16 35 24 7 1 4 16 8 9 38 2 14 15 11 23 5 26 4 4 4 35 27 8 36 27 6 36 4742 3017 4335 4437 3819 3504 4761 3733 4830 3681 3710 4480 3213 4310 3889 4200 4217 4894 4914 3853 3603 2903 4771 4857 4730 4552 17 4460 3772 2636 3261 3114 2507 6 2731 3850 3316 3450 3770 3839 4680 3615 2725 4677 4771 4273 4565 2787 4103 3229 2575 4052 2552 4740 4835 3204 4505 4087 4659 4119 3559 2845 4286 2970 3964 2789 4803 4455 3109 3996 2545 2562 3605 3877 4798 4894 2609 4049 3697 2517 4700 3611 2827 3058 3853 3129 4068 4390 3076 3323 3653 4032 4238 3603 2992 3322 4460 4543 3926 3640 2574 2748 4538 4480 2777 2649 2905 4333 4260 2977 3154 2685 3442 2659 4590 3502 3121 3238 3227 4266 2605 2817 3815 4355 4966 3445 4538 3200 4323 4592 4627 2596 4619 3843 2830 3098 3494 3072 3123 2787 4399 2794 4576 3675 2633 3635 2600 4528 3290 3452 4242 4988 4075 4186 3159 3664 3831 3695 4444 2727 4727 3637 2797 3349 3850 3935 2894 3571 3073 3628 4977 3885 2738 3072 3350 4825 4952 4071 4701 2772 4377 3355 3995 3415 4600 4815 6 4423 4248 3519 3068 4514 2892 2764 4042 4462 3437 2897 4659 3635 2767 4638 2504 2865 3922 4053 3040 2617 4960 3966 2887 4102 4485 3107 4112 3198 3898 3795 2944 2845 3233 3575 4880 4140 3776
10 22 12 20 24 2 5 31 36 3 23 28 11 30 27 34 5 24 10 3 3 32 22 2 22 20 20 14 20 36 17 10 5 16 13 13 13 3 1 5 30 17 24 20 34 29 15 5 32 0 16 24 28 3 17 37 31 9 39 4 9 28 33 39 21 34 18 16 18 4 2 24 12 39 19 18 18 11 8 32 37 39 30 36 23 18 29 1 38 29 4 7 27 28 39 1 16 37 12 2 39 14 28 23 1 26 2 4 12 2 36 25 36 33 34 8 20 20 33 31 15 11 19 9 20 38 20 11 18 32 7 30 19 33 10 5 8 35 38 20 24 3 20 32 23 32 24 2 5 1 30 22 39 30 6 23 30 1 30 8 5 8 2 24 34 9 12 18 34 28 25 11 26 20 1 29 30 12 34 35 34 22 38 1 33 1 16 36 10 6 24 26 39 39 32 13 6 29 34 11 24 19 4 30 15 25 3 11 30 39 6 3 15 27 26 30 35 36 28 34 21 18 34 24 11 4215 3361 3928 3910 2640 3503 3781 3303 4357 3684 2690 3814 4470 3692 3923 2892 3659 3560 4068 4129 3535 3870 4393 3182 3947 2668 3278 4626 2669 3004 2728 3644 3325 3952 3601 4264 3471 2992 4809 3540 6 3010 4468 3723 3531 3748 3831 3019 3250 4325 2667 4908 2556 3196 4965 2998 4500 2999 3325 3677 4255 2894 4442 3781 3884 3683 2506 3699 3355 3250 2885 3788 4933 3454 3742 4714 4670 4558 3823 3634 3307 3911 4303 2969 4464 2576 4712 4974 4151 3251 4123 4994 4740 2564 3621 4367 3139 3719 4232 2918 4363 2586 3223 3770 4545 2541 4052 3004 3522 4624 3154 2754 3828 3128 4030 3272 3051 2675 3710 3445 3503 3956 3382 2681 2790 11 4073 4954 4717 3168 3109 4743 3719 3288 4855 2976 2685 4565 4450 4882 3100 4377 4692 3539 3925 3194 3753 4234 4542 4425 4986 3152 3028 4168 3123 3590 2885 3153 4109 4720 2723 3951 3709 3237 2735 2920 2517 4820 3380 3751 2835 4750 3651 3116 2879 2999 3133 2662 3931 4376 3012 2752 2516 4428 3249 4807 2571 2791 4793 4786 3141 3746 4331 3594 4458 3486 4315 3473 3585 3048 4876 3887 3551 2713 3954 2610 3123 3896 2970 2619 3325 3253 4129 4142 2893 3145 3737 3640 3934 3361 2838 4667 3936 4632 4826
26 14 28 28 22 10 7 20 15 11 34 11 15 22 6 5 18 39 11 28 17 10 12 16 26 32 3 31 26 3 39 34 28 14 16 21 34 39 22 10 34 19 20 36 25 7 18 11 10 10 0 31 26 37 13 25 6 28 18 12 7 4 22 27 19 21 34 11 21 7 38 4 13 3 13 26 35 39 29 32 3 10 23 22 15 15 27 17 39 15 37 3 33 29 9 18 26 37 1 22 30 12 8 32 19 18 26 2 29 25 11 14 10 37 28 10 1 4 15 36 36 10 23 26 25 24 5 7 38 29 14 4 37 36 17 24 25 14 16 11 13 3 23 30 20 1 15 34 16 24 16 12 30 16 1 9 29 26 32 30 39 20 22 3 37 39 36 16 31 26 11 29 27 8 29 37 16 31 8 8 1 13 37 28 21 18 24 14 20 14 8 3 16 18 6 1 16 29 33 28 14 27 34 36 37 23 34 16 30 7 8 34 29 33 4 20 36 1 31 18 20 6 26 28 16 2592 4950 3484 3831 2816 3835 4137 4616 2654 2917 2812 2676 2944 3168 3280 3337 3459 4715 2624 4184 3198 3666 3077 3295 4366 4371 3990 3460 3213 4517 4971 4168 2643 4631 4864 3073 3169 3773 4965 4173 4399 4474 3139 2602 4934 3699 4344 4736 3452 4709 4188 2838 4884 3528 3022 4156 3885 2643 3105 2671 3314 3952 3093 4628 3435 2594 4120 3002 4469 4253 2882 4874 3478 4127 2740 7 3431 4383 3319 2611 3116 3001 4309 4053 4932 3229 2529 4669 3834 2876 4832 3851 3981 4072 3525 3864 4143 4004 3163 3123 3893 2737 3859 4454 4813 3318 3835 2934 4227 2872 2885 3085 2821 3273 4696 4232 4208 3563 4448 3373 4650 3231 2609 3080 3633 3551 4233 2793 4599 4597 4373 4627 3728 3387 4105 3270 3241 2854 3518 4860 4309 4904 2709 4372 4473 2917 4880 2765 4395 3016 3559 4369 3918 3072 3031 4175 3631 4144 3300 3589 3547 2628 3745 3237 4300 3898 4564 4104 2506 4243 3738 2882 3363 2589 4494 4048 3068 3462 3358 2510 4180 4795 3155 3868 3319 3235 4668 4194 4223 4404 3141 3659 4954 4900 3297 4250 3844 2642 4606 2656 2575 3721 4395 4816 3149 4590 2737 4367 3155 3516 3339 3754 4017 4721 3000 2907 4074 4096 3726 4583 4586 4487 3895 4855 4775
1 6 18 16 29 14 21 35 29 25 27 14 13 19 24 15 12 4 12 29 5 2 5 33 26 22 21 12 22 14 25 6 24 3 38 17 31 25 32 17 10 11 25 22 17 3 14 3 26 32 18 0 39 12 7 15 4 16 21 29 10 14 9 18 32 6 14 12 23 9 30 9 19 11 17 24 13 10 3 30 2 4 8 11 9 22 34 15 35 38 14 27 23 1 23 2 17 33 15 19 18 13 16 2 37 36 39 19 19 39 11 5 24 12 16 3 35 17 18 13 17 16 17 17 2 21 13 22 12 39 4 28 13 27 34 31 37 10 2 20 39 25 30 8 31 23 38 36 4 34 20 36 34 26 4 19 13 29 32 8 6 25 17 28 11 37 16 14 14 1 21 31 9 26 19 23 3 2 16 38 32 34 32 11 8 38 14 2 15 31 26 15 10 19 27 7 1 27 34 38 17 11 24 15 9 31 7 13 27 14 17 13 4 31 22 15 20 31 13 17 8 16 6 13 30 4947 3784 2579 2636 3041 3831 4273 3617 3262 3017 3017 3214 3401 4263 3835 3182 4243 4226 3247 3288 4199 4609 3330 2858 2719 2547 3624 4372 3944 4640 3733 3644 4688 2764 2891 4999 3708 4679 4756 3763 2652 2583 4306 4297 2596 3527 2565 3049 3778 4144 2926 4383 4345 3553 2923 2848 3988 4002 3141 3085 2535 3849 4909 4066 2773 4079 3804 2847 3342 3210 4789 4263 2643 4051 2581 3265 3684 3005 3154 4911 3983 3623 4715 3467 4973 3622 2725 3556 4882 3425 2550 2540 3739 4334 3507 3123 2630 3972 4461 3545 2624 4686 2575 3676 2713 4701 3507 3567 3256 3676 3824 12 4569 3283 3622 3988 3831 4609 4977 4732 4478 3107 4886 2620 4304 4293 3913 4335 4441 4201 4899 3996 4544 4599 2880 2963 2725 2720 2710 4725 2825 3425 3824 3788 3383 4881 4331 3897 3933 4785 4903 3487 3639 3094 4208 3797 4026 3035 4673 3204 4892 4536 4416 3963 4148 2871 4425 4337 4057 3954 4324 3892 3756 4576 3704 2641 3255 3107 4849 3910 3953 3334 3159 3514 3873 4625 4537 3844 4333 3282 2658 4692 2748 4571 3146 3070 2792 4993 4133 3013 2697 2536 2690 4334 2943 4229 4706 3536 2527 3371 3415 3480 2867 4446 3835 4516 3778 4680 3271 3512 4258 3544 4173 4697 2890
31 34 32 8 14 26 38 10 27 34 11 2 27 3 16 27 12 33 1 19 22 12 39 31 5 9 4 12 23 26 12 28 29 13 35 9 28 39 38 39 20 16 29 27 25 8 32 20 19 38 12 6 0 15 10 36 9 22 37 30 29 16 12 22 30 28 24 37 21 8 8 34 20 12 6 9 8 23 24 5 35 24 30 6 16 20 14 6 21 30 24 31 27 33 13 21 27 4 6 35 12 33 9 25 14 11 28 37 10 8 4 23 24 25 29 3 9 31 18 5 22 26 16 17 11 32 27 24 27 10 37 34 18 8 25 22 24 23 21 22 35 5 38 22 12 38 36 31 2 33 32 12 31 35 20 34 3 22 38 4 37 7 14 11 15 32 9 19 13 10 29 27 30 35 29 5 39 15 12 5 21 23 36 9 22 39 13 32 31 26 17 4 34 36 4 32 22 26 37 9 30 23 34 1 23 16 6 17 2 22 27 2 34 34 27 26 7 4 1 24 22 30 38 18 2 4958 4174 2550 4076 2719 4658 2564 3351 4834 4665 3438 2695 4770 3464 4527 3155 4825 4358 2741 3453 3577 3203 9 3047 4970 4731 2985 3284 4412 3770 2840 3764 3009 4159 4351 3551 3042 2949 3840 2875 4022 3914 4216 4533 4271 2986 3663 2741 2781 3624 4573 4755 4218 4444 4986 2889 3740 3348 4505 3195 3128 2749 2532 3881 4608 4212 3265 4182 4327 3732 3069 4191 3986 4382 2930 4035 4442 2895 4282 4971 3030 2604 4363 4762 4780 4571 3348 4390 4251 3753 2679 2891 3673 2569 2745 4322 3626 4544 3100 3808 4106 4851 3397 4950 3967 2697 4348 2958 2997 4500 4672 3000 4779 3674 3545 3356 4247 4614 3765 3121 4856 3887 2668 4665 4767 4069 2679 4266 3984 2928 4862 3500 4470 3236 4382 4999 2914 3072 4631 3377 3315 3575 4961 4179 4403 4134 3229 4089 4857 2667 2953 2985 3080 2905 4890 4391 2604 2950 3927 3718 4980 3047 3845 2535 3298 4076 2724 3534 4557 4474 4936 3015 3058 4102 4078 4496 4114 4813 3663 3193 3325 4903 3061 4372 3382 3358 2623 4356 2680 3607 4235 3065 2942 4757 3543 3819 3440 4914 4814 2577 4207 2868 3184 4279 4526 3104 4355 2858 3673 3513 3443 3074 2891 4749 3215 4606 3908 4968 2854 4465 4863 3135 4263 2810 4933
2 19 22 9 2 26 11 13 10 31 35 7 10 3 22 24 11 26 28 38 17 24 36 30 21 28 11 5 4 6 27 13 24 30 9 28 17 23 34 37 36 28 22 25 33 9 38 16 3 38 6 11 12 0 35 27 36 28 22 27 18 16 8 15 31 10 9 29 10 29 13 13 16 21 5 13 1 11 36 37 31 12 16 34 37 12 20 7 2 5 7 17 39 24 20 39 5 10 11 23 13 4 24 10 25 26 26 25 9 8 18 5 28 2 14 1 31 9 37 18 14 26 37 34 16 33 11 30 17 5 11 36 21 24 11 9 27 5 12 37 37 9 15 28 1 31 23 11 5 17 11 30 1 7 37 2 12 36 32 39 12 22 13 27 16 3 23 39 24 23 20 37 17 25 6 32 39 1 15 34 14 34 39 25 20 30 38 16 13 23 13 8 7 16 13 18 14 18 33 21 24 22 36 25 36 9 39 4 32 3 21 15 24 27 28 7 11 17 35 27 20 32 26 12 20 2507 4047 4692 4772 4324 4888 3875 3945 3079 3451 3252 4386 3345 4696 3708 2562 2895 4168 3001 3466 3543 3283 3238 2525 4243 4573 2500 3543 4888 2729 4080 4465 3896 2601 3659 2723 2677 4063 4812 3888 3946 2842 2719 3609 3642 4897 4981 4299 4161 2745 3576 2927 3366 3420 3769 4931 4239 2686 2786 3120 4521 3678 4721 3903 3567 2596 4312 4086 4340 3189 2828 3153 4379 2764 3467 4289 4905 4527 3233 2694 2921 4129 4234 4074 3853 4931 3167 3140 4655 2930 2662 4264 3442 3122 3879 4128 3070 3384 4741 3996 3226 3382 2883 4103 4444 4401 4901 3064 4782 2975 2595 2956 3319 4870 3819 3867 4960 3661 2650 8 4802 2588 3336 4153 4445 3200 4966 4792 3624 3376 2528 3898 4719 2551 2810 3653 3339 4689 3781 3649 3599 3067 4919 3814 2669 3315 2886 3046 3839 3393 3587 4444 4847 3550 3283 2717 4301 4411 4152 4605 4558 4926 3006 4597 4359 2973 4150 4465 4641 4476 3550 4086 3847 4646 4013 4286 3842 3589 3699 3255 3127 3264 3030 3872 4124 4332 3974 3645 3410 4892 3197 3465 4383 3942 4721 3351 4444 4604 4715 4556 3327 3778 3363 4607 4718 4787 4084 4294 4861 4879 4747 4186 3904 4227 4549 3012 3182 3029 4725 2570 4159 4502 2738 3455 2984
31 24 28 18 34 28 16 27 21 8 37 8 20 26 13 15 13 6 20 18 37 16 17 6 17 15 30 28 29 20 2 30 27 17 30 23 17 35 14 28 1 1 18 16 38 12 35 30 22 24 37 19 37 16 0 37 4 5 23 9 25 2 28 3 19 14 27 26 19 37 1 37 22 18 4 14 36 4 30 7 8 8 25 37 39 7 34 7 3 31 24 9 34 20 6 6 19 36 17 17 29 19 29 37 24 29 38 13 9 20 19 7 35 34 16 35 14 28 37 32 11 10 23 36 4 10 9 15 29 31 36 31 7 31 36 34 7 10 24 14 26 24 30 34 21 17 34 8 20 35 28 17 5 19 38 24 22 37 9 31 27 15 38 35 31 2 36 33 15 21 29 28 24 32 26 23 31 10 38 25 25 12 25 6 38 21 6 14 16 24 33 27 8 34 39 12 31 11 8 15 18 34 39 23 8 3 29 39 30 2 35 35 14 34 36 38 30 7 8 38 26 35 30 23 35 4348 4484 4009 3086 3811 2998 2946 3676 2760 3620 3467 4440 2894 2942 4606 3380 4704 2770 2973 3565 2702 3703 3058 3433 3466 3499 2752 3171 3507 2532 3453 2972 3425 4630 3800 3882 4845 3969 2835 2657 18 2510 4136 2852 3942 3867 4130 3093 2926 3763 3024 3661 3218 3713 3137 2884 2969 4185 3295 4911 4233 3033 3088 4757 3099 3422 4192 4599 2972 2672 3202 3371 3692 3499 3077 2682 2891 3453 2717 4516 2667 4888 3720 2631 3417 3333 3344 3747 4015 3086 4927 4734 4481 4901 2882 3342 3605 4463 3970 3127 4975 4770 2556 3917 4063 3097 3301 3066 2603 2592 3994 3495 2951 3400 3014 3826 4299 4371 3114 2630 4568 3231 4365 3942 4736 3639 3813 3548 4616 3220 3192 2559 2663 3440 4882 4583 3731 4961 4543 2767 3389 3952 4944 4397 3662 3898 3889 2568 3660 4217 4739 15 3125 4598 4640 2996 3263 3869 2737 2934 4901 2696 3524 4445 4521 3981 4162 3145 2638 2873 4151 3814 3729 2917 3884 4098 2501 3776 3491 4639 2899 2920 3495 2542 3868 3233 4748 4630 3147 2605 3653 3112 3113 4260 3457 4964 4923 4666 4994 4398 3988 4372 3502 4108 3624 3345 2510 2786 3184 4768 2696 2777 4690 2972 4405 4957 2595 4795 4860 4333 4138 3284 2807 4871 3643
36 16 6 4 19 12 1 37 33 28 32 25 12 17 38 20 18 21 23 18 19 22 14 38 20 8 27 25 27 6 34 35 26 25 13 2 38 34 8 10 5 9 10 3 33 11 35 17 27 18 18 36 37 15 1 0 7 17 22 21 31 24 14 7 13 24 22 16 5 31 14 37 14 14 28 23 16 17 15 11 8 2 23 39 12 36 28 6 33 39 2 37 35 29 30 7 32 7 28 17 7 29 13 4 11 33 6 8 9 29 10 27 19 23 17 39 27 12 35 13 2 9 9 34 5 31 27 27 35 28 16 26 18 23 38 4 9 17 1 7 23 39 28 37 22 2 8 20 37 6 25 37 34 12 29 22 13 15 6 6 13 36 36 17 35 24 38 11 34 18 34 1 31 12 8 25 22 17 1 35 26 3 23 33 32 24 35 28 27 36 21 38 2 7 27 29 22 38 7 26 26 4 33 28 32 24 31 35 2 11 29 38 11 19 37 36 17 35 12 36 13 14 17 25 3 3257 3362 4609 2815 3082 3186 2723 4757 3531 4102 3284 4533 3093 3417 4261 3234 2891 3962 4773 4594 4142 3136 3604 3969 4638 2526 4001 4268 3643 4614 4674 3463 4977 4341 3363 3397 4854 2960 3051 4130 4526 4118 4334 2547 3749 3912 4852 4855 4819 3482 4178 4709 4553 4095 4935 4090 4618 4579 2874 4544 3518 3669 4303 3608 2876 3753 4343 2785 3877 4192 4951 3328 4405 4348 4420 4408 3903 3298 3492 3401 4740 3827 4309 4198 4127 4362 2672 4527 2604 4842 2858 2632 4772 4546 4568 4001 2732 2955 4305 4046 4984 3616 3991 3862 4185 3520 3114 3781 4080 4291 3352 4553 2859 4581 4940 4798 4898 3652 3660 4297 2721 3030 4265 2576 3601 4054 4425 4593 2854 2964 3716 4554 2516 2666 3283 3759 4285 3480 3734 4041 4784 4935 3739 3510 4041 2621 4063 4389 4146 4546 3057 2903 2711 4316 4744 3453 4489 4035 4393 3997 3233 3915 3109 4791 4383 2961 3923 2925 3815 4864 4669 2803 3979 3821 4026 2557 4389 4379 3839 4584 4889 3492 4990 4052 2555 2550 4889 3831 2846 4739 3388 3933 4513 3313 3771 4076 4922 3422 3112 4354 4493 4932 2907 4224 3769 4917 3162 2586 3067 2592 3833 3582 4619 3540 4207 4265 3053 3789 4031 4877 3356 4756 2955 3401 3373
5 3 30 1 2 17 33 18 37 24 8 19 30 11 16 14 30 39 32 27 25 12 25 14 4 37 11 3 25 13 31 1 16 36 14 5 19 14 16 33 23 39 23 11 14 11 4 29 5 10 13 13 19 5 20 4 0 32 4 26 10 36 19 29 37 6 24 26 6 2 23 14 22 7 33 3 39 36 22 6 39 11 22 23 39 22 10 8 35 35 25 35 35 22 19 35 29 16 2 38 17 21 32 14 29 8 31 22 8 1 15 9 8 38 8 33 23 20 34 12 21 4 8 23 19 15 17 9 5 13 16 34 12 6 35 16 33 38 38 2 8 2 3 10 37 11 26 9 9 7 19 19 28 20 8 3 14 24 4 30 20 7 18 25 5 6 12 21 32 22 11 28 14 7 8 36 22 22 2 38 11 3 25 29 23 22 11 2 23 2 4 20 28 13 10 25 9 2 12 18 10 29 30 25 28 9 32 19 32 27 3 16 19 36 10 19 26 10 36 19 26 20 14 12 4 4191 3212 4149 4167 2505 3394 3178 4485 4559 3855 3534 3315 3184 3465 3441 4627 2518 3357 4347 4405 4211 3279 4012 3873 2649 3088 2566 4332 3355 4882 3511 4172 3979 3247 4645 4735 3508 4797 4091 3827 4725 2899 4771 2507 3316 3928 3699 4804 4732 2955 4169 3057 4884 3686 4210 3981 3793 4071 3108 3104 3699 2538 3493 4301 3008 4931 2796 4921 4731 3886 3537 4051 3514 3963 2550 8 4091 2808 3611 3238 3601 3164 3277 3596 3454 3672 2818 2758 3837 3766 2560 2880 4921 3806 4394 3195 4380 4212 3087 4227 2907 3907 3580 3996 4837 4822 4705 4978 3142 3805 2697 4427 4034 2951 2646 2699 3998 4923 4819 4782 2798 4297 4980 3427 4115 3064 2715 4597 2901 2516 3043 4723 2925 3956 3248 2663 2913 4263 3696 2502 4422 3093 2540 4894 4593 3127 3840 3806 2609 4433 4596 2868 2599 4201 3564 3658 2680 3629 4166 3136 3736 2655 3502 4392 4667 3483 3632 2741 2852 2638 3584 3065 3191 2531 2750 2796 4834 4864 3490 4005 4449 4423 2759 2883 4722 2874 3858 3484 4960 4439 3654 3033 4485 4455 3082 3001 3109 2708 3872 2947 2854 4227 4839 3866 4586 3512 4155 3372 4096 4555 3650 2975 4745 4522 4912 4896 4805 3167 2849 3048 3294 2501 2878 4477 3100
16 27 39 16 3 12 34 31 11 11 37 1 9 34 24 25 17 30 4 22 4 16 8 30 26 28 27 23 33 14 3 36 35 5 38 18 31 15 18 18 7 27 7 37 4 5 31 24 25 34 13 10 35 2 18 4 2 0 4 6 13 21 6 27 21 5 34 20 7 24 39 24 16 23 20 34 20 12 16 1 1 36 26 26 12 38 39 15 1 4 9 33 1 28 34 36 38 20 35 5 2 14 38 29 24 21 38 11 6 3 27 1 14 18 33 1 15 10 16 21 4 7 21 32 20 37 18 15 26 11 34 12 4 4 4 26 6 39 19 33 15 24 21 22 29 26 17 29 33 7 22 9 5 39 31 37 7 3 13 30 8 20 24 9 30 33 2 37 39 37 38 33 5 38 39 1 33 39 11 19 31 19 30 3 24 32 18 21 10 24 32 35 13 39 4 2 30 5 6 15 33 32 31 6 33 26 32 37 35 12 13 7 22 12 20 34 10 18 24 16 19 7 24 13 35 3943 3884 2947 4599 3351 4781 4556 3322 3896 4438 4566 3671 4280 3050 4429 2930 2599 3425 3528 4563 4275 4715 3927 3765 3772 3996 4236 4504 3623 2604 2587 3039 3419 4055 2734 3723 2998 2520 4948 3735 4288 2640 2513 2900 2594 2868 4035 4929 3783 13 2603 4009 3613 2566 3695 3325 2882 3956 4540 4190 2754 4280 4405 3435 4800 3521 4069 3751 4726 4240 4334 9 2967 2782 3372 3670 2868 2853 2500 3203 2719 3188 4068 4510 3932 4340 4055 2551 4496 3183 2747 3178 4475 2780 2846 4931 4528 4884 2988 4135 4090 4201 3853 4727 3469 3130 3044 4861 2916 4511 4551 3199 3895 2871 2832 4624 3511 4226 3802 4894 4872 4851 2824 4289 3419 2520 4949 2707 2528 3422 3862 3114 4892 4267 3006 4711 3075 3299 2686 4340 4599 4369 3385 4763 3646 2798 2532 4250 4571 4640 3214 3071 3789 4002 3494 2504 3013 4060 3717 3404 4642 4072 3264 3927 4506 4224 3702 3494 2823 4774 2715 3203 3376 3719 4109 2601 3631 4007 2500 4890 3814 4594 4561 3841 3915 4421 2586 4477 4334 4837 3861 2674 4104 3924 3267 3244 3341 4030 3112 3862 4675 4166 4830 4859 3158 3470 3281 2551 3710 2697 4265 4163 2573 4412 4168 2940 4934 4604 3102 4059 3028 3427 4088 4843 4037
5 35 6 19 27 27 39 23 2 13 1 2 27 19 27 34 6 20 38 11 29 16 24 33 24 3 10 9 8 23 17 30 11 13 5 30 10 22 24 23 11 25 14 11 10 39 13 38 32 34 39 2 9 1 39 7 4 3 0 29 32 12 37 13 10 23 15 24 33 7 31 26 15 15 18 3 13 9 34 13 2 18 21 4 9 30 23 3 6 38 29 7 23 32 9 8 34 19 36 34 14 3 26 30 36 29 17 27 31 39 38 1 20 1 37 23 37 39 2 15 7 23 20 22 34 17 34 34 38 19 30 2 30 35 20 31 2 31 37 38 8 39 29 26 29 12 4 34 10 4 22 20 13 13 12 24 6 11 10 3 29 15 33 15 20 14 34 22 34 21 13 25 20 33 17 29 38 23 2 36 6 1 22 24 4 36 11 17 6 38 15 25 26 12 4 25 26 3 9 18 15 17 3 37 32 2 26 34 35 34 29 32 12 20 38 9 22 3 24 21 33 33 14 28 24 3251 4447 4409 4537 2832 2951 4614 3308 4060 3406 3539 3807 3622 4205 3835 4024 3485 4906 2799 2627 2637 3826 4141 3840 3768 3210 3277 4856 3106 4997 3331 4924 4610 4054 3341 3764 3947 3851 3297 4795 3899 2958 4986 3433 2664 4910 13 3369 4966 3871 3443 3751 2706 4577 3744 4625 2677 2748 3588 3845 2737 3195 4722 3304 3563 4001 3656 4841 3852 3694 3891 4563 3612 3122 3295 3778 3033 3122 3103 4225 4696 4235 4040 3136 3238 4167 4373 4722 2856 3288 2846 4309 2616 4780 4083 4697 4701 2769 3998 4938 4120 4569 4410 4815 3813 4763 2549 4166 4796 3187 2518 2555 3852 4164 2670 3343 2947 3466 4617 3615 2904 2568 3557 4095 2902 4339 4560 2626 4066 4473 4878 3728 3577 3338 2915 4258 2643 2857 4383 3220 2507 3039 4640 2807 3696 3254 4146 3095 3494 2675 4538 3898 2960 3106 2898 3545 3318 4061 4579 2790 2620 4047 4382 3952 3474 3981 2666 2728 2527 4373 3409 4375 3460 2751 4979 3195 2608 4150 4519 3818 4697 3856 4552 4231 3385 4844 2706 3374 2852 4837 4138 4613 3291 2803 4994 4960 4688 4386 3864 3738 4663 2740 3984 3572 4804 2556 4175 4627 4387 4794 4998 4679 3714 4771 2731 2811 4827 3902 2666 3727 4008 2737 4566 3419 4721
10 8 2 37 33 3 19 34 2 36 17 35 10 34 14 15 18 36 36 18 11 11 21 6 29 27 7 8 34 3 12 3 14 12 14 35 27 9 25 27 19 31 25 9 2 20 26 14 18 12 31 31 37 35 7 31 37 12 14 0 37 17 22 37 38 13 21 26 20 15 15 11 35 2 1 12 17 33 28 13 33 27 30 33 29 9 21 19 5 14 12 14 31 36 23 5 3 2 36 34 5 37 17 5 30 3 18 3 13 37 37 31 33 6 39 26 12 20 36 2 32 15 37 17 17 29 20 32 6 27 11 19 12 1 7 27 28 3 24 38 33 6 38 6 18 13 11 18 27 27 11 22 34 35 25 34 38 25 34 3 14 34 1 11 29 25 7 1 14 13 36 2 27 25 7 10 8 34 19 38 6 39 13 11 13 32 36 13 30 35 10 29 13 25 36 5 11 10 39 27 23 25 34 2 36 31 15 14 16 19 10 21 5 3 29 16 5 19 11 28 33 30 29 34 16 3606 3952 4832 2543 3976 3143 4992 3752 4692 4841 4586 4654 4930 4428 4818 3130 2858 4513 4255 3245 3326 3689 3750 4526 3532 3807 2547 4572 3109 4448 4401 2800 2581 4566 4862 3546 3479 4950 4970 2674 4400 4329 4413 2527 4391 3352 3153 3424 3009 2911 2868 3580 4345 3308 3910 3020 3824 3730 4326 2991 4720 4490 4801 2913 3336 3237 4200 4503 3492 4633 4748 2914 3432 3964 4416 3142 3909 3474 4533 2963 2850 4276 4156 4134 4440 4945 2682 3586 2574 4703 4495 4147 3610 4077 2902 3653 3141 4588 3879 3580 2655 2662 2575 3110 4302 2563 3025 3280 2631 4662 2763 4224 4722 3584 4313 4989 2885 2993 4836 3805 4683 3432 3868 2580 3774 4037 2946 3976 4942 4063 4165 3510 2627 3107 3376 4593 4527 2744 4993 3083 3591 2914 3816 4587 4244 2643 2754 2649 4736 4528 4481 3513 2757 3881 2887 3687 3725 4757 4074 4328 4625 2939 4159 4844 3637 3573 2905 4433 2947 3766 3524 3915 4845 4891 4196 3506 3407 3409 4970 4273 4214 4072 4741 10 3807 3473 3686 4114 4315 2951 2998 4920 3869 4274 3538 3917 2655 3789 2754 4194 4265 3771 2545 4556 4744 4879 4825 3411 4312 4078 4578 4765 2662 4410 3900 4946 4645 3961 2929 3588 4193 2688 2995 4301 3719
20 16 16 9 24 20 11 18 38 15 15 12 24 9 26 35 1 22 23 17 34 21 35 11 14 7 39 33 25 19 21 34 20 11 16 33 2 14 25 23 39 8 19 23 27 5 21 15 16 10 36 18 39 34 11 21 19 1 16 11 0 30 38 30 22 35 38 7 1 28 31 16 10 18 9 7 26 34 9 39 16 34 37 31 22 21 11 3 24 7 14 15 6 38 3 34 30 2 27 15 3 26 30 37 7 8 14 17 4 39 18 30 18 13 36 11 35 31 24 35 19 12 7 25 5 5 20 20 10 28 27 24 14 25 13 17 38 19 26 27 19 13 7 26 37 1 7 15 25 2 18 7 28 29 32 20 23 2 20 26 25 26 11 9 33 21 29 24 1 3 9 3 24 14 33 7 36 33 15 6 30 37 35 22 8 27 15 2 39 35 13 25 12 7 2 36 24 32 19 34 8 11 31 5 16 38 17 39 15 2 19 24 2 1 24 1 17 23 16 21 17 20 30 27 10 3788 3252 3712 4556 4996 2536 2802 3898 3616 3251 3955 3348 4723 4581 4952 4573 4589 3973 3652 3650 4724 4064 4313 3170 3429 3362 2837 4498 4914 3534 3845 2594 4158 2506 2666 4962 3981 3407 4622 3331 2970 3030 2936 4243 2624 4472 3422 4806 3725 4792 3809 2976 4587 2705 4490 4309 4030 3942 4060 3615 3111 3214 3755 3263 3201 4972 4086 2806 4482 3051 4530 2689 4583 3997 4957 4645 4207 4979 3164 3402 4603 3450 3761 4415 4204 3135 4458 3449 3259 3378 3436 4179 3509 2724 3614 3282 4190 4566 4725 2674 4468 4119 3183 4933 2962 3742 2659 3265 4488 3001 3777 4610 4916 2877 3714 2859 4641 2861 3600 2987 2835 2620 2710 3884 3308 4277 4877 3106 4627 4575 3967 2536 2587 4794 2955 3742 3908 3047 3039 3022 3152 2799 3791 4720 3675 4449 4623 4564 4990 3859 3757 2628 3014 4877 4517 4448 4849 3614 4839 4469 3742 4942 3466 2792 4989 3738 4361 4088 4884 3609 4370 3648 3120 3221 3556 3397 3161 4038 3277 2870 4477 2809 3316 2957 4314 4257 2723 3941 4762 3109 3830 3603 4915 3037 2526 3013 3247 3496 4890 3088 3935 3548 2882 4584 2923 4355 4475 3491 3831 2674 3996 3135 2545 3029 2684 3163 3092 3055 4811 3768 4313 3127 3957 4555 4693
26 12 27 22 31 8 21 8 16 10 11 1 21 26 12 5 27 25 20 32 1 4 27 16 28 10 18 39 2 33 23 30 37 11 6 4 24 6 23 25 19 13 18 27 17 14 38 2 4 17 39 12 5 10 21 19 17 20 22 7 27 0 27 4 36 32 25 38 19 10 7 8 38 13 38 24 33 13 8 5 25 8 32 14 13 14 18 14 31 19 25 14 34 10 7 35 28 22 22 18 10 33 7 36 25 2 1 3 11 5 18 23 28 20 5 32 26 32 27 17 7 11 39 14 6 16 26 31 4 4 3 21 15 17 3 7 32 10 24 14 12 32 21 27 15 7 7 22 25 9 37 11 28 27 39 20 4 30 28 20 4 10 5 15 20 38 24 5 9 3 8 38 31 7 27 13 39 14 11 36 9 17 27 13 23 20 19 34 23 9 25 25 38 36 1 12 38 4 34 4 12 15 13 17 1 7 12 37 38 37 11 22 38 27 19 29 12 39 1 33 27 24 21 32 17 2811 2754 3215 3298 3833 3883 4530 2791 3853 3458 3813 2879 2536 2954 3606 3015 4137 3126 3069 3443 3076 4344 3817 2628 4259 3164 4540 4741 2759 2642 3835 4333 3135 3879 4445 4377 3080 2663 3940 4335 3638 3571 3175 3445 3356 3794 4549 3554 3558 2613 2945 4047 4706 3923 3963 3557 4156 4282 4356 4635 2501 4460 4184 4481 2782 3926 3694 3261 3562 4117 4665 4027 3896 3370 4352 2750 4599 4715 4897 4057 2600 3095 3258 4745 3707 3813 4601 2773 3952 4525 3278 4036 3580 3539 3251 3411 2654 4189 3785 3053 4787 3486 4098 3752 4594 4238 2815 4405 3749 2516 4133 4197 4291 4124 2829 3297 3357 4505 3501 3813 3404 4634 3911 3388 4430 4297 3119 4002 3282 3628 3939 4623 3439 4009 3808 4100 3805 4602 4505 2863 17 3016 4126 4607 4656 3844 3584 3840 3050 2830 2997 3360 4146 3177 2573 4138 2955 4911 2812 4035 4324 3565 3837 4587 3226 2632 2975 2903 2830 4052 2914 2826 4642 4991 4353 4000 4928 3015 4899 4341 3168 3939 2858 4865 4301 4515 4897 3351 3072 2761 3376 3641 2974 3871 3146 3701 4007 3726 2773 4982 3868 4679 3827 4422 4562 3185 3971 3967 4089 3221 2825 3295 4918 3302 4938 2967 4734 3371 3852 4786 2756 3445 4520 2848 4123
15 6 19 20 17 12 34 22 23 30 14 7 9 19 14 2 16 27 14 5 10 10 35 20 27 20 30 36 36 12 5 29 25 21 39 19 9 30 4 13 5 28 24 37 34 13 10 13 9 13 36 3 27 33 1 4 35 1 39 29 35 27 0 7 5 17 22 36 6 2 25 32 23 31 10 28 30 5 20 14 25 9 20 1 15 1 15 17 28 37 1 32 27 27 33 10 25 27 13 21 39 31 8 11 5 17 13 34 29 8 13 26 20 34 4 18 31 30 6 21 16 28 27 32 3 26 39 35 18 24 39 2 17 9 11 22 11 30 36 11 36 37 15 3 18 17 14 4 16 22 16 16 37 4 29 1 18 29 11 10 37 25 21 39 29 15 16 29 30 14 4 13 2 12 33 33 9 3 18 36 7 9 21 19 5 33 32 33 15 33 4 29 11 24 14 14 13 36 30 22 10 39 19 1 13 17 13 7 39 37 33 1 30 37 12 32 23 8 23 39 22 5 14 38 18 4269 4929 4198 4969 3705 4771 2718 4803 4258 2584 2675 3246 4213 3035 4503 3775 4314 3685 2861 3701 3807 4422 3022 4644 4503 2689 4450 4122 4651 3179 4421 3171 4985 4323 4626 2708 3333 2948 3240 4803 2575 4328 4093 3719 3410 3405 3923 4399 4214 4597 4260 2989 4910 2769 4189 3825 4628 2652 3216 2930 4082 3075 3848 9 3781 2903 4374 2677 4418 3975 3437 3820 2505 4698 4530 3336 3467 3804 4662 3494 4129 2834 3727 4645 4683 3813 4397 2774 4979 3109 4080 3575 2547 2965 2871 3268 3864 2515 2843 4643 3566 4522 3450 2737 2549 4873 3426 3963 4833 2886 4437 4588 4785 4900 2976 2953 3355 3023 2914 4436 2771 4470 3591 2607 4074 3547 4068 3850 3443 2782 3361 4423 2910 3210 4683 2603 3205 3876 3011 3063 4638 3221 4404 3473 3272 4030 3499 3520 3177 4644 4097 4641 4678 4176 3974 4497 3581 4551 3076 4875 3671 4131 4156 3978 4767 3072 4605 2946 2774 4267 3588 3051 3562 3452 3654 2852 3720 4798 4489 3702 3138 4198 3854 2939 4684 3723 4116 4578 2661 4778 2527 3217 4619 4258 3542 4947 3505 3014 4907 3303 2977 2625 2609 4860 4928 4427 3560 3419 4471 3062 3541 3854 4574 3468 4876 2905 4496 4777 3352 3979 4428 4479 3225 5 2849
18 5 15 18 11 39 20 32 33 20 3 31 34 35 7 9 5 25 16 14 24 32 7 28 27 28 24 11 20 30 13 25 29 17 23 9 20 8 8 10 20 6 34 23 23 12 29 18 36 20 20 8 32 13 24 25 7 39 7 32 23 17 38 0 28 10 32 9 18 3 13 26 4 23 12 21 12 28 8 18 4 28 31 33 17 14 11 24 36 7 31 32 20 18 3 14 20 22 11 5 27 12 15 25 36 8 37 17 28 17 27 8 32 11 37 24 23 23 30 21 37 34 33 7 37 9 17 34 25 9 2 26 24 11 14 11 7 14 32 24 1 20 2 35 8 37 37 34 38 1 38 19 4 37 36 35 37 36 14 22 15 24 9 17 19 33 37 10 18 18 15 24 37 9 7 8 19 17 23 33 6 6 8 31 15 12 30 28 21 37 10 39 17 8 18 26 18 4 4 4 5 15 7 25 21 10 31 20 36 26 32 10 3 20 26 29 8 1 34 12 9 7 10 31 27 2617 3336 2738 3865 4772 4991 4904 4118 3480 4647 4837 3449 3314 4385 3742 3160 3015 4441 2765 3048 3071 3510 3711 3142 4437 3352 3400 4464 2970 2669 2519 4870 3263 3915 3856 4274 4460 2954 4086 3303 3635 4641 4963 3862 2794 4187 4915 2927 4132 4039 4495 3274 3807 4073 3115 3029 2626 4043 4224 4794 4388 4596 2624 4650 3805 4381 3992 4452 3243 11 3372 4949 4396 2890 3025 4004 3893 4559 2725 3422 3805 3295 3988 2550 3863 4124 3650 3397 4701 3862 4869 4231 4215 2622 2521 3562 2559 3356 4530 4010 3377 2856 4501 3653 3083 3434 4307 4572 4046 2953 3768 3332 4056 3355 3644 2739 2693 3804 4623 3666 2520 3118 3949 4687 2965 4011 4209 3762 3680 2967 3994 4116 3086 3378 4071 2645 4425 4463 3666 4431 2672 4139 3946 2895 2847 4564 4933 2908 4822 3919 2892 2685 3971 4275 4579 3117 2620 2681 4433 4145 3009 2879 3847 4670 4390 4488 2981 3183 4043 3494 3288 3437 2954 4106 2994 3038 4429 3797 4769 3702 4982 4730 3883 3905 4621 3075 2740 3544 3890 3137 3275 4671 3231 3454 4523 4470 3569 2792 2865 2917 3511 3974 4987 3977 3890 2996 2745 2689 3752 2736 3946 4524 4661 3547 4556 2828 2764 2877 3165 4956 3806 4911 2816 4948 4632
20 19 1 10 21 27 12 30 27 28 34 5 28 35 32 22 9 13 13 15 15 3 24 3 29 1 35 16 18 26 16 19 20 35 37 6 29 22 15 28 2 12 3 18 22 20 38 21 10 29 13 13 15 19 33 30 25 36 1 5 12 15 15 33 0 13 20 29 29 7 18 32 23 1 36 18 18 39 6 32 1 20 6 34 36 7 4 12 30 37 31 38 16 25 12 29 8 24 17 10 36 25 35 18 1 1 22 39 13 24 7 3 2 29 8 38 30 1 31 20 18 14 20 38 33 35 25 25 37 28 9 33 25 8 8 2 25 26 30 9 26 1 18 15 37 8 21 28 37 12 5 37 16 6 37 7 37 17 19 26 20 30 30 6 15 15 3 39 11 3 28 1 16 33 12 13 38 32 6 34 32 24 31 35 26 10 28 17 33 14 2 34 9 8 5 25 37 24 5 15 23 30 18 14 34 35 24 10 29 10 23 12 7 12 26 9 37 18 29 34 20 17 19 39 30 2927 3209 2907 3815 3407 3768 3821 2501 3645 2536 2513 3467 3939 2909 2870 4167 2726 2581 4537 3032 2700 4674 4912 4884 4128 3385 3050 4319 4192 4317 2815 2812 4101 2544 4366 3426 3622 4385 2756 3093 4071 2685 2754 3493 2697 3900 3750 4847 4660 3980 2831 3254 4884 3226 3875 4034 4673 3948 2779 2839 4306 4240 2892 4579 4933 3666 3447 2893 3483 4105 4268 4571 3014 3713 4495 4200 4742 3140 3733 4623 4884 3900 4492 3833 4247 2648 4529 4640 3079 2865 2790 2873 4473 2828 4679 4558 4721 3927 3474 4567 3716 4784 3256 2574 3482 4782 3610 4033 3640 3830 4719 3576 4192 3596 4271 4465 3382 3645 4167 4876 4234 3455 4977 4336 4309 3125 4796 2546 2819 2838 4046 2574 4703 2940 3863 3509 2763 4103 3899 2511 2634 3812 4416 2537 4532 4665 4568 4166 2964 2524 4138 3140 3835 2680 3008 2953 2616 4362 2694 2953 4570 4659 3365 3893 4393 2951 4131 3909 3236 3932 3046 4784 4523 3191 3372 4520 2844 3769 4922 3636 3337 3853 4652 4557 4352 2767 4282 2546 3596 3565 3861 3618 4760 4337 3286 4816 4284 3089 4928 4983 3174 10 3015 4464 3045 4294 4260 3367 4417 4828 3493 4405 4014 4816 3161 3166 3045 4243 3958 3830 4855 4282 2997 3934 4074
19 35 25 30 31 3 36 15 25 3 38 2 21 5 23 39 6 32 15 13 10 8 28 13 27 25 27 17 2 3 1 21 24 7 16 26 20 26 35 35 25 16 14 5 27 26 39 32 35 2 23 25 21 17 38 11 1 35 36 20 22 33 20 11 10 0 35 3 27 14 11 30 39 14 33 23 22 30 9 38 28 17 31 28 3 27 18 14 23 10 35 9 33 9 34 36 21 6 23 2 14 38 33 7 19 13 37 38 14 32 24 22 18 20 29 6 10 7 16 6 14 4 33 19 33 23 31 36 19 33 1 12 35 25 38 3 17 33 22 26 29 33 14 13 1 6 38 39 17 3 16 39 12 37 6 8 6 23 21 12 24 29 16 12 6 21 6 35 16 11 1 7 30 15 12 35 12 2 25 39 20 39 30 4 8 27 4 36 25 31 11 37 11 16 9 31 7 38 25 21 2 1 25 37 26 4 34 1 20 32 20 36 17 5 32 10 3 8 9 37 16 4 7 24 27 4766 4049 3328 3502 3231 3233 4710 4133 3060 3131 4996 3924 3677 2755 3779 4878 4602 4651 3579 4717 4935 3934 2942 2842 3951 4966 3181 2502 3790 4495 12 3766 4129 2952 4915 4149 4578 2682 4202 3680 4745 4968 3928 4823 2720 3678 4549 4290 4711 4040 4433 2654 3930 4830 3926 4820 3725 4145 3262 3251 2910 2652 2548 3348 3598 2802 3820 2539 3371 2545 3579 3157 2965 4234 2931 4293 3661 4592 4243 3547 4529 4700 3569 2909 3602 4202 2705 4700 2844 3290 4920 3669 4116 4385 4614 2583 3903 3214 2506 4119 4398 3922 3796 2658 3199 3491 3772 3930 3057 3863 3683 3411 4003 4914 4861 3665 4416 3228 4977 4444 3796 4472 3992 4012 2767 4659 3747 3271 4296 4181 3102 4036 4973 2544 3764 4692 4403 4459 2802 3623 2704 3449 3804 4578 4023 4489 3446 4168 4417 3880 3030 4169 2731 2709 3119 2896 2989 3183 4336 3928 3980 4910 3129 4202 3803 4065 4560 3100 2688 3243 2918 3568 4504 2807 3253 3802 3776 4816 3624 4105 3124 3188 4942 4618 4279 4553 4379 4244 3565 3635 3704 4430 3023 4431 4730 3179 2842 2739 2816 3649 4399 4779 3328 2724 4265 4345 3544 3906 2610 4860 4900 3363 4754 3291 3917 3511 4251 4247 3241 2817 4281 2526 3121 4600 4358
12 34 33 20 29 18 17 36 2 15 26 18 32 33 33 15 9 2 21 32 22 15 18 22 37 39 18 4 28 21 17 16 25 32 7 21 17 39 18 22 22 18 21 8 15 18 33 17 11 3 22 28 16 31 34 21 14 28 36 4 23 26 39 17 27 29 0 27 31 35 5 30 34 10 9 29 5 12 28 26 31 39 20 25 5 38 21 5 21 2 1 25 15 8 1 6 25 20 30 32 20 24 18 15 17 3 37 22 10 2 26 32 11 31 7 1 15 15 35 15 28 14 7 17 24 7 36 24 19 38 20 34 26 14 18 33 29 12 35 29 25 35 32 11 37 36 11 28 37 25 8 32 38 7 36 17 22 2 30 28 25 7 29 32 23 10 12 29 16 28 14 2 22 5 21 2 38 23 39 11 8 36 27 26 12 11 3 5 17 33 7 4 36 5 5 12 3 14 39 18 29 33 19 29 12 20 29 19 10 23 18 15 2 35 21 26 30 9 30 1 1 17 19 30 9 4301 3322 4889 3819 3789 3435 3624 4251 3750 2526 3971 4705 7 3147 4447 4342 4389 2572 3604 4913 3635 4514 3654 4377 2812 2890 2637 4349 4572 3619 4928 4717 3330 4560 4590 4462 3809 4702 2926 2693 3381 3897 2767 3815 2641 4424 4119 2854 4715 2589 4681 4871 2622 3897 2940 2987 3900 4917 3036 3038 3156 4880 4836 3927 4931 3069 3650 4353 2591 3313 3257 4663 2722 2811 4677 4074 3783 3785 3963 2564 3116 2849 4392 4651 3207 3671 3097 4001 4676 4383 2712 3166 4330 4705 3741 4464 4556 3345 4994 3400 2616 4544 2600 4558 3927 4206 4637 3865 4331 2852 2800 4533 4488 3833 3544 4498 4651 2502 4490 4616 3551 3412 4089 4009 3457 4256 2531 4487 2729 3986 3090 2820 3489 4885 4631 4727 4475 3003 4024 2844 3759 3955 3685 3283 4694 4798 2574 4162 4455 2671 3679 3120 4358 3770 2966 4320 3475 3716 2822 2794 4260 3348 4602 3498 4795 4103 4635 4957 3538 3134 3044 2885 4535 3665 2572 3291 4112 3326 3079 3831 3453 3846 4019 4485 3032 4255 3818 2899 3647 2712 2503 4575 3504 4414 2893 2966 2781 3391 3491 3274 3441 4074 4946 4643 2702 4645 3795 3386 4101 3041 3007 2556 4194 4460 4081 4075 3789 3007 3690 4418 3600 3555 2967 2945 2650
33 23 36 15 10 24 10 25 23 14 30 10 6 3 12 12 3 37 32 7 27 38 38 20 27 12 34 16 22 17 24 35 39 2 37 32 32 30 34 26 34 18 2 21 21 21 27 24 4 3 12 33 26 39 26 39 34 39 31 22 1 37 9 11 16 7 35 0 34 4 5 36 11 17 26 26 28 10 26 37 31 39 18 23 26 29 24 29 8 17 16 35 35 34 36 23 34 6 6 22 28 1 5 18 23 26 11 17 11 26 35 19 36 29 13 32 39 30 9 13 27 9 1 25 3 17 14 38 10 3 3 4 36 27 3 30 30 39 17 33 15 36 13 13 2 27 24 26 26 20 12 1 23 39 3 3 1 28 32 21 6 11 13 24 25 26 27 33 25 16 16 22 20 21 30 16 35 26 13 11 7 11 29 7 35 15 12 23 33 7 29 38 28 13 15 30 13 19 27 8 16 8 4 9 31 13 35 8 19 12 33 22 6 16 2 28 14 8 15 34 26 36 33 30 19 3244 3633 4791 3230 2740 2631 4598 4489 4170 4518 3435 3411 4459 3588 2625 4859 4741 3450 3693 2771 4322 3066 3800 3979 3150 3697 3718 2666 4352 4187 2846 2589 2509 4047 2850 3314 3614 4805 2847 4370 4026 3178 4683 2637 4617 4668 3575 3301 3047 4137 4571 2558 4423 3586 3023 2779 2585 2678 4140 2679 3477 3722 2629 3761 4730 4229 3503 4930 4031 3565 3688 4487 3602 2678 3878 4098 4114 2539 3195 2975 4175 4146 4487 3154 3882 4075 4269 4855 2517 3033 4545 4986 3143 4345 3512 4571 3119 3360 4015 4591 3058 3756 4088 4548 4118 3916 2817 3238 4066 4131 3605 3173 2926 4379 3635 4442 4943 3959 3991 2734 4907 3210 4591 3920 3821 3808 3114 4429 4724 4668 4663 3207 4235 4057 4443 3721 4458 3405 4643 2853 4978 2930 2829 3940 2742 2731 3511 4539 4366 3009 3053 4739 2735 3704 4810 3027 3542 4338 2579 4417 4298 4629 4260 3926 4101 4518 3832 3629 3447 4578 2524 3552 4357 2702 4537 4541 2688 3098 3592 4084 2951 4237 4327 3051 4772 4724 3452 3323 3877 3920 4643 3451 3170 2872 3618 4854 2809 4353 3330 4337 3242 2565 4109 4631 4892 4185 4051 3997 2565 4805 3442 2760 2666 4019 4553 2543 3085 4702 4681 2567 3565 3047 3987 4038 4576
11 35 1 17 19 5 29 11 10 2 19 15 19 24 37 28 26 33 26 33 17 31 7 8 24 29 14 32 22 38 35 30 8 12 7 33 14 5 32 10 21 22 17 35 12 3 8 18 19 35 12 20 16 17 24 34 33 30 10 8 24 2 33 17 18 23 14 27 0 5 30 12 18 26 15 33 16 29 11 17 19 28 32 14 21 22 7 19 21 12 1 18 32 37 1 28 29 14 6 35 17 33 31 4 12 37 38 2 17 34 3 21 36 33 29 10 31 7 25 9 12 21 39 15 4 13 36 27 25 11 22 15 35 13 15 39 5 14 7 23 9 14 35 33 12 25 16 35 6 37 22 25 12 29 30 37 24 30 21 25 12 14 18 7 23 32 9 9 13 22 14 6 13 36 17 29 37 32 4 28 1 20 20 8 11 19 36 5 12 13 21 21 14 19 21 13 1 5 13 34 2 13 19 36 6 34 20 11 23 36 29 30 33 38 19 17 8 19 19 7 2 14 39 37 1 4817 3870 4958 4922 4691 2568 3246 3614 3980 4120 2858 3820 4814 4993 2720 2523 2514 3510 3538 4792 8 3488 3644 3090 3171 3432 4511 4633 3579 4641 4776 3804 3485 4605 3131 4378 4899 4878 3515 4476 3391 3837 2509 2571 4353 4098 3633 4596 4420 2946 4302 3440 3793 4282 3445 4159 3726 4564 3499 4645 3761 4769 4037 4198 4781 3600 3857 3593 2688 2943 3456 4676 4915 3874 4881 3471 4391 2988 2547 4126 4056 3220 4559 2595 3748 4723 4665 3163 4764 3759 4983 2870 3667 3587 15 3805 4437 3213 4109 4871 2817 3115 3532 4866 4472 2682 4255 4720 4774 4622 4781 4301 3654 4388 2559 3013 3588 4722 4872 3340 3250 3693 4106 3948 3139 3979 3308 3845 4367 4461 3345 3912 11 3116 3272 2665 2679 3792 2601 4409 3501 4369 4630 4854 2978 4591 4065 4878 4581 4653 2918 2558 3881 2506 4810 2766 4216 4130 2845 4448 3096 2536 4148 3102 3327 3229 4851 3341 2655 2998 3156 3122 3577 2615 4839 4622 4839 4069 3191 2697 2724 3198 4479 3694 3145 3779 2977 3388 2888 4001 3692 3693 2562 4226 4578 4002 2604 3848 3958 4822 3737 3635 2573 3926 4140 4635 3730 4100 4669 3236 3579 3965 4009 4257 3691 4082 2918 2523 3508 4286 3411 3275 2777 3998 2569
16 37 7 27 4 36 7 39 10 33 28 10 8 16 38 29 15 26 8 39 38 21 18 9 13 25 5 3 31 8 2 16 39 36 26 2 20 38 35 33 14 10 31 27 14 9 16 2 5 8 29 2 36 3 35 10 12 2 17 26 32 15 13 25 17 38 13 27 31 0 31 24 12 25 14 19 7 12 24 39 28 1 30 21 28 31 17 37 18 29 38 27 34 14 31 9 25 22 26 27 20 30 3 11 15 13 24 38 28 19 7 9 8 33 29 33 3 31 39 22 15 16 30 33 14 34 30 14 10 16 37 3 11 19 32 30 5 35 5 37 11 36 36 15 37 28 23 27 22 28 34 2 9 8 14 22 23 15 27 29 35 21 20 5 30 34 10 33 24 7 9 8 4 6 15 3 2 11 12 30 11 9 13 32 28 5 19 21 27 12 11 9 8 33 15 29 27 20 26 22 29 28 23 9 20 13 28 2 3 12 9 35 8 35 1 16 21 38 25 11 30 32 39 26 4 4924 3120 4711 3968 2802 2980 4357 3369 2645 4888 3253 4148 2622 3717 3958 4237 3340 2842 2810 4548 2839 3594 3353 4901 4267 3698 3256 3169 4804 4236 2571 4093 2899 4494 3326 3372 4926 4571 3990 2669 4269 3606 3243 2645 3472 3373 3003 4874 4252 3673 4356 3951 4320 3905 2837 3329 4650 3357 3378 3929 4605 4855 4646 4224 3147 4136 3125 3589 4871 4564 3799 4814 3909 3930 4258 3578 2708 3994 3063 3098 4768 3603 3098 3523 3609 3562 3727 3847 3221 4808 4287 3269 3418 3146 4264 3307 4473 3133 3838 3824 3812 2628 4651 2927 2525 3450 3178 3849 3728 4041 4675 2865 4883 4960 4594 3788 3386 4394 4569 3998 4259 2968 4778 3976 2968 4684 4557 3156 2552 3285 3878 3211 2578 4244 4885 4951 3935 4611 2576 3948 4077 4635 2708 3569 4793 4971 4453 3154 4717 4310 4618 2906 3117 3562 2932 2575 4494 3149 4284 3772 3233 3294 4605 3755 2665 4381 3595 2826 4243 3390 4837 3006 3823 3855 4423 2553 3715 4033 3746 2886 3117 3129 4953 3713 2514 2631 4628 4635 3005 4682 4723 3553 3100 3784 3667 4900 4908 3530 2974 2775 2560 3928 3829 4143 2986 4572 3140 3157 4197 2538 3623 4938 2974 3267 4698 3231 4931 3446 3851 3539 4020 3590 4158 4947 3821
21 3 37 17 3 36 16 36 7 9 39 9 5 28 20 22 32 36 13 5 11 30 37 28 22 4 24 32 32 32 3 13 27 3 36 13 25 4 39 35 13 10 7 7 30 14 13 15 12 19 12 33 20 33 31 29 39 4 6 28 32 27 29 15 6 19 18 25 11 7 0 19 35 36 20 33 7 28 39 10 35 11 7 4 1 20 26 16 16 37 36 15 35 29 39 9 23 32 7 32 31 19 5 29 36 30 13 39 19 15 2 37 38 27 24 8 39 19 23 13 12 39 28 8 5 39 15 7 27 39 10 4 1 18 25 15 10 28 6 29 10 29 6 35 5 14 18 12 34 15 22 31 17 15 32 6 34 30 30 13 20 32 12 14 26 6 7 32 32 4 16 9 25 2 14 5 9 19 34 21 39 33 20 11 16 15 26 13 31 29 10 11 29 18 5 12 35 34 4 1 10 21 32 6 21 12 32 31 25 7 14 36 38 24 9 25 37 36 32 38 22 14 18 35 8 3300 3461 3166 3460 4369 3230 4368 2600 3354 4421 2956 3776 2834 3026 3997 3130 3748 2920 4931 4774 4050 4109 2801 3633 4298 3194 2643 3878 4075 2588 4178 2783 4149 2765 2543 2949 4016 4915 2750 4946 3350 4157 2531 3069 3176 4731 4020 3348 4172 4604 2972 4946 3116 3225 4036 3951 2919 3683 4677 3662 4332 4682 2994 7 2509 4517 3829 3223 3308 4346 4584 3836 3424 4044 2924 2633 4923 4114 4500 3408 3879 2757 3435 3905 4760 3880 2575 4780 4285 3551 4445 3248 3552 3953 3516 4452 3330 3067 4098 2911 4053 3817 2945 3892 4533 4913 4262 4215 2811 3633 2521 4543 4781 4920 2837 3488 2706 2683 3713 3481 4694 4563 3071 2918 4751 3412 3123 2861 3037 4958 3583 3069 3825 3559 4685 3785 2519 2737 4489 4423 2690 4480 2941 4633 4590 2583 4953 3763 4000 3512 3720 4911 2982 2866 3841 4942 2536 2668 3920 3877 3239 2745 2703 3725 3547 4427 2623 2786 3091 4457 4116 4194 3187 3618 4263 3752 4520 3571 4329 3520 4055 3610 4820 3662 3470 3319 3163 3598 2731 2926 4983 4231 4833 3534 4241 3417 2599 4324 4902 4390 3860 4077 4295 2613 3421 3243 4930 3634 4817 2783 3619 3187 2955 2527 3102 3135 2938 4668 4595 3916 4676 2821 3563 3233 3575
16 14 4 11 27 17 34 30 29 32 31 24 23 14 22 24 1 24 19 25 25 23 19 4 3 27 26 20 30 21 32 13 20 10 8 18 33 38 2 9 37 38 4 21 17 14 19 37 35 29 5 35 5 36 5 24 25 27 19 3 24 4 28 35 27 9 20 8 30 26 9 0 2 7 13 22 13 24 29 2 6 35 28 9 1 22 25 38 32 24 8 16 32 9 1 12 3 18 39 25 19 12 25 2 1 20 36 4 12 13 17 21 16 31 11 13 18 33 29 24 31 29 21 2 4 1 6 34 28 34 6 35 2 26 22 24 39 24 28 5 22 12 19 14 17 13 27 10 6 30 3 35 9 9 28 37 31 7 34 38 24 36 14 21 19 12 24 8 34 33 32 30 4 17 4 18 21 12 26 18 16 15 22 9 32 27 2 31 16 1 4 6 4 23 33 38 14 19 14 10 17 21 9 26 19 18 19 14 1 22 13 26 14 34 11 26 13 28 22 1 9 25 3 29 30 3991 4521 4273 3046 4746 2537 2642 3631 4469 11 3260 4174 2654 4515 3306 3026 3771 2939 4145 2739 4365 3087 3827 4449 2598 3537 4258 4923 4691 4257 2599 2917 3253 4440 4198 4704 2986 4553 2767 3158 4012 2678 4261 4812 3272 3692 3581 3638 3650 3394 2996 4312 4414 4099 3177 4804 3524 2565 2910 3453 3337 3690 2511 3394 2915 3732 4393 4793 2756 3928 3869 2588 4666 4644 4508 4959 3738 3355 2580 3760 2611 4788 2670 3724 4227 4771 4394 4191 3205 4955 2742 3525 3622 3335 2588 3750 3077 3807 3179 2588 4586 3172 2784 3028 2555 4479 2574 4855 2725 4943 3161 4630 2720 3134 2559 4453 4795 3046 3289 2574 2679 3739 4634 4292 4405 4122 4788 4596 4908 2999 3168 4012 4639 2694 3761 4868 3498 2507 4997 3049 4742 2553 4318 3420 4500 2659 4831 4901 4502 4804 4955 2540 2813 4670 3765 2934 3463 2543 3477 4304 2575 3538 4293 3759 3255 4049 4794 4944 3591 2989 3304 4302 3341 4225 3012 3598 2679 4287 4514 3543 2859 2874 2772 2784 4774 2542 3225 4567 2893 6 4830 2934 2747 2761 4996 4082 3034 2852 2557 3252 3945 4593 3576 2699 3042 3566 4584 3092 2871 2690 4524 2578 3381 3899 3899 3349 2713 3176 2960 4619 4222 2950 2976 4847 3259
15 17 8 39 1 3 11 30 19 1 39 22 39 22 39 16 22 5 13 16 10 14 8 27 2 23 8 16 31 16 10 38 37 39 37 1 14 37 24 20 28 4 32 28 14 3 21 24 33 39 34 2 9 1 17 24 37 9 33 38 37 2 10 11 34 39 5 39 12 14 19 33 0 31 26 31 12 12 24 27 35 33 29 18 32 3 25 19 14 32 12 26 14 16 20 38 11 32 17 24 21 37 37 10 38 4 8 29 2 36 13 39 23 24 19 36 29 34 29 26 8 16 6 1 9 31 11 9 14 31 33 22 30 3 14 38 1 24 11 27 12 30 5 33 21 4 21 37 1 33 10 28 29 14 35 32 13 19 38 23 25 33 19 25 2 18 38 8 33 32 28 36 5 22 22 22 23 8 3 18 36 4 8 9 36 5 11 17 12 2 31 17 2 8 10 38 33 17 23 37 2 7 23 30 17 1 35 30 27 14 23 39 27 33 1 25 17 36 36 38 2 10 20 1 35 4672 2649 4725 4158 3953 3901 3263 4159 4530 4549 4770 3024 4325 4377 3032 3918 3982 2576 2915 4254 3100 4710 3328 2549 4934 3269 4182 2697 4635 4284 4463 3952 4639 3263 3127 2829 3854 3291 2824 3253 3169 2632 4057 4739 4553 4699 3924 3419 4388 3959 4928 2909 4088 4157 3229 4488 3078 2951 2878 4226 4768 4027 3913 4967 3760 3042 2549 3679 4562 3383 4187 4622 3847 4522 3531 4864 2750 4134 2898 4734 3339 4208 3234 4186 4100 2831 2540 3023 4523 3668 3537 4650 4019 2924 2645 3832 2833 3372 3776 4137 4963 2837 4227 4800 3945 3994 4819 2867 3008 4277 2767 3259 3583 4278 3044 4863 3438 2982 4220 3260 4548 4872 2747 4376 2563 2878 4691 4948 2562 4124 2524 2655 2595 2745 4917 3034 4539 3820 2527 3872 2618 3492 2851 3816 2698 3853 3914 4089 3881 3848 4939 3913 4443 4783 3066 4128 5 3881 3641 3000 4469 2931 3911 3028 4579 2834 3281 3092 3982 4333 4929 4160 4439 4299 3801 4671 4397 3535 3965 4899 2629 3050 3390 3950 3187 2783 4117 4648 4945 4159 3576 3851 4705 3408 4260 4981 4872 3572 2748 4111 4683 2502 3343 4540 4230 2668 4454 4147 4559 2770 2736 3286 4976 4792 2913 4972 2826 4041 4723 2794 3687 3563 3027 3920 2702
36 6 5 13 33 28 17 21 14 20 15 11 33 30 27 6 11 19 9 5 3 28 17 23 14 5 31 14 24 37 23 29 8 28 1 34 28 25 18 38 34 20 36 36 13 2 27 29 26 11 39 33 8 31 31 20 21 27 22 6 39 34 22 2 36 31 6 15 3 25 11 1 37 0 11 22 26 30 27 9 17 38 7 21 34 3 8 22 26 26 39 32 36 18 18 31 28 5 29 8 31 38 33 3 13 3 28 30 12 35 37 29 24 13 1 37 19 30 6 3 33 17 3 2 2 5 38 2 24 29 17 17 9 28 33 9 2 25 30 11 19 30 6 17 39 38 35 25 4 10 8 8 15 38 17 25 23 25 34 21 11 12 33 26 14 1 12 16 23 20 28 11 15 24 11 10 35 19 23 10 13 18 24 3 34 20 34 27 21 2 16 24 1 18 39 22 36 24 29 11 31 24 4 32 34 32 36 16 22 14 16 18 12 26 19 15 13 9 29 20 29 11 7 8 22 3156 3601 4730 4387 2551 4947 3610 4787 2812 4298 3865 4815 2988 2500 3156 4037 3020 2900 4784 2609 2850 2594 2706 3916 2906 2997 3247 2530 2684 4228 4938 3967 4848 3499 2834 4193 2769 4064 4216 4625 9 4530 4285 3520 4150 4449 4225 2621 3976 4526 3966 3675 3043 2594 2851 3288 4497 4388 3188 4033 4798 2960 4313 4071 4807 3830 3112 4181 3761 3130 2993 3312 3306 3403 2852 4193 3825 2898 4392 2581 3339 3486 4676 3420 3764 3238 4774 4544 2704 3459 3068 3542 2772 4553 3663 2575 3591 3505 4040 3352 4146 7 4143 4729 4206 4835 4973 2783 3346 2807 4791 2915 3110 3282 3125 4532 4267 3104 4044 4624 3036 3324 3684 3939 4416 4322 4523 3892 3490 2854 3701 3467 4490 3922 4773 2878 4499 3603 4058 3864 2946 2508 4774 3647 4145 3967 3615 4565 4371 4538 4460 4719 3070 3821 4986 4863 3068 3377 4187 4195 4698 2972 4953 4104 4077 3602 2886 3269 4487 2840 4720 3570 3466 2672 4668 3733 2695 3625 4405 4277 4299 2697 2764 4116 2713 3170 3654 4133 2862 3057 4528 3305 3025 4117 3618 3558 3909 2823 3425 3447 2877 4108 3977 4937 3812 4998 3086 4407 4380 3197 4243 4159 2913 3904 4215 2661 3347 4622 4646 4992 4492 4253 4760 4437 4970
27 2 27 30 16 9 18 3 28 15 32 9 5 6 30 36 39 32 14 14 9 34 33 10 22 2 11 2 3 18 28 9 24 20 23 34 1 10 23 14 24 10 36 13 31 31 11 39 37 34 6 18 21 27 33 23 12 5 22 14 18 10 27 25 4 37 35 7 34 26 12 4 14 6 0 11 28 34 23 31 18 31 13 16 22 5 11 23 14 39 26 8 9 9 19 3 17 10 18 12 2 10 11 19 7 23 3 14 7 28 6 1 1 1 10 2 10 38 6 37 20 8 37 14 29 4 11 5 10 30 37 25 35 3 38 20 1 14 36 17 31 21 14 25 7 13 31 16 21 25 6 9 17 3 5 2 3 37 19 38 4 34 13 4 15 8 15 37 12 23 34 2 19 15 33 28 27 33 30 15 17 29 34 14 18 2 39 37 38 32 14 28 13 19 17 20 24 33 6 39 6 1 30 28 35 5 7 35 33 27 36 4 12 23 11 31 15 4 24 7 33 35 27 35 4 4288 3743 4146 3491 3601 4068 2565 3965 4811 2911 4791 3850 4598 4070 3040 4958 3687 4802 4541 3079 3239 3767 2866 3872 4901 2710 3293 4320 3004 2809 3039 3462 2983 4661 4999 2976 3402 2594 4445 2713 2958 4369 4763 3779 2895 4684 2746 4814 3265 3353 4258 3323 3883 3283 2894 3947 2720 3357 4412 3113 3268 4442 3826 3592 2564 2618 2641 3917 2517 3565 4983 3160 3660 3973 4721 4683 4119 3774 3127 4056 2710 4007 3896 4496 4457 3157 2529 4884 2576 2760 2958 3978 4405 3165 4070 3333 2878 4479 2553 2781 3577 2608 4644 3662 3093 3025 3234 2646 4850 2699 3347 3050 2771 4702 4141 4119 2692 4373 3730 4741 3881 4043 3703 2791 2547 3610 3000 4829 3144 2864 3278 3219 3911 4036 4740 3719 4389 4003 4491 3610 4940 4670 3173 4831 3621 4581 3421 4884 3574 3381 4738 3091 4889 3095 4196 3680 3071 4138 2796 3582 2963 3628 4952 3698 4307 2561 2835 4912 4756 2794 3932 4025 3184 4792 2738 4472 4248 4968 4303 3964 4844 3511 3965 4626 3335 2615 4394 3315 4955 3706 3580 4788 2949 4943 2941 3775 3023 2556 3233 3596 3244 4354 4251 4724 4009 3144 4512 4466 4164 4994 3886 4762 4162 2767 3761 3461 2979 2563 4398 3249 4354 3748 4872 4464 4752
6 32 8 12 20 25 22 39 6 5 34 15 38 9 22 6 39 29 3 1 11 31 24 15 25 19 26 31 30 1 21 38 14 28 6 38 36 22 12 1 22 20 33 12 4 33 35 29 2 13 10 32 17 14 27 12 39 29 10 34 37 29 11 10 32 26 26 25 7 1 18 31 6 34 30 0 33 14 38 31 30 23 6 3 38 34 18 4 7 7 3 16 29 18 35 33 29 4 17 4 12 23 28 10 32 7 12 20 29 3 22 9 12 30 17 11 23 6 2 23 14 20 14 1 31 3 25 15 26 38 1 25 31 17 20 10 31 27 11 6 24 2 29 37 12 28 7 2 36 25 29 3 39 18 4 34 38 3 1 6 12 38 34 7 21 12 4 29 18 22 8 21 18 31 1 10 15 38 31 34 13 17 31 18 25 17 5 2 17 31 9 39 19 9 6 10 35 11 36 34 18 33 25 12 3 5 19 20 2 23 7 15 37 14 31 17 18 29 16 27 4 16 27 10 10 3893 3285 2809 2920 3747 3460 3869 4077 2997 3861 4811 2628 2936 4349 4592 3619 4551 4373 3509 3885 4734 3306 4124 3071 4762 3315 3619 4384 2928 3554 3770 2510 3071 3902 3070 2942 4866 3096 3213 3227 4580 4542 3612 3596 4568 3897 3611 4593 4196 4106 3065 3783 2776 4283 4498 4199 3134 3141 2689 3168 3167 2589 4425 4291 4662 4909 3857 3771 3872 3253 3148 4188 4821 3876 4489 2970 3779 4689 3209 4289 4160 4585 2894 3333 2596 3402 3757 2906 3024 3214 4761 4637 4602 4984 2983 3006 4350 4456 3482 4345 4249 3673 2601 2687 3446 3347 3637 4691 2610 4580 3879 4764 3514 4369 2950 3639 4078 4761 2669 3338 4071 3491 2687 2637 4835 4067 2943 3338 2532 4421 3433 3778 4371 4257 3346 3712 4820 3651 3704 2976 3745 3091 4836 4476 4711 4648 3069 4707 2543 4978 4446 2543 4737 4115 4493 2675 4537 4707 4268 3019 4689 4843 4904 4079 2716 3249 3607 4954 3480 4927 4087 3765 4005 4728 4312 4630 4985 3747 4726 3832 4157 4629 2872 3971 4080 3110 4331 4921 4566 3776 2578 3244 4929 4596 3808 3612 2968 3053 4405 4866 4320 4132 4787 4276 3442 2677 4782 3911 3701 2922 4123 3754 4786 3869 4627 4204 3906 2608 4295 3421 4155 3320 2700 4783 3484
6 15 22 33 21 4 17 16 17 9 19 32 39 22 17 26 3 6 23 36 25 17 16 14 23 6 29 28 37 19 5 26 19 1 24 23 12 14 11 36 7 15 37 10 11 36 26 15 36 9 2 19 38 32 7 9 29 4 2 25 21 18 39 22 17 31 25 17 39 27 8 4 12 20 33 38 0 13 26 35 17 13 37 2 11 35 25 9 25 36 33 15 30 6 4 36 3 38 27 22 37 17 33 24 3 18 31 12 22 14 33 7 32 30 32 38 14 3 29 9 4 24 22 36 10 9 19 10 37 28 12 7 24 19 39 20 6 10 25 30 15 11 35 29 24 38 25 32 11 36 23 23 4 3 20 21 5 31 13 26 13 11 7 17 38 14 19 4 13 16 17 12 28 11 32 30 7 16 27 19 26 19 8 34 12 9 38 33 13 8 5 33 24 30 4 21 25 38 32 5 8 14 13 35 37 7 3 19 5 28 26 28 28 36 27 25 15 32 5 30 21 32 34 26 38 3215 3544 3792 4421 3017 4647 4227 2764 3408 3547 2695 4120 4133 2842 3184 3706 4411 2723 3176 4491 2637 3540 3324 2658 3229 3676 4104 4603 3257 3341 3760 4072 4908 4748 3291 3358 4086 3482 4966 3505 4429 2579 3159 4743 4822 3298 4872 4617 17 3673 4191 3976 4960 4180 4891 3725 2611 2629 3880 4231 4967 4056 3554 4708 3208 3397 4754 4220 4566 4819 3272 3513 4305 4779 4284 2660 4832 4582 3423 3153 3996 3186 4224 4344 4447 2936 3972 3649 3297 4801 4291 2750 2959 4000 3965 2794 4863 2803 4661 4305 3702 4699 4581 4951 3787 3933 3709 3740 3842 4064 2868 4288 3261 4899 2504 2655 2959 3490 4169 4392 3789 4878 3534 2949 4709 2637 3401 3586 3317 4848 4976 2804 2955 3028 3173 4495 3847 4136 2937 4152 4684 3859 2843 2891 3613 2846 4476 4452 2646 3428 3796 2786 4226 4632 3761 4197 3822 4041 2674 4912 3301 4910 3905 2818 3619 3915 4822 4678 4307 2792 4401 4846 3097 2618 4483 4657 2666 4139 2809 4178 3094 3961 3675 4722 4850 4572 12 4522 4434 3495 4424 3117 2523 2723 4670 3185 4190 4147 3941 3246 4195 3788 2696 4693 3185 2665 3790 4106 3608 4772 3481 2752 4208 3034 4633 3005 3101 3108 4615 3918 3596 3878 3181 3030 3723
27 17 32 28 6 17 27 1 1 31 20 14 9 22 25 34 11 4 10 24 22 24 6 26 34 39 9 16 32 20 10 24 8 30 29 16 18 1 39 7 10 27 24 22 39 2 21 9 17 22 20 2 39 6 3 13 28 26 11 1 13 32 28 38 33 10 8 12 37 15 39 2 30 9 32 34 33 0 5 13 14 35 6 8 14 2 10 17 34 30 31 14 14 33 31 11 36 31 18 31 39 19 32 16 7 33 6 39 30 37 8 38 16 15 9 10 8 39 32 14 37 26 12 26 5 19 17 18 31 16 4 5 22 26 24 24 20 20 13 19 8 21 16 36 9 38 18 33 19 34 17 22 13 25 14 38 2 27 31 37 29 26 33 25 8 26 17 1 26 1 13 35 22 10 10 29 12 1 22 9 34 7 22 22 33 18 33 12 7 29 15 26 39 12 23 14 23 23 8 16 15 29 10 18 4 32 9 34 10 37 16 34 24 3 10 4 37 38 28 6 27 34 9 35 31 4625 4275 4243 3962 3216 4715 4257 4578 3719 3918 4841 4707 2934 3270 2779 2786 3063 2976 2837 2820 4660 4907 4429 2581 3008 2885 4477 2846 4169 3064 4493 2668 4413 2964 2936 2624 4778 4839 3693 4731 4420 4247 2514 4701 4416 4101 3365 3150 2852 3969 4824 2792 2557 4111 2586 3609 4438 4535 3917 4906 4927 4483 4214 3726 4430 4385 4679 4608 4387 3551 3532 4003 4347 3332 4289 3009 3729 2877 3860 3510 4700 2703 2699 4304 2693 4363 2674 2624 3770 4923 2923 4918 2759 4403 2779 3977 4164 4704 4726 3978 2673 2533 2946 3205 4566 3040 4620 4837 4976 3395 2617 3801 4812 4989 2581 2932 3078 2671 4520 4344 2531 3235 3502 4460 4623 3420 3143 4219 4530 3376 4476 3204 4513 3557 4497 4891 4458 2878 3447 3295 3454 3770 3974 3501 3758 3096 4118 4357 4560 4096 4421 3319 3877 3419 3580 3075 4396 4279 2823 3548 4389 2796 3324 2625 4802 3562 4099 3326 4302 3245 3969 3500 2853 4989 4313 3603 3302 3324 3373 4996 4055 4866 4758 4301 4506 4491 3772 3881 3653 4479 4543 2662 4494 3089 3972 4925 3552 4975 2678 2532 2553 2680 3084 2975 3663 3815 4984 2795 3376 4504 3695 4293 4771 3046 3052 2909 3019 4317 4944 3448 4076 3340 3995 4452 2833
38 26 24 21 17 3 31 9 29 8 5 9 19 17 21 21 30 12 38 12 32 12 4 33 28 1 35 11 23 36 14 12 35 25 25 27 11 39 28 34 18 7 7 4 7 20 11 35 7 28 26 36 6 6 28 30 3 33 18 37 33 37 9 25 2 33 7 17 24 18 25 20 2 6 37 16 16 30 0 19 37 6 28 28 28 26 6 33 25 26 11 27 20 36 5 22 15 16 38 17 22 5 7 6 35 20 29 9 5 20 13 8 30 22 35 19 35 35 13 21 29 20 7 14 10 28 10 32 32 5 36 31 25 2 2 14 22 8 17 6 34 6 26 3 23 17 5 24 34 12 3 31 23 23 5 20 17 30 10 26 25 18 27 5 7 8 6 37 15 39 30 36 11 3 26 33 38 35 9 17 7 35 5 39 39 19 31 4 34 17 19 14 4 30 16 1 37 18 5 33 15 4 11 3 9 19 22 13 39 4 34 8 30 22 8 5 19 25 18 16 32 2 38 28 3 3587 4959 2587 3759 3310 4227 4432 2541 4624 4126 3622 3309 3604 3690 4755 3347 2874 3746 4087 3018 3749 3664 3068 3940 3157 3613 3884 2888 4114 4742 3877 2519 4398 4833 4291 2720 3226 3749 3588 2975 4238 3061 4542 4534 4754 3178 3687 3227 3894 4846 3808 4330 3515 4442 4390 4268 3709 3622 4051 4589 4008 2709 4688 4500 2871 3050 3740 2907 4984 4683 4137 2569 3297 4443 2658 3029 4056 2837 4473 2958 4863 4829 4497 4489 3538 3123 3935 3467 2601 4379 2588 2920 4980 3325 3676 3641 4111 4762 3572 3634 4075 3712 2746 4123 3746 3930 3406 3160 3686 2627 2908 3459 3286 3093 3813 3570 2830 2982 4706 4437 4794 4516 3317 2605 4369 4804 2838 3193 3836 4654 4759 3064 4515 3271 3889 4164 3629 4193 2635 4660 4696 3261 3913 4709 3811 4084 3865 3334 3482 3829 4678 4447 3308 4661 3779 4174 2931 4607 4325 4769 2631 4597 4746 3988 4955 4343 4660 3376 2533 3576 3984 2673 3065 3892 4506 4174 3783 3892 4712 4047 3296 4182 4338 3084 4106 4325 4220 3647 3178 4582 3125 4525 3509 3688 2578 4992 4845 3617 3714 4354 2645 4210 4438 2773 3005 4579 4318 3930 4527 3528 4104 4043 3165 4789 3458 4956 3295 3988 2895 4377 2762 2818 4020 2844 4479
16 26 36 24 13 26 14 25 15 30 12 24 14 2 5 18 22 24 35 22 32 9 5 35 12 3 15 3 17 35 31 37 12 33 11 16 21 30 3 19 29 27 18 10 27 16 23 39 13 38 14 13 26 21 23 10 25 28 14 12 34 27 3 24 29 19 32 23 28 34 39 18 27 29 36 22 36 10 31 0 6 19 36 19 30 36 22 31 13 21 10 5 6 32 33 28 34 24 6 27 13 1 2 10 32 22 23 16 28 6 29 32 23 22 2 25 13 2 2 12 26 33 21 4 30 28 24 29 16 22 28 35 36 2 12 9 30 17 11 25 28 25 18 11 36 9 36 3 11 21 14 36 11 38 29 34 11 32 2 14 13 20 28 13 30 2 36 39 7 39 8 10 27 10 36 2 8 2 3 38 39 34 21 15 26 27 37 11 8 20 27 6 29 32 32 28 10 39 29 36 27 29 15 34 27 30 12 22 38 2 5 37 37 27 35 9 24 15 34 6 11 21 7 31 10 4570 4000 3631 3293 2979 4173 4813 3025 4666 3932 2637 3471 3782 3552 3762 4776 2683 4072 3269 4670 4274 4779 3193 3778 3698 4148 4797 3758 3725 2699 4159 4421 4194 3846 2775 4743 2758 4786 2894 3414 3076 2663 3809 3533 4975 2561 4929 3052 4199 3625 3752 3743 2759 2789 2643 4679 2542 4832 2967 4596 3688 2919 3308 3230 4666 2803 4875 2548 2529 4291 3046 4506 2816 4334 4477 4655 2647 3217 3596 3402 3153 2686 12 4468 4561 2851 4278 4041 2614 4263 4189 4502 4073 2674 4445 4475 4867 3813 3159 4772 4767 3561 4509 4517 3045 3417 3398 3250 3364 4841 4275 2855 3819 2622 4184 4459 3541 2587 4453 4837 2691 2970 2967 3480 4279 4462 2894 3578 2997 4107 3143 3270 2804 4367 3418 4279 3084 3249 2553 4244 3353 3651 2739 2765 4817 4966 2899 3562 3650 3156 4604 3088 4108 2879 2698 4321 2635 3509 2543 3950 4897 4548 4410 2857 3507 4830 4080 4445 4098 3839 3613 3146 3138 4029 2977 3758 4648 3565 3259 3088 3053 3264 3329 2997 4659 3106 4674 2874 3148 3470 4795 3800 3632 3609 2669 3473 4732 3093 4186 2508 3415 2512 2668 2685 3568 2949 3270 4923 3666 3081 2792 4464 2878 3332 4619 4345 4279 4853 3388 3848 4022 3106 2643 3438 4441
16 5 6 33 27 21 19 9 30 11 2 32 24 9 21 10 17 26 5 7 24 8 18 2 8 26 2 37 24 39 27 21 10 16 1 2 14 1 39 6 18 14 24 38 5 30 34 28 16 23 38 6 17 23 5 32 4 20 11 25 2 13 31 8 33 33 9 24 3 35 19 8 20 13 16 27 21 33 13 20 0 19 1 21 2 29 9 16 17 29 30 24 23 23 30 35 9 25 5 15 24 20 33 1 31 15 2 13 1 33 34 12 29 16 2 25 5 17 30 19 19 34 18 11 27 33 20 2 37 33 10 31 28 33 23 17 37 20 19 18 13 12 32 15 32 25 5 23 1 19 34 9 36 12 21 8 19 7 10 9 24 21 23 10 27 26 14 20 26 16 26 10 11 36 3 29 30 10 31 34 7 2 32 35 15 2 38 24 20 38 39 9 29 6 35 16 18 26 14 9 34 10 13 11 14 25 30 28 26 27 33 11 24 6 9 12 2 9 35 36 32 27 6 10 10 3831 2891 3139 3619 4928 2610 4473 2511 3992 4512 4499 2691 2810 4770 2987 2564 3555 2811 4808 4876 3727 2637 3052 3477 3420 3432 2831 2720 3823 3694 2989 4135 3600 3416 2926 3006 2995 2564 3491 3261 3031 2917 2997 3759 4449 3540 4987 4555 3269 2760 3215 4201 3473 3243 2544 3381 4160 3306 2944 4239 4245 4118 3119 4419 4846 4251 4089 3247 3588 4067 3065 3900 4932 4092 3080 4359 2935 4631 4479 3934 4683 3349 3817 4847 3907 3410 4006 2660 3927 3222 4317 3322 3517 3297 2756 4730 4572 4360 4811 3292 3626 3770 3680 3041 4151 3954 3437 3306 4608 2886 4273 3946 3016 3930 4486 4593 3192 4411 4691 4798 4681 3141 3910 4147 4723 4585 4307 3172 3139 3141 2957 3371 3037 3744 4214 3019 4093 4457 4613 4284 3250 2872 3755 4472 4889 5 4511 2659 4275 3885 4997 3148 2628 3737 3031 3455 3660 3003 4635 4322 3010 3152 4805 3347 4333 4028 2912 2735 2912 3150 2757 9 4489 3381 3036 4991 2834 2783 3531 4130 3496 3461 3247 4331 3159 4275 4860 4036 3288 3405 3754 3002 3096 3034 4043 3744 3180 3486 3423 2628 2501 4557 3934 3407 3353 4137 3647 3339 2507 4064 3511 3147 3152 2906 3963 2855 2877 3482 2977 4964 3527 3277 4392 3031 3030
36 9 15 6 17 22 3 27 34 9 7 3 37 25 4 25 5 38 16 37 7 25 32 26 37 39 33 35 1 3 30 10 23 4 11 14 34 10 17 32 5 33 37 14 8 33 4 15 17 2 34 28 21 31 9 25 25 6 30 15 20 38 11 26 32 28 30 28 37 17 14 22 30 22 27 28 5 13 30 15 15 0 21 2 11 20 38 11 25 28 8 28 26 20 31 3 7 17 29 5 17 39 27 35 2 10 12 38 14 10 39 28 2 4 25 17 28 1 21 7 14 28 39 17 22 38 4 8 6 30 24 17 23 35 36 12 36 26 39 15 19 14 19 3 24 4 18 3 1 39 2 14 32 30 35 29 35 1 3 23 38 29 34 38 32 25 17 24 17 18 20 10 27 5 4 15 31 17 23 23 5 9 38 35 20 29 38 38 16 4 4 24 27 1 23 13 10 23 20 14 4 23 21 22 37 34 31 39 8 21 36 9 10 36 31 27 30 25 9 15 1 17 7 35 2 4363 3417 3342 2918 2780 4289 3892 4848 3690 4762 4013 4800 3901 4347 2659 3923 4414 4594 3051 3020 2802 2814 4700 4968 4109 3229 4700 3764 4158 4129 4965 4241 3671 4176 3975 3689 3146 2508 4540 2802 4338 3827 3032 3367 2602 4678 2854 4753 4603 4219 3084 4913 4720 3540 4493 3537 3287 4573 2638 2775 2571 4769 3233 2837 2871 3773 2571 3299 2864 4725 3548 3511 3872 3566 2762 3638 3230 3604 4859 2605 4395 3822 2601 2945 4358 4459 3978 4085 3516 3386 3882 3194 3200 3765 4775 2612 3476 3039 3723 4131 4360 4466 4633 4040 4875 3959 4553 2690 2502 3733 2948 4504 4067 3055 3611 3686 4325 3078 2503 4576 4892 3341 4706 2805 3275 2731 3281 3517 3397 3279 3297 4782 3050 3040 2502 3102 4143 3564 4513 4037 4237 4732 3774 4107 2925 4432 2541 3891 2515 3072 4127 4172 3774 3511 4662 2920 2706 4433 2940 4231 4259 4809 3714 4058 4984 2654 3829 4454 3259 2596 4198 2858 4181 4217 2968 3312 2501 3833 4291 3285 2880 3537 2620 3198 2932 4319 3734 4959 3651 2849 3594 2744 3266 2595 4309 3872 4433 4842 2651 4095 4482 4519 2717 4811 4116 2560 3218 3635 3096 3614 4169 3230 4106 3475 2915 4283 3658 4375 3843 3946 4627 3251 3740 2831 3951
8 24 26 33 30 39 27 34 32 22 4 29 21 18 1 13 24 6 19 9 37 25 31 6 31 21 19 39 37 8 26 31 10 21 36 25 21 5 19 6 13 13 21 5 1 11 21 6 13 6 39 36 4 31 25 25 17 3 28 27 23 35 24 33 15 4 26 38 1 3 5 25 15 10 20 10 4 8 23 9 11 33 0 8 16 27 27 9 30 37 25 7 38 26 12 39 33 10 29 6 11 10 15 29 28 37 12 4 37 32 6 21 10 6 14 36 33 22 3 37 25 30 14 9 21 25 4 31 30 22 31 32 1 27 28 24 11 19 8 25 17 17 20 13 16 11 33 36 10 24 29 13 28 37 17 17 29 31 11 18 26 18 11 4 20 35 37 22 31 33 4 27 4 20 9 18 15 7 8 19 28 5 6 20 29 1 9 38 4 34 8 15 1 6 3 17 12 26 7 22 26 20 8 6 15 30 21 31 33 36 9 18 13 31 14 1 1 25 22 20 35 10 6 4 18 3509 4473 3566 3558 3150 4560 3848 4328 4833 3510 2793 4767 4164 3534 3483 4349 3601 4618 4091 4236 4928 3419 3419 2619 4724 4442 2720 3828 3911 2569 3059 2632 4581 2894 4611 4973 2872 4862 4434 4213 2670 4998 4155 3514 3080 2718 2582 4648 4669 4835 3268 3821 4787 4320 3759 3682 2851 4807 3966 2598 3689 2738 2653 2641 3596 4985 3767 3625 2535 4208 2856 4493 2783 4562 4974 2675 3891 4568 4224 4903 4420 4043 2802 2827 3597 3471 4463 3900 4382 2779 4128 4585 4311 3995 4664 3088 3776 3548 2628 3140 4360 3913 4977 4609 4025 3537 4791 4522 3193 4063 3273 2895 3942 4395 4208 3415 3307 4074 3142 4378 3546 3927 4136 4548 3290 2694 2954 4209 4195 2854 3740 2667 4410 3080 4956 3380 4100 4873 4522 4838 3578 4278 3666 4797 4829 4506 2969 3186 3844 2913 2736 3585 4617 3236 4268 4655 3671 3414 4644 4383 4933 4155 3133 3987 2633 2805 3899 3568 2603 3421 2871 2795 3999 4248 3078 2736 4495 3004 4571 3508 2512 2630 2778 3106 2803 2742 4798 2715 3762 4335 2575 3939 3900 2884 2798 4617 3203 4063 4233 3489 3329 3588 3004 4649 3000 3235 3846 3799 4294 4912 4824 2524 3968 4842 3594 3930 2823 3819 3010 3198 4396 4233 3636 4506 2526
17 19 7 6 34 28 9 1 24 23 6 7 11 15 2 8 31 22 27 38 29 17 22 21 35 13 12 13 5 37 1 3 17 25 1 36 13 20 37 6 1 28 29 5 2 33 17 28 13 9 13 31 38 18 36 12 24 25 17 29 27 34 31 35 19 11 10 14 19 17 8 11 25 24 36 13 39 15 10 33 39 31 27 0 12 37 14 30 18 13 16 28 4 15 33 35 9 39 22 16 17 8 36 12 39 13 27 24 20 37 35 4 29 29 18 21 17 8 30 22 21 39 23 4 20 31 33 35 5 8 25 33 35 13 28 26 2 22 4 17 33 2 3 30 22 33 2 24 3 26 12 2 16 20 10 37 6 29 30 2 28 13 29 21 22 33 9 12 7 4 14 28 18 11 36 18 18 11 29 36 7 17 37 30 39 13 19 25 14 19 10 31 5 34 3 15 39 13 10 13 26 39 5 3 36 34 12 18 27 36 20 29 31 9 10 28 31 9 31 31 27 6 24 9 2 3552 3211 4366 2745 3915 4723 4110 4908 4255 2939 4581 4997 3669 3614 2865 4880 3533 2734 4337 4959 3466 4167 4576 3096 4442 2574 3774 3744 3614 3360 3589 3651 4203 4850 4282 4725 2923 3654 2860 2705 3037 3364 4964 2537 4711 3457 4234 3512 3737 4869 2501 3090 2932 3875 4328 4838 3870 4321 3259 2795 4336 4792 4831 4793 3458 3417 2801 3636 4648 4776 3760 4828 2800 4373 4518 4861 2566 4844 2556 4961 2982 3900 4372 3480 4985 4605 2986 2534 2745 3673 3811 2959 3939 3629 2876 3551 3549 4793 3739 4829 2968 2756 3498 3970 4506 4739 2698 4476 2988 4456 3171 3871 3504 2679 4519 3046 3292 3556 2866 4257 2613 3889 3704 2967 2681 3155 3371 3538 3020 3428 4897 2563 4935 3798 3687 3171 3673 4464 2974 3787 2770 3574 4757 3894 3244 3463 3407 3467 4525 4447 3712 3088 3573 3223 4167 4118 4606 3364 4865 3801 3835 2642 3944 3106 4001 2723 4290 3148 4093 4705 3553 3498 2883 4821 4653 3454 3588 2542 3958 3459 3091 3260 3736 3216 4116 2793 3975 3464 3013 4349 4745 2589 4500 4555 3473 4547 3405 3142 3999 4253 2893 2750 3813 3143 4009 2622 4065 3482 4057 4231 4982 3459 3695 3764 3901 3826 4557 4142 4814 3994 4315 3768 2699 2582 2807
20 36 19 35 33 26 13 9 3 1 8 4 8 14 8 6 5 24 23 15 1 20 24 17 27 1 22 35 15 22 1 8 17 9 14 23 14 17 35 7 38 9 10 30 9 23 23 32 11 39 32 38 2 6 36 6 33 19 36 32 33 17 21 4 6 22 4 1 36 4 8 13 10 27 29 33 10 23 5 32 36 13 12 3 0 10 2 31 15 37 27 18 32 13 36 29 16 18 16 2 7 15 30 21 16 39 10 17 11 11 30 20 28 34 14 34 7 28 13 1 32 29 30 39 1 24 9 35 29 4 12 27 18 23 7 27 6 19 10 24 27 16 18 9 20 22 28 17 19 4 22 14 24 22 27 12 38 25 39 16 5 23 21 5 15 26 17 20 30 39 32 37 39 28 17 29 17 35 10 14 1 18 34 29 22 13 10 39 21 20 38 28 16 33 30 21 36 37 18 18 26 39 32 2 19 23 13 6 34 18 17 21 15 26 30 26 37 37 5 22 28 7 16 32 23 4595 4388 3653 2634 2734 3630 2847 4288 2704 2556 3833 3497 2701 4279 2576 4132 4896 3326 4780 4211 3134 3724 4034 3234 3279 4368 3180 2703 2922 3671 4932 2753 4919 3757 3999 4279 4201 4200 3448 3297 4175 3126 3203 3572 3780 4441 3090 2636 4155 4515 4333 2776 4027 2711 18 2586 2684 3372 4017 4279 2568 2891 4302 4515 3402 4072 4896 3313 3116 2999 4419 3056 2564 3301 4418 3663 3007 4947 4821 3798 3401 3689 4250 4019 3326 3866 3821 4038 4565 2631 2758 4685 3631 2587 4319 3732 2585 3690 2827 4259 4808 2812 3120 4725 4654 4499 3680 4171 2664 3536 3127 3123 3580 4214 3731 4046 2736 3466 3866 4898 3592 4555 4038 4660 4022 3113 4152 4675 2670 3212 3301 3066 3668 4112 3579 2907 2566 3284 2825 2895 3073 2860 2632 4577 3101 4425 4184 4480 2855 2528 4176 3379 4249 3357 4420 4668 2531 2601 4760 3237 2748 3456 4717 2713 3742 4245 3500 3926 3558 3359 3531 4817 3861 3506 4250 4404 4689 3747 3960 3069 2595 3586 4791 3457 2829 2705 3063 4734 4967 3690 3746 4417 4328 3736 2858 2679 2645 4695 4926 4047 3737 4484 4460 4839 2690 4313 4915 3937 2736 4780 3386 4972 3237 4575 4351 4582 4500 3183 3807 4540 3083 4060 2714 3142 3156
19 1 34 17 3 27 5 16 11 10 34 12 30 37 32 23 33 37 2 23 15 10 16 1 35 21 39 4 15 23 20 21 32 9 17 37 11 39 24 17 16 39 6 5 6 26 18 1 17 20 15 32 1 31 23 35 38 2 15 34 1 15 36 6 27 31 17 6 34 29 29 33 6 16 34 11 37 3 30 15 4 12 38 34 29 0 6 9 35 20 11 19 7 38 21 3 20 19 34 14 3 13 13 12 8 30 28 25 19 23 21 20 38 22 12 21 34 35 29 8 20 25 33 24 12 18 33 32 16 10 15 30 18 38 21 33 23 21 1 6 5 20 33 1 29 36 32 36 8 15 1 23 33 30 2 13 19 8 39 13 13 5 2 12 28 16 16 10 16 7 30 31 24 4 7 26 7 1 22 36 33 16 23 26 3 19 20 18 15 13 22 38 25 38 22 22 4 34 9 4 28 8 9 27 35 14 10 21 11 29 25 39 7 4 25 6 4 16 21 39 32 7 28 30 8 2792 4413 3555 3966 3080 4510 4477 4654 3864 2572 3146 4283 3525 2742 4631 2743 4142 4393 4763 2903 4017 4229 4620 3395 4574 3062 4688 4084 2521 2825 3614 4660 4711 4940 2705 3611 4995 3356 4068 4980 2888 3990 4166 4272 2690 4367 3378 3183 4237 4770 4820 2773 3881 4062 2544 4784 3897 3895 3114 3070 2870 4483 4161 4040 3842 3911 3677 4711 3295 2661 4760 3120 3230 3497 3968 4914 2533 3326 4457 3601 3889 3363 4615 3431 3483 3212 2567 4755 3223 4284 3058 3292 4197 4890 2902 4726 4700 4508 3670 4542 4612 3796 3969 2679 4878 3099 4089 3900 2939 4114 4002 4394 3322 4391 3421 4340 3885 3160 3043 2923 4955 4399 4792 4337 2754 3798 2721 3430 4059 3192 3080 4320 4627 4844 4585 2502 4127 4279 4195 3976 2600 2804 2997 2883 3842 4830 3331 4213 4731 4041 4378 2938 3888 2844 3861 3740 2548 4545 4034 3638 3014 4606 4584 4481 4609 3588 2832 4764 2620 3029 3285 4208 3317 4298 4580 4843 3696 4528 4308 2963 3109 3417 3495 4175 3250 4298 2681 4100 2650 3297 3251 3391 3532 4873 4810 4260 2699 4695 2501 3746 4361 4901 2802 4518 2759 2930 4565 2642 3127 3252 4244 3925 3592 3119 3895 4784 2764 2687 2543 3613 4778 3491 3947 2778 2653
7 16 5 4 28 3 9 20 36 37 27 22 12 2 18 34 24 22 25 2 12 19 35 4 28 2 32 24 16 13 37 17 11 37 19 16 32 20 33 12 24 8 38 1 10 39 25 11 26 27 22 31 3 3 16 16 8 25 3 30 9 21 28 4 2 11 23 11 27 34 23 14 14 20 22 28 18 3 23 24 2 22 22 28 30 35 0 13 19 30 25 23 24 7 26 27 23 20 29 3 14 20 23 31 8 37 31 16 19 11 17 31 31 31 29 28 16 8 20 2 13 29 35 11 27 27 3 23 8 39 12 9 9 22 20 8 15 15 1 20 29 19 4 31 27 30 28 35 18 16 30 26 32 12 31 26 13 38 35 29 37 14 17 5 27 37 29 8 29 6 39 14 11 39 32 34 21 20 29 20 6 28 29 24 35 28 27 33 14 32 19 25 27 13 6 34 11 5 12 31 28 31 37 1 28 21 22 2 36 31 4 33 14 7 16 21 9 15 27 7 6 26 7 10 1 3038 3970 4682 3842 3945 4906 4972 3865 4911 4865 4983 4684 2774 3851 2646 4748 4220 2912 4515 4799 4276 3338 3216 3554 3509 2592 4197 4755 4658 3971 3042 3929 4510 4809 4716 3182 2683 3330 3620 4287 3946 4155 3313 4280 4298 3682 4930 4141 4185 4119 4735 3408 3080 3111 3984 3760 3260 3403 3134 3536 2689 4600 4347 3573 4731 2524 2769 4861 4910 4651 3896 4241 3718 4035 4904 3504 4042 2607 2728 2520 3737 3150 4893 3223 3488 4121 4443 4434 2545 2823 4013 4596 2501 4676 4871 3062 4396 2509 4648 4379 2810 2920 4931 2779 3477 2594 4519 3827 2762 3524 3917 3414 2837 3296 4223 3124 3443 3674 3164 3547 4110 3390 4758 4852 4968 4115 3608 4085 4235 4997 4400 4276 4661 3224 3277 3574 3506 2542 4814 3973 3909 2803 4680 2889 3847 3811 3223 3038 3347 3459 4385 2730 3770 4140 3779 4712 3779 4221 4925 4518 3819 3525 4483 3613 7 2718 4312 3588 3920 3219 2958 2844 4338 3469 3061 3448 3320 2876 2823 2540 4767 2517 3401 3542 4059 3258 4000 4749 2846 4514 4775 3504 3306 4711 2620 2559 4095 2716 3644 4127 3109 3999 3435 3728 4752 3788 3563 2839 4321 2777 4156 3800 2514 4933 3041 4144 2759 4735 3282 3370 4917 3389 3260 4594 4059
14 33 35 6 5 2 25 12 21 35 24 1 34 15 15 37 26 13 9 21 16 8 1 36 31 11 8 15 33 25 14 35 30 1 32 22 20 22 16 21 26 13 38 19 31 15 18 21 4 10 3 33 37 5 23 24 28 29 9 4 4 17 15 20 7 5 6 1 8 19 14 25 13 35 2 1 39 32 28 1 5 39 26 23 39 34 2 0 33 1 4 16 9 31 16 29 11 21 30 38 24 37 23 20 1 20 3 13 25 14 4 17 17 33 4 4 35 12 6 37 20 19 30 9 27 28 22 11 36 10 18 29 19 2 20 15 6 17 11 17 33 37 18 32 21 26 23 35 29 16 30 17 38 33 30 34 2 33 39 25 34 15 1 13 39 28 26 2 28 21 37 37 26 37 26 2 11 32 23 2 10 27 5 17 19 33 33 15 23 15 28 15 13 24 21 9 6 34 7 1 30 13 31 1 26 5 23 4 28 16 26 33 36 7 13 16 31 17 28 4 6 36 18 38 11 4511 4558 3222 4710 3232 3425 3525 4236 4280 2677 2709 4468 2914 4922 3744 4305 3915 2957 3402 3056 3714 3817 4347 3362 4351 3759 2787 3122 3769 3540 2838 4351 4406 3998 3104 2986 3302 3103 4084 4543 2663 3696 2943 4134 4616 4015 4990 3608 3363 2701 3714 2751 3704 2995 4770 4880 4669 4863 3983 3712 4709 3601 2652 4917 4737 4871 4487 4373 3838 3820 3441 4282 3318 3789 4178 3259 3155 3422 3714 3093 4683 2504 2772 4191 3941 4454 2901 3687 2831 3092 3680 4193 2666 3900 3822 4089 4390 4891 3832 2677 4621 2886 2942 3954 4485 3574 3139 4496 4546 4423 4957 2772 3347 3342 3798 3845 4367 2621 4414 4453 2884 3355 3399 4827 3197 3610 2969 3692 3385 3292 2514 4561 4786 3211 3178 2941 2556 2565 4282 3386 2750 2665 3977 2543 4187 4378 3598 4842 4757 4724 4497 3347 2510 2879 3267 4242 3646 2756 4549 3393 4820 3153 3689 4050 3108 3635 4287 3849 3022 4811 3434 2728 2522 4602 4373 4106 3557 3398 4378 3763 3864 4727 4450 2679 2804 4451 3092 2549 2643 3256 3058 4960 4969 3842 3353 4833 2507 4709 2648 3310 2826 4210 3018 2846 3720 4957 3085 3908 2778 2592 4774 3870 2501 3798 3089 3199 4530 3749 2637 3597 4607 3828 3772 4719 3988
8 25 8 35 2 33 38 29 35 38 3 19 19 10 13 20 15 34 17 18 34 24 32 21 31 32 9 30 37 20 35 22 26 32 32 33 31 31 11 18 36 14 6 25 7 5 3 26 30 9 22 9 1 15 18 21 37 29 27 30 14 15 34 17 24 12 34 15 13 28 29 10 36 6 1 27 26 38 26 13 22 11 13 13 34 8 3 6 0 11 14 34 12 18 35 20 15 37 23 4 34 30 25 16 6 9 34 3 7 27 29 36 10 35 31 23 1 35 19 21 8 4 28 16 9 12 2 10 5 23 27 39 9 10 29 34 30 8 26 6 7 17 9 37 16 25 19 19 10 25 28 18 8 28 2 26 29 23 38 12 4 8 12 6 28 35 32 15 11 39 24 17 38 4 7 12 26 16 30 9 36 21 23 15 5 20 12 26 17 25 23 35 6 36 28 31 3 11 1 11 39 29 28 29 20 18 9 13 31 39 31 28 31 29 35 16 9 37 18 18 29 12 3 29 10 4013 3097 3908 4107 3083 2506 2964 3206 4935 2800 3034 2611 4759 3719 4507 2998 4678 4717 3444 4730 4441 3308 4626 4383 3836 3294 2510 3034 4185 2797 3709 2671 2644 2852 4296 3344 3003 2547 3580 4291 4646 3565 4478 4374 3922 3989 2761 2623 4549 4897 3301 2554 3706 4449 3033 2520 3660 3888 4167 4846 4293 2589 4981 4781 2932 4518 4105 2887 2692 4352 3028 3163 3662 4192 3502 3239 3502 2916 3102 4871 2967 4601 4816 3433 4955 3670 3970 3502 3776 3248 3964 4822 4522 3771 4682 4426 4686 2829 3859 3727 4489 3135 3210 2731 3638 2541 3092 3044 4813 4046 4839 4862 2647 4081 4720 4342 3447 3280 3874 3572 3381 3839 3083 4669 4670 3415 3000 2786 3549 4364 4021 4151 3304 3349 4569 4281 3485 3138 3095 3133 3671 3809 3301 3704 3560 4829 4640 2650 4826 4297 2742 3667 3235 4933 2528 4620 3639 3225 2856 4452 2846 4799 3312 2990 2501 4435 3316 3813 4039 3132 2750 3254 2627 2686 3073 4417 3436 3991 4866 3740 4437 2901 3048 3735 3780 3593 4003 2746 4116 2549 2835 4600 3388 4296 2652 3077 3898 3212 4638 3540 4856 3874 3431 3125 4915 3844 4186 3991 3232 2616 4252 4236 2577 4152 3988 2872 2706 3778 3092 3193 4547 3187 4594 4316 3484
17 32 3 31 4 39 34 6 14 13 29 1 5 19 33 38 28 3 33 13 11 22 8 34 17 38 28 39 10 34 14 3 18 33 16 9 38 36 36 2 9 9 30 14 3 3 17 23 23 4 25 5 7 24 33 33 38 30 13 3 38 37 29 34 3 17 38 32 4 18 10 25 28 12 19 17 38 22 3 10 16 28 1 27 13 14 14 2 1 0 20 16 30 5 12 1 26 24 38 17 36 2 35 36 25 17 13 7 18 27 22 16 27 25 31 23 32 16 14 4 8 34 28 5 30 15 6 38 20 23 37 28 36 15 22 31 6 16 20 36 34 5 7 35 39 32 29 6 22 15 32 36 28 22 22 28 16 36 6 18 16 33 19 27 23 9 2 36 23 7 32 14 26 32 36 19 17 39 25 19 5 39 5 22 35 27 21 1 2 25 38 20 23 27 19 35 12 17 2 27 8 39 24 13 33 20 2 26 13 8 39 10 7 6 27 30 17 19 31 26 29 9 13 4 29 2785 4562 3615 2709 2972 3372 3463 2559 2834 2929 3599 2762 3877 3810 4972 4767 2625 2678 3115 3910 4616 4519 2579 4794 4052 3723 2667 4963 4014 4013 4313 3846 4781 3542 4478 4049 3415 3008 3146 14 4457 3210 4007 2630 2712 2952 2886 3347 4351 2671 3901 3502 4488 3030 3015 3170 4657 4674 2652 4531 4230 4728 4544 4321 4629 3489 3596 2535 3166 4418 3920 4750 4618 2915 4820 3206 3789 2678 3127 3125 4464 3991 2735 2547 4283 2842 3998 4816 2727 2713 3002 2544 4535 4120 3371 12 2913 2732 3745 4396 4911 3336 3221 2898 3475 2655 3045 2653 3847 4033 4808 3828 3306 2920 2798 3790 2870 4086 4453 3278 4643 3509 3267 4287 4660 2703 2955 4590 3976 2959 3515 3734 2961 4379 3778 2646 3016 3891 2710 4801 4875 3978 3944 2776 3078 2876 4023 3148 7 4876 3828 2674 2862 4810 3431 4747 3688 3510 2884 3419 4010 4338 3676 2984 2888 3313 3262 3599 4388 2814 3912 2876 3375 2580 4477 3130 3678 2754 2684 3097 4638 3987 4066 3803 4392 4835 3912 3772 3598 4390 4627 3237 3710 3041 3661 4239 4812 4463 4594 3089 4287 3422 3136 4527 4359 4003 4955 3702 4702 3992 3441 3059 3456 2819 4793 2982 4295 4553 4155 4292 4219 4154 4439 4832 2751
32 3 30 12 24 16 8 34 34 8 9 3 22 38 4 23 25 14 38 12 29 22 9 16 13 29 31 7 32 15 7 35 14 11 29 25 39 30 37 7 9 29 29 7 18 37 9 3 10 16 28 12 3 14 38 37 32 2 2 37 27 20 10 9 33 30 6 9 2 26 38 12 4 31 27 29 36 20 26 36 17 18 28 24 13 5 25 30 17 11 0 37 16 8 4 37 37 15 25 27 27 9 1 13 26 24 22 33 33 15 18 31 10 29 2 4 36 4 14 30 2 1 25 18 11 26 19 34 10 39 21 28 23 22 26 22 6 4 19 18 13 38 38 15 12 35 21 3 24 7 12 35 9 13 16 35 17 27 2 3 7 37 11 27 6 11 5 39 8 28 35 23 9 2 34 28 29 13 25 25 27 1 17 29 7 32 25 5 5 5 27 9 14 14 5 29 33 13 26 15 36 4 2 13 1 30 38 11 10 16 10 11 31 1 2 12 14 24 30 12 27 10 32 23 12 3033 2620 2960 2820 3705 3305 3585 4116 3227 2528 4752 4929 4501 2636 3325 2961 4101 4186 4327 3914 4757 3529 4422 4584 4139 2600 2983 3338 4104 2994 3376 2654 3652 3386 4140 4988 4314 4948 2516 4415 2551 3851 3173 4508 3510 2969 3678 2942 4637 4724 3703 4206 2912 4758 3275 3767 4488 3517 4813 4366 2503 3919 3786 4056 3596 4847 4074 2650 4490 3895 3811 3525 3216 3416 3518 4959 2665 4624 4917 4511 4701 4654 3223 2846 4447 2985 4405 4798 3896 4891 4233 3429 3695 3122 4000 4375 4829 4287 3274 2808 4709 4680 4207 4702 4646 4735 3740 2687 4089 2787 3591 4073 3480 4594 4973 4250 4083 3250 4890 4680 3600 3539 2724 2815 4146 4858 2701 4698 4039 3018 4125 3033 4432 4406 3454 4249 4193 3388 4027 3556 3510 4068 4361 4012 2949 4557 3739 4594 4379 2551 3055 3042 2782 4538 3981 4305 4750 4266 4287 4803 4968 4013 4935 3899 2589 3184 3027 2881 4863 3284 4797 3282 4808 2860 2705 3680 2693 4010 3992 4238 4803 2766 3693 3298 4318 3900 3619 2631 2576 3924 3293 4537 3471 3524 3894 4068 4252 2801 3494 2855 4704 3977 3645 4127 4332 4923 3900 4203 3126 3053 4107 4295 2963 2971 3861 2833 3450 2670 4004 3608 3504 4451 3835 4211 2958
29 29 9 32 28 27 1 26 1 16 15 28 37 22 16 11 4 3 24 10 22 12 39 5 36 28 24 6 39 21 11 13 23 10 30 28 36 9 29 20 12 38 28 11 13 14 27 9 1 13 15 32 36 11 3 6 39 12 9 16 36 16 17 16 31 10 16 29 34 27 30 2 33 12 24 4 14 15 12 6 5 16 9 32 4 7 35 19 17 22 18 0 16 12 39 13 8 32 22 14 39 25 27 5 23 11 28 29 35 37 30 19 33 30 29 35 27 16 39 12 17 3 1 38 33 14 22 21 13 19 36 27 29 22 28 12 2 11 26 38 22 15 37 34 5 33 29 13 33 26 12 14 28 31 8 30 27 12 22 20 39 4 28 22 32 26 27 31 37 16 39 22 29 28 24 37 3 8 34 27 25 18 33 19 10 5 14 33 18 18 36 29 13 10 14 29 2 14 12 16 20 6 33 27 20 28 5 22 33 36 29 38 14 33 26 13 18 38 18 7 22 37 29 19 18 2920 2860 4335 4612 4683 3591 3990 3900 2566 2910 3284 4109 4043 3370 4721 2690 4538 4657 3286 4125 3277 3940 3161 4103 2832 2762 3784 4726 3456 4194 2694 2609 2886 4507 3213 3368 2993 3835 4759 4864 3506 2751 4425 4731 3980 3762 4956 3660 3788 3883 2868 4511 4769 2741 3743 4480 4809 2788 2946 3203 4011 3778 3543 3042 4145 2775 2580 3347 4938 3052 4108 2877 3364 3346 3102 3344 4458 3347 4335 4144 3828 4890 4020 2649 4914 2769 3458 3207 3553 3678 3543 3508 4593 4233 3190 4118 3710 4322 3249 2788 4413 3745 4363 3461 4534 3377 4413 4267 3460 2948 3072 4520 4668 3104 3763 3131 4675 2971 2578 2512 4731 4039 3186 3647 3788 4775 3811 4703 4711 4723 3501 3549 4288 3263 4146 4228 3614 3137 3298 3183 4306 4475 4023 2508 3584 3348 2866 4044 3592 2640 3925 4863 2780 4326 3491 3756 4640 3461 4936 4431 2756 3938 4158 3656 4332 4417 3796 3836 3337 4871 2982 3123 3448 3847 4168 3740 4902 4536 3565 3377 3123 3842 3161 3121 4107 4357 4154 3732 3829 3215 4567 2592 4857 3397 2555 3960 2660 2810 2987 4731 3740 3702 3890 4373 3038 3808 4296 3599 3159 4819 4132 2978 2601 4455 4929 2564 3736 3882 3074 4155 3118 2700 4965 4428 4334
11 32 31 31 30 14 37 35 36 25 21 31 30 12 7 34 37 2 35 39 7 7 32 12 35 39 34 21 37 6 30 9 19 12 24 28 2 5 27 1 24 8 30 8 30 20 8 25 33 35 7 17 36 26 29 4 21 8 3 23 8 16 19 7 37 1 29 27 25 28 15 29 38 3 4 21 15 9 17 11 19 28 6 4 39 35 33 25 27 26 36 9 0 22 9 34 33 8 29 16 32 21 17 2 30 11 32 16 3 8 21 17 39 19 18 13 36 21 35 3 31 12 12 17 9 23 10 19 30 2 28 5 39 2 10 20 39 8 32 33 36 4 27 1 38 14 35 3 28 17 22 39 10 26 26 24 37 33 2 34 7 4 18 38 30 12 17 22 5 32 9 7 32 22 26 23 15 28 30 9 27 17 39 1 25 38 3 33 39 7 4 24 1 25 13 7 35 29 8 16 2 28 8 35 15 11 15 34 9 17 22 22 2 26 38 25 14 19 34 31 6 36 30 21 13 4768 3867 3564 3280 3332 3764 2684 3767 4357 3747 3898 2873 4857 4441 4378 3034 2756 4205 3348 3769 4969 4386 4258 3740 4808 4201 4977 4329 3193 3962 3918 3279 4349 3069 3131 3009 4606 4436 2883 3566 4463 4803 3203 2577 4055 4420 3366 2950 3856 3787 3264 4368 4540 4186 4340 3566 3248 3258 3418 4916 4302 4254 2528 3215 3629 4671 2951 3058 3002 3556 4532 4199 2740 3837 2924 3271 3485 4695 4478 2505 3273 3138 4569 4975 2857 3021 3429 3398 4275 3269 2896 4168 3736 3635 3146 3061 3987 3492 2658 4780 4423 3373 4998 4271 3766 3763 3568 2672 4840 4454 3268 4675 3864 2857 4025 2675 3992 2948 3345 3065 3272 4701 2961 2849 3760 3668 3417 3121 4586 3510 3548 2860 3206 2741 4632 3890 2778 4495 3925 3219 2936 3740 4823 3332 3502 4300 3027 2566 4604 3287 4896 4146 4172 4938 2781 3963 4534 3983 2613 3085 3344 3917 3934 3638 3924 2843 2855 3671 4485 2671 4417 4897 4590 3539 4172 3219 4786 2506 4922 2551 3486 4289 4813 2791 4878 3867 4938 4495 4636 3336 3605 2501 4424 4706 3088 4307 4476 4128 4535 4918 2998 3648 4528 4757 3031 3662 3080 4277 3779 2611 4020 3362 4010 2904 2542 3610 3549 2900 4350 2531 3841 3375 4981 4319 3585
9 18 11 28 25 5 6 3 34 2 22 25 28 25 18 15 1 22 25 23 26 31 11 27 18 34 10 3 11 36 39 21 36 32 37 30 16 6 21 27 13 3 32 30 1 4 16 15 30 23 26 11 28 33 2 31 4 19 10 32 28 27 13 35 37 9 6 32 10 10 38 14 6 13 21 13 1 18 25 17 24 14 1 3 5 35 39 22 19 11 32 33 15 0 6 30 37 26 7 3 18 27 38 6 6 17 25 35 16 36 23 12 28 12 1 14 32 13 3 17 3 14 11 8 23 28 15 33 16 15 1 2 18 3 13 23 10 5 26 11 30 28 20 18 33 25 2 25 19 16 39 21 10 15 37 5 2 13 1 1 36 19 5 19 28 26 17 30 3 3 1 32 4 31 26 36 37 12 9 14 33 39 22 35 35 23 39 34 6 23 11 2 26 1 5 2 19 14 37 15 38 29 15 13 16 14 30 22 33 3 12 37 30 26 39 4 20 4 22 7 30 29 14 3 35 3378 2681 3670 4591 3141 4655 3755 2516 4333 3084 3773 4254 3076 3575 3391 4788 3917 3102 4618 3949 3527 2862 3602 4479 4972 2699 4853 3102 4026 4873 4590 2954 4046 2747 3472 4055 3246 4608 3968 4636 3874 4269 3441 2545 3613 4637 3890 3135 3068 3686 3856 4014 3001 2601 4729 4659 3783 3983 3344 3562 3190 4327 4921 3245 2610 3413 3610 3096 4485 4147 4045 2800 3512 2643 4592 3610 3167 2625 3917 4860 2599 4469 3867 2716 3026 4925 4890 2774 3975 4075 3688 4716 4028 3287 2886 2967 3201 4844 3314 4990 4071 4360 2913 3228 2729 2702 4051 4917 2598 3940 3080 4541 3149 3222 4997 4811 4802 2928 2909 4844 3039 3304 4677 4059 2820 2810 3362 4567 3127 3470 3974 3509 4312 4585 3488 3490 3838 4103 3785 3381 2897 3648 2871 3000 3471 4829 3159 4260 3187 3175 4431 3283 2557 3938 2691 4223 2571 4319 3284 4660 3983 3661 4001 4383 2934 4890 4532 2666 2591 2970 2887 4717 4516 2784 4520 4538 3632 2814 3490 4258 2874 3984 3331 3206 2652 4848 2809 4263 4935 4262 3275 4566 3020 4606 3877 2624 4370 2763 4373 3880 2877 4584 3926 3827 2737 3571 4171 2937 4386 3475 2560 4998 3414 3194 2847 3565 4075 3847 2900 2702 3867 3665 2818 4141 4046
14 2 22 18 30 18 18 18 23 38 36 39 4 20 34 33 39 26 39 7 24 37 9 38 28 6 3 9 16 27 9 29 27 11 28 27 7 18 33 9 39 17 6 37 22 27 14 2 16 33 6 17 10 9 27 28 27 13 4 33 35 22 8 39 17 31 38 12 14 2 35 38 21 7 18 31 8 29 17 1 11 6 31 13 7 31 2 35 38 1 22 5 38 17 0 7 28 38 27 35 26 12 17 27 19 30 17 3 39 24 6 20 8 22 6 36 34 32 23 27 25 12 5 6 1 15 11 34 1 13 11 19 24 31 19 6 28 38 4 4 20 32 37 33 35 29 1 4 24 30 9 37 4 19 17 38 30 24 31 13 30 16 30 8 3 18 30 22 3 21 4 10 31 19 1 37 2 6 15 19 13 13 1 8 19 5 34 2 30 19 17 10 21 3 3 15 11 7 10 33 39 4 23 37 24 29 11 9 28 32 15 33 37 4 31 1 28 5 28 25 28 4 12 34 35 2683 4978 3819 3549 3606 4774 4786 3608 4599 3647 4762 4959 2992 4429 3401 2905 4602 4471 4966 3422 4150 3634 4392 4345 3889 2801 4144 3801 4821 3951 4906 2590 3435 2909 4191 3536 3824 2902 3388 4285 2749 2528 3879 4474 3985 3553 2755 2739 3305 3715 3349 4369 4816 3255 3795 4857 4552 3007 4324 2618 2912 3590 3036 4023 4771 2689 3076 2742 2849 4988 3801 3980 2539 3579 3013 3435 3406 2882 3795 4274 2619 2670 3878 4577 2799 4329 3055 3954 4155 3913 2566 4483 3038 3638 2847 3556 4176 4915 2655 4781 2800 4034 4853 2941 2652 5 4282 3689 2678 4276 2751 3698 3285 4782 2968 4517 3674 4457 4649 3611 2746 4325 3287 3009 3630 4890 3304 4446 2661 3662 3287 2733 3842 3630 4429 3961 3768 4803 3378 4534 4781 3006 4930 3903 3030 2876 4058 4708 2849 3293 4811 3491 4300 4779 3550 4214 4073 2569 4449 4110 3408 4305 3108 4228 4592 3007 4728 4374 2717 3115 4107 2841 4683 4312 3202 4909 4874 2756 3972 3078 3161 3222 4456 4737 4342 4682 3599 4656 2950 4482 4226 4263 3648 2569 3254 3424 4349 4554 4795 2526 4913 2832 4087 4667 2740 3126 3928 3245 4168 2780 3689 4535 4809 3728 2916 4613 2523 3580 4453 2752 2874 4467 4967 3355 3871
19 3 19 27 35 19 8 18 6 21 25 6 27 25 36 23 28 22 5 23 14 8 12 36 20 20 16 38 20 16 12 5 28 13 13 4 13 18 16 20 3 12 20 20 31 29 33 27 5 11 6 29 17 13 20 20 13 6 35 12 33 17 3 29 34 8 5 2 29 34 8 15 37 20 23 13 35 15 3 23 38 20 36 14 16 30 29 32 37 21 13 11 29 10 12 0 31 19 5 37 39 22 5 33 27 2 30 37 37 5 33 31 16 34 12 17 10 33 34 18 26 23 12 29 31 27 27 22 38 37 12 18 21 27 8 11 36 14 23 13 34 13 7 2 34 19 11 6 29 35 21 4 29 13 39 16 39 18 13 10 12 3 21 5 1 34 25 25 19 36 31 14 10 11 12 31 39 33 3 12 11 38 18 22 3 2 17 5 26 17 31 32 10 17 3 19 20 22 36 32 29 4 6 8 11 11 22 5 37 15 20 31 4 23 24 3 7 30 20 29 2 16 15 10 15 2683 4478 2813 4488 2545 3425 3211 4510 4419 4228 3024 4431 3398 3210 2885 4607 3599 2559 4164 4967 4120 4206 2848 3054 2600 4204 3985 3573 4969 3952 3524 4838 3317 4873 2890 4964 3305 4979 3967 4161 4101 4416 3796 4005 4014 4197 4191 4958 4694 3547 2627 2556 3946 4004 3780 2703 4516 4072 4358 3263 2559 4576 2878 2708 3023 4873 4007 4443 2623 3794 3463 2695 4243 4152 2729 4667 2508 2937 3241 3351 4886 3525 2540 4719 4434 4785 3277 4247 2949 2742 2862 3181 4738 3162 12 3734 4707 4532 2861 3393 3317 3673 3317 4725 2594 4781 3304 4477 3784 3563 2711 3153 3572 3573 3948 4521 4263 3971 2589 2958 4865 4169 3596 4701 2567 4563 4296 4835 3851 4063 4512 4404 3419 3466 3285 3717 3636 3585 3722 3869 2988 2961 3975 2672 3819 4103 4502 3153 2779 4370 3250 3067 2804 4056 3663 3069 2531 3942 4124 4866 2809 4179 4121 4742 2787 4654 4966 3536 4480 3721 4058 2819 2532 3476 3950 3206 4124 2895 2977 3978 4162 4121 2645 3671 3817 2659 4449 4315 3454 4792 3757 3459 4023 3018 2536 3633 3089 3643 4118 3902 2645 3586 3084 4088 3072 3816 3933 3136 3242 4410 2962 2619 3063 3877 2565 4603 3439 3551 3501 3924 3450 3313 4861 2520 2514
25 3 35 3 32 16 29 38 22 7 18 27 30 34 18 15 14 22 2 15 30 22 4 18 21 33 4 6 22 29 21 18 16 26 4 2 36 16 27 3 16 33 14 11 8 24 24 11 3 28 10 14 29 38 17 24 17 14 2 5 27 37 19 27 29 7 35 39 4 25 25 10 20 33 4 39 36 7 31 17 26 11 9 16 22 20 35 8 14 15 5 21 10 27 26 9 0 36 5 21 28 17 18 2 14 31 19 10 38 18 17 3 4 13 7 5 32 1 4 10 11 8 24 35 34 14 17 29 24 17 14 3 35 22 39 14 15 6 30 24 32 29 18 12 7 4 35 39 6 18 12 16 14 37 15 30 11 2 7 31 39 24 30 17 30 4 26 26 30 6 20 28 38 5 30 23 2 10 7 20 18 26 38 34 23 1 26 10 21 7 18 36 36 26 27 37 7 36 1 11 15 4 16 25 6 31 6 1 10 39 4 13 15 11 33 11 13 15 38 19 10 36 12 10 18 3353 3598 4318 3156 4058 4097 4100 3046 4467 4946 3361 4661 3023 2955 3320 3406 2658 4720 3454 2968 3550 2819 2914 3063 4159 3159 3830 3562 2876 4482 4517 4328 3162 3349 2989 2703 3074 3804 3713 4917 2710 2524 2924 3797 3748 4454 4557 4502 3410 4591 4646 4874 3892 2584 3826 3503 3054 2851 2783 4949 3924 3573 3765 3585 2804 3547 2549 3081 4044 3599 4810 3433 9 9 4835 2742 2782 2515 4732 4899 3404 4063 3941 3921 3597 3695 3564 4408 4840 2596 4319 4221 3209 4263 2573 4098 4865 4742 3402 3618 2506 2646 3977 4027 2590 3592 3566 4341 2574 4810 4121 3068 4914 3677 4665 3839 3737 2774 4454 2834 2626 2574 3852 2980 3120 3315 4537 3507 3459 4352 3394 3713 3144 3165 2976 3283 2823 4569 3747 3728 4285 4116 2906 3978 4163 3670 4267 3638 3939 2798 3863 3318 4984 2802 2704 4661 3110 3054 3808 3132 2675 3710 4923 2867 4083 3929 3536 3617 4772 4945 3670 13 2777 3128 4290 3492 3755 4824 3878 3700 4177 4118 3805 4799 3716 2840 3071 4901 2847 2967 2597 2858 2868 3648 2817 3865 4663 3743 3352 4563 4830 2563 4391 3499 4028 3143 3165 4353 4564 4349 3954 4492 4393 3846 4736 4292 3886 4835 3835 3425 4761 3503 4040 3422 2686
9 36 14 20 29 37 25 5 5 11 23 36 7 26 15 22 14 36 3 16 30 31 29 19 26 23 9 19 11 1 38 16 37 25 33 11 30 25 16 36 32 12 3 10 33 2 7 29 24 16 39 5 6 12 17 12 4 33 18 9 39 17 26 20 30 9 28 4 7 22 12 4 6 7 16 10 1 13 10 10 18 6 31 7 21 21 27 1 31 1 38 29 32 31 39 25 3 0 14 21 22 34 4 34 22 16 5 5 37 22 22 20 16 2 1 28 28 25 18 14 15 24 8 30 6 39 31 19 4 27 3 1 31 19 37 16 25 10 24 32 4 30 27 7 2 1 31 29 18 9 23 22 10 10 8 5 14 19 32 11 8 10 15 13 20 3 31 15 30 33 12 26 19 3 6 28 2 8 14 29 1 10 31 37 26 14 12 33 37 6 31 13 1 11 11 18 30 23 27 9 35 21 25 26 35 15 32 4 7 18 7 20 12 22 32 22 35 3 35 35 34 18 7 10 24 2678 3206 4973 3047 3581 2592 3729 4221 3104 3461 2876 3207 3989 3177 3526 2985 4007 4525 4729 4835 3213 2610 3926 3051 4571 3068 2954 3913 4740 3494 3791 4155 2946 2838 2920 4025 4246 3097 4832 4859 2667 4477 4048 4023 3668 4196 3820 2608 3259 3137 4615 2895 3735 4946 4360 3554 2588 3257 3993 3912 4490 4981 4549 2506 3444 3035 3631 3546 4568 4446 3531 4193 3445 2669 2982 4817 3866 3010 3264 4030 4116 2916 4591 2884 3163 3982 2921 2795 2689 3379 4849 3243 4381 3729 3890 2941 3116 4421 2731 4181 2948 3259 4805 3119 4551 4823 3941 4107 4471 3784 3679 4464 2968 2874 2506 3703 4641 4406 4842 4214 2764 2750 2892 4092 2719 4334 2550 3906 3342 2880 4010 3181 3054 4206 3013 3772 2948 3541 4997 2853 3137 3317 3569 3950 4667 4268 4183 3896 3593 2538 4172 3389 3295 3036 3605 3484 3270 3751 4878 4859 3983 2624 3675 3128 4666 2786 4786 2555 3222 3874 4039 4260 3225 3701 3019 3555 4276 3231 4325 3504 4396 3884 4977 3223 4648 3269 4886 4798 4414 3145 3070 2813 3001 4459 3824 4160 3949 4736 2859 4457 4637 2636 4837 3245 3145 2890 3970 3188 4428 3276 3867 2708 4244 4219 4184 3094 4583 3371 3322 3191 4875 2773 3618 4868 2786
17 2 34 20 10 37 31 19 2 26 14 18 20 32 16 7 39 5 7 19 39 33 32 13 12 14 31 5 28 21 8 12 28 20 36 26 8 39 23 25 24 22 9 30 17 17 34 34 33 23 35 34 15 3 2 20 30 19 20 14 6 20 13 22 39 11 7 6 14 7 2 18 5 38 8 30 38 33 12 8 38 23 9 18 36 39 34 23 8 23 29 10 38 12 25 9 10 24 0 25 17 11 31 20 24 5 5 13 35 37 29 39 35 3 4 1 15 9 37 2 25 30 13 19 3 7 19 16 2 1 18 38 13 9 18 37 4 29 14 14 25 12 34 13 33 13 20 2 8 10 29 19 22 6 1 20 29 12 26 32 30 23 32 1 26 37 33 4 7 10 13 1 30 10 4 26 5 32 9 24 36 9 11 11 35 25 37 1 13 6 33 28 7 15 28 3 5 2 37 20 17 22 18 35 17 2 34 11 1 39 4 38 35 33 37 38 31 34 11 38 30 37 6 14 10 4453 4489 4783 3622 2640 4496 4687 4413 3965 4296 2598 3633 3425 4619 4080 4588 4151 3742 3063 4600 3303 3296 4597 4430 3490 2739 2857 4535 3780 2988 2894 3712 4430 3051 2557 2929 3334 4550 4866 3604 3517 4640 2620 4069 4057 3024 3500 4005 2736 3948 4217 2691 4731 3661 2590 2760 3716 2668 3254 4372 4878 3749 4631 3185 3252 4164 4878 2941 2517 2690 3277 3089 2564 4300 4775 4809 2889 3604 3160 4104 2619 4233 3294 4851 4142 4459 4892 4624 4802 3411 3200 3236 4694 3538 3346 4895 3334 4804 3411 4960 2843 3264 4810 3428 2545 4768 3708 3790 3738 4580 3889 4071 4526 3492 4578 3054 4381 3770 4416 3579 2695 3235 2901 3928 3194 4485 4808 2852 4384 3769 2986 4156 4357 4967 2999 3772 3199 4358 2618 3040 3003 2689 2938 4239 3305 4899 2877 3246 2749 3173 4409 4846 4620 4300 4468 2886 3910 4852 2718 4035 3900 3963 3465 3616 2720 2952 4499 3830 3717 4847 2594 3723 3732 3856 2849 2948 4184 3286 3904 3312 4199 3042 3725 4396 3771 3657 2837 4499 4375 4006 2752 4889 4145 4761 4040 4745 3879 3535 2907 4711 4247 4230 4962 4952 3606 4253 2524 3806 3758 3855 3451 2726 3796 2886 3630 2863 4543 4252 4513 3133 3733 4912 4619 2696 4962
33 35 27 30 39 16 35 35 16 17 23 6 36 3 10 30 35 28 15 27 36 11 8 29 15 12 37 5 34 10 38 7 23 34 2 33 26 16 32 15 20 21 13 39 10 1 14 11 34 20 14 13 8 38 37 4 10 11 24 29 25 31 23 24 17 18 16 23 25 14 21 2 14 16 32 20 4 32 39 33 33 19 4 20 34 27 26 25 23 23 3 39 15 21 16 12 4 25 21 0 14 7 3 4 38 34 14 31 6 37 29 15 10 30 5 14 5 3 24 3 39 20 14 9 20 13 12 34 31 3 15 5 19 3 31 4 12 29 5 8 5 19 14 10 28 28 7 25 14 19 29 22 21 19 22 15 13 8 6 39 24 11 21 31 13 2 19 22 11 27 5 29 2 18 1 21 28 36 23 39 19 10 14 13 21 17 10 13 10 26 13 11 32 3 24 4 16 5 22 16 9 20 25 28 19 35 39 36 33 36 7 26 32 9 9 13 36 32 9 25 3 25 32 17 38 3769 3307 3625 3128 3129 3456 4982 3172 3008 4217 4962 2641 3816 4751 4372 4404 2616 2775 3068 3143 2786 3342 4280 3938 4929 3523 4742 3071 3087 3988 4646 2598 3028 4230 4399 4220 3865 3085 4293 4101 3370 3825 2546 2781 4242 4524 3147 3932 2910 4845 4579 3270 3119 4813 3063 3407 2850 4925 4247 3292 4115 3330 3279 4737 4945 4050 4623 2797 4447 4918 2610 4141 4096 4641 2561 2584 4099 2893 3624 3101 4257 3492 3324 4007 3523 3436 4497 3010 4992 4254 4578 2512 4354 4121 4347 4212 4480 4765 4155 4330 2570 4312 3900 3531 2582 2805 4114 3904 4610 2560 3740 2923 3987 4099 3320 3375 3602 4851 3945 4469 3585 4507 3849 4458 3526 3466 4285 3665 3004 3980 4024 2992 4038 2712 3537 2788 3397 2550 3336 3334 4359 4958 2812 3271 3956 3186 4910 4815 3922 3602 4621 3057 2712 2880 4945 3648 4469 4064 4604 3300 4512 4764 2841 2691 4991 4034 4655 2817 3757 4658 4010 3210 4891 2617 3077 2734 4842 3411 3139 4568 4742 3304 4312 2872 3284 3470 3875 4409 4669 3438 3060 4418 4787 3565 4849 4396 3284 3174 4659 4764 4735 3665 4561 4243 3985 3949 3800 2762 3122 3471 4667 3185 3458 2968 4835 3495 4124 3294 4273 2564 3901 3596 4424 4471 4205
16 21 23 18 29 2 2 17 28 22 27 7 1 7 2 24 26 14 24 36 22 35 7 5 29 33 20 9 4 26 19 18 36 39 33 18 33 27 11 18 17 20 39 20 31 31 24 17 14 4 4 34 37 1 38 23 18 9 9 26 23 17 15 12 36 7 7 30 22 1 19 37 14 26 13 36 36 34 36 1 17 20 13 20 22 16 5 15 2 27 34 1 37 21 22 25 26 5 9 35 0 33 26 26 26 19 36 13 35 20 20 30 6 39 35 15 11 37 12 35 35 15 34 25 13 23 27 3 8 1 31 30 1 25 20 11 6 31 6 10 14 38 7 34 19 37 26 19 29 2 10 16 26 12 29 18 16 11 10 14 3 8 9 17 20 24 10 13 23 16 31 35 6 7 21 36 9 34 23 12 18 38 15 2 4 7 19 7 26 4 10 11 38 27 38 4 34 28 5 27 35 11 38 10 17 29 9 23 17 31 4 24 17 4 37 17 27 23 6 26 17 16 3 38 10 3824 4945 2893 3108 4094 4132 3954 2550 3820 4097 3154 4369 3065 4070 4459 4491 4707 3864 4449 3765 3859 4122 3631 3753 4261 3292 3766 4943 3887 3584 4609 2906 3001 3241 4387 3693 3599 2948 4322 4416 4646 3615 2804 2709 3297 3629 3780 4430 2915 4995 2771 3260 4918 4620 2948 4892 4884 4045 3441 3918 4142 3630 3812 7 2510 3195 3617 4899 3720 4901 3031 4982 4163 3748 3413 2878 3883 2506 4296 4357 3066 3534 3457 4894 3857 3685 3003 4342 3184 4215 4773 3851 3876 3763 4667 3089 4937 4194 3647 3338 4897 4790 3048 4574 3815 3112 2510 4030 4738 3417 3590 3204 3268 3663 4613 3463 4411 3504 2705 3002 4697 3118 3687 3016 3047 4241 3389 4235 4175 3886 4551 4920 4540 3400 4808 3880 4844 3227 3470 4935 4894 4362 4378 2926 3601 3579 4916 4729 3252 3937 4222 2880 4842 4484 2616 4174 3045 2515 3919 3917 4658 4850 4924 4704 2534 11 4247 2783 4753 2569 4563 4387 2935 4029 4633 2697 4550 3202 2588 2835 3928 4389 4109 3474 3510 4107 3639 2885 4141 3763 3187 9 2838 4906 2812 4963 2714 3024 2666 4518 4154 4115 2760 4567 2574 2810 2707 3739 2972 3105 3484 2747 4830 2530 3449 3111 3092 4297 4719 2698 3557 3371 2624 3883 3105
37 20 20 37 19 37 6 1 22 7 25 17 30 33 21 33 38 6 20 31 7 31 26 18 28 13 8 8 23 4 26 8 16 31 18 21 23 28 22 18 31 12 5 7 13 21 38 13 6 32 12 7 17 25 21 39 16 1 35 27 13 31 6 31 29 9 25 6 36 37 37 11 12 36 26 28 2 7 38 26 31 24 13 26 24 35 31 3 12 21 1 18 3 17 39 30 6 10 12 5 36 0 7 25 4 20 3 35 2 9 20 10 6 38 29 32 18 10 8 4 25 26 30 5 29 1 22 27 20 11 30 5 39 30 39 9 20 2 8 35 33 31 25 34 25 9 34 18 30 12 17 25 15 24 19 15 30 5 14 26 9 7 13 2 8 2 7 13 17 6 23 32 34 28 31 23 12 22 11 27 34 22 17 23 23 19 19 1 28 26 18 7 25 37 7 10 24 6 10 21 1 9 19 33 24 28 7 4 35 24 7 37 9 29 15 20 9 39 19 10 25 26 10 3 17 4425 3092 3119 4945 2723 4986 3277 2532 2717 3585 2946 4768 3124 4592 4979 3193 4917 4242 3977 3152 4654 3288 4081 4286 3621 2835 3386 2967 3156 3296 3832 2954 4168 2561 4535 2712 4077 4768 4201 3294 3719 4447 3160 4345 4521 4802 2627 3003 4844 4298 4121 4990 3554 2596 4835 3455 4797 4917 3729 3081 3903 3526 3875 2620 2762 2996 2621 3999 2963 4750 3041 4738 3599 3235 3741 3093 4770 4192 3570 4393 4431 3853 4818 2990 3994 4131 3009 3720 4730 4272 2523 4111 4032 3843 2687 3053 3849 3643 4252 4012 2730 3270 4656 2826 3261 4818 4576 4304 4587 4888 2859 3133 3666 3981 4546 4664 2637 3924 3490 3534 4560 2593 4547 4255 3182 3819 3742 3885 3749 4671 3018 4515 4627 4506 2619 4604 3484 3237 3996 4551 2589 4080 4232 2807 4683 4782 3847 4648 3925 3039 3307 3503 4234 4064 4997 3334 4729 2524 2877 3225 3250 2682 3060 3271 3353 3984 4630 4159 2866 4851 4339 4425 4474 3193 4835 3170 3230 3623 4222 2790 2924 3243 4656 4870 2652 3718 4496 3572 4896 3237 2675 3070 3928 4682 4706 4705 2674 3538 2842 3806 3439 4368 3894 2964 2875 3644 4029 4853 2993 3540 3918 4186 3268 4101 4891 3418 2530 3195 4562 4083 4309 2705 4448 4915 2839
29 25 21 1 17 28 33 33 30 26 2 30 13 31 39 21 29 16 36 25 12 12 21 16 2 32 36 15 9 35 11 6 23 30 28 1 28 2 30 30 35 29 18 14 36 3 20 34 10 28 34 39 6 33 39 11 7 12 37 14 16 7 35 33 5 3 6 5 6 2 10 34 30 6 14 32 24 28 12 3 20 22 6 2 1 18 32 26 13 13 22 18 33 36 14 26 6 23 37 4 17 10 0 19 9 1 19 1 34 34 12 22 27 3 36 4 25 34 12 14 38 12 17 33 11 31 34 4 33 9 13 13 31 2 4 37 32 6 17 7 18 25 21 26 30 13 12 38 38 5 8 1 34 22 21 32 12 16 23 23 26 4 38 12 18 29 35 12 11 7 10 35 28 2 4 25 34 13 2 33 1 13 2 12 12 1 39 37 1 16 7 14 30 34 34 14 5 27 24 8 9 36 39 23 38 31 1 11 3 14 18 5 36 2 35 23 32 22 17 35 2 34 2 1 28 2741 4273 2553 3448 3410 4579 4489 4965 3939 4552 4026 4727 4383 4919 2858 2944 3110 4351 3634 4774 2767 3432 2794 4271 4735 4230 3138 4380 4808 4484 3772 2630 2526 3467 3520 3069 3954 2947 4806 3516 3380 3346 2980 4068 3013 4300 4249 4375 4892 4581 3041 4140 4710 3111 3935 3594 3123 2792 4594 2791 2694 2649 2541 3844 4483 3254 4485 4146 3888 3887 2870 3708 4095 3720 3350 4476 4123 3784 2900 4531 4689 4729 4154 3389 4637 2864 4383 4117 2741 4680 3655 4277 3972 2842 3316 3974 2762 2912 4783 4836 4506 4591 3014 3818 3544 3271 2842 2867 2678 3531 4138 2513 3790 3724 4688 4876 4899 3210 4010 3076 3277 4998 2808 4626 2855 4671 3746 3677 2587 3916 4438 2662 2552 3368 4390 4650 3925 4911 2644 3077 3042 3442 2810 3523 2992 4288 3583 3231 4910 4535 4151 3379 3895 4182 3284 2610 4749 3128 4648 4631 3471 4089 2541 2823 4053 4070 4434 3292 4619 3588 2852 4536 3848 3404 2584 2829 3449 4206 4644 2637 2899 3354 3949 3892 4127 4644 3452 3412 4171 3142 3069 3561 4130 3219 3192 4935 4305 3021 4808 4169 3874 4073 3540 3927 3733 2522 4052 4144 4696 2794 4713 2840 3155 2598 4159 3032 4233 4208 19 4587 2519 4216 3632 4654 2603
27 5 20 3 15 11 16 17 28 29 25 34 11 1 11 31 22 38 35 39 34 1 39 27 30 6 29 19 18 27 17 22 17 28 15 3 29 30 29 39 19 23 8 6 9 5 33 21 14 28 32 28 2 14 20 6 39 29 1 33 29 18 16 1 34 35 17 5 25 18 27 3 33 13 11 14 1 12 3 11 34 18 18 31 27 37 14 18 30 38 3 7 30 30 7 22 1 29 24 22 25 39 24 0 26 23 23 34 37 15 2 5 15 9 13 32 25 13 28 36 4 20 29 39 21 30 25 2 7 14 20 3 6 19 23 27 34 4 26 37 14 18 24 31 30 39 16 3 24 20 6 11 4 13 24 16 5 3 3 29 14 6 4 18 28 28 10 17 26 35 17 13 18 29 11 39 30 31 26 17 37 6 36 17 33 26 29 28 23 27 31 13 28 2 4 26 19 36 3 33 21 8 10 36 33 26 19 34 11 9 3 8 29 23 36 35 9 11 37 6 8 15 22 30 15 3042 3496 3318 4040 3353 4125 4764 3284 3597 4925 3403 3006 2613 3596 4278 4283 4925 3340 4893 4649 3583 3185 4396 4244 3822 3625 4394 4044 3676 4317 2907 3729 3328 2972 4199 3952 3496 4315 2771 3357 3031 4037 3755 4102 4831 4027 3947 3947 3436 3782 3971 4876 3549 14 3384 3707 3710 3474 3770 4197 4289 3824 2808 4339 2919 4297 2619 4648 4279 4274 2700 3089 4162 4131 2500 3802 4419 4083 4990 2790 2794 4709 4126 15 4147 3767 3544 3845 2984 3593 4981 3663 3490 3254 2989 3182 3682 4577 3936 2660 2624 4501 2577 4058 2959 2589 2696 3911 3113 3561 4889 4255 2998 4491 4477 4423 3893 3445 2718 3524 4822 4596 4938 2610 2840 2670 4085 3442 3217 4677 3201 3778 4673 3177 2585 4675 4036 4031 4112 3898 4107 3714 2562 4833 2509 2712 3320 3587 2996 2648 3493 3455 3671 4418 3962 4965 2523 4385 4602 4112 4973 3919 3210 3127 2917 2919 3735 4027 4425 4471 4847 3878 4847 3278 3331 3320 4895 3943 3182 3643 3304 2940 3772 4581 2880 3725 2814 3785 2897 2809 4625 4169 4565 4717 2892 3281 3563 4465 4626 2737 4113 3876 4259 2527 2529 3615 4492 3600 3905 4049 3722 2679 4192 3159 4436 3128 3740 3543 4026 4954 2515 4196 19 4496 3469
26 13 39 18 9 8 2 37 6 28 16 3 25 32 26 35 25 27 28 3 38 29 12 12 35 20 36 3 15 29 7 13 34 13 28 29 23 11 22 39 32 24 21 36 33 24 31 8 27 24 39 34 12 27 28 7 27 27 17 2 20 21 3 18 18 36 20 21 15 34 2 3 33 22 39 26 4 28 10 35 21 38 14 4 11 11 38 24 13 24 16 10 28 3 8 39 31 33 7 16 30 35 19 16 0 1 29 29 31 7 34 9 33 20 28 5 34 14 10 11 3 6 8 16 27 2 17 22 34 36 36 25 37 20 14 33 39 7 37 34 39 29 14 10 38 20 6 8 30 16 7 27 3 17 5 7 33 10 31 18 29 18 31 32 5 4 5 28 15 5 7 30 39 19 38 38 31 22 15 20 23 9 32 26 32 6 31 38 11 15 33 5 30 4 8 4 23 32 7 6 1 21 37 5 39 26 36 15 25 32 13 20 15 37 1 24 1 32 1 20 13 8 21 32 2 4293 3495 3127 2652 4204 4698 3277 3739 4917 4018 3128 4463 4710 4816 3669 3838 3754 3929 4994 3222 3218 4136 4806 4192 3328 4860 3536 3095 3626 3788 3072 3538 4442 4361 2788 3533 2766 4402 3099 3955 2614 3626 3370 3587 4898 4120 4348 3285 4942 4970 4168 4584 4731 4926 2978 4813 4121 3326 4557 3749 4419 3697 3372 3853 4659 2649 4181 4514 2536 2553 4278 2801 3192 2842 4869 4239 4143 4186 3900 4888 4613 2901 4620 4847 3498 2586 2770 3580 3244 4642 3413 2685 4717 4865 2994 4157 2890 2887 4248 3942 3488 2963 4106 3709 4429 2683 4197 4814 3558 2824 4227 3380 4287 4335 2757 4599 3951 3504 2768 3598 3096 4531 3948 3711 3502 4144 4660 2543 3468 4667 4112 3174 4131 3734 3553 4392 4225 3447 3123 3336 3288 3618 4731 4893 3602 4894 3295 4647 4597 14 3473 3915 3887 2807 4594 4677 4522 4693 4124 4089 4490 2606 3156 4399 3824 4035 4845 4652 4687 3449 3303 3934 4495 2966 3050 3620 4350 2986 3763 2733 4820 2661 4567 3244 4452 4085 4565 3134 3831 2772 2632 3962 3286 3409 3917 3628 4868 3712 2985 2671 4090 3253 3642 2830 3603 4921 4597 3630 3423 2879 3971 4765 3737 4466 4391 3498 2545 3288 4544 3723 2980 4996 3759 3317 4100
17 24 20 17 4 26 9 32 16 29 23 24 21 6 10 25 1 33 36 18 31 4 9 15 32 19 39 19 32 34 39 6 11 19 15 24 22 22 26 38 25 39 34 4 19 14 39 35 21 16 30 32 27 19 14 25 24 17 39 37 33 18 19 22 39 15 19 4 27 16 36 5 1 8 27 36 3 36 11 7 27 13 22 32 15 23 36 31 14 9 19 33 11 32 34 20 32 18 8 10 13 21 24 36 37 0 28 20 26 24 30 39 16 34 36 7 35 18 18 16 35 2 33 18 27 7 8 13 8 36 22 20 31 27 4 14 22 31 20 21 17 22 16 10 15 11 33 31 21 17 31 37 28 39 3 32 10 6 3 34 28 24 31 8 18 33 1 20 39 37 12 9 24 12 31 14 33 10 34 34 37 34 9 12 28 15 39 30 26 33 34 30 15 35 2 29 12 37 32 18 5 39 5 11 21 30 1 25 33 14 36 1 21 16 18 34 35 17 4 9 39 5 34 37 9 3505 4273 3911 3654 4750 3629 4422 4334 2683 4919 2909 3174 2693 3805 3980 4851 3367 4872 4572 3706 3331 2641 3877 3452 2856 3877 4507 3912 2535 2644 4970 4184 2706 3621 3058 3364 4264 2983 3469 2675 2831 4312 2500 4738 4025 4823 4338 2846 3417 4994 3547 3145 18 3201 4526 3164 3292 2962 3235 3015 3819 4110 2852 3455 3333 4957 4825 4901 4378 3300 3705 4023 3726 4975 4506 3456 2752 4502 2855 4521 3062 4335 3779 2677 3027 3649 2560 3514 4230 3058 4559 2622 2732 2760 4801 4424 4685 4631 4397 4302 4945 3129 3147 4897 4994 4926 3848 4731 4690 3909 2540 4416 4588 3420 4000 2630 4578 4226 3920 2892 3159 3994 4343 2732 4618 4980 3970 3035 4400 4177 3186 2948 4384 4889 3060 3284 4354 4920 4803 4346 4906 3736 4587 3337 2598 4952 4787 3194 3441 4219 3439 3328 2914 2852 3321 4871 4075 11 4454 4678 4562 3236 4203 10 2527 3128 2728 3273 4711 4093 4887 3455 2776 3340 3488 2822 4224 4342 3332 4313 3603 2679 3297 3008 2828 2955 3669 4064 4080 3486 15 4586 4808 4613 4592 4431 2868 4826 3803 4972 4349 4472 3174 3018 2544 3097 2751 3706 4004 4735 4676 3610 4669 2667 3513 4205 2642 4478 4383 4527 2991 4877 4533 4901 3799
11 25 16 33 23 12 37 2 38 29 32 9 31 11 22 27 37 1 34 28 19 23 23 9 13 3 15 20 5 5 37 22 19 14 9 6 32 26 30 24 7 39 5 22 16 32 33 16 22 27 16 39 3 5 21 7 37 5 23 3 20 26 24 22 23 15 18 33 23 29 5 18 14 25 12 2 17 22 21 19 37 11 36 10 6 2 34 32 4 13 16 38 3 33 15 10 5 16 25 23 30 12 15 14 23 25 0 32 4 18 24 26 39 12 34 15 12 5 12 7 25 16 13 15 8 14 11 32 14 33 16 15 33 3 3 37 2 1 12 19 38 14 2 25 37 15 27 25 2 10 29 32 28 18 39 13 10 34 20 31 3 4 35 37 29 18 6 21 2 12 21 5 33 30 17 36 27 34 17 16 24 6 35 22 29 20 24 24 37 39 15 27 33 34 3 20 9 27 7 16 9 13 15 39 34 29 17 33 36 3 16 30 26 29 21 33 5 28 38 23 36 12 10 16 22 2541 4817 2594 3688 3124 4216 4097 3399 2933 3939 3486 4098 2762 3477 3701 2705 3735 4238 4421 2716 4378 3529 2884 4828 4336 3108 2737 4440 4750 2774 4072 4159 4011 2565 3737 3587 3876 3022 3853 3516 2523 2585 2698 2823 4161 4217 3403 2816 4202 3500 3958 2624 3310 2761 3484 2524 4766 2616 4793 4602 3081 3511 3046 4998 4494 3178 2700 4010 2819 4548 2752 3122 3950 4986 3032 2792 3624 4710 4653 4254 2715 3217 3933 2790 4016 4588 2746 3449 2870 3031 3563 3323 3858 3055 4002 3146 4593 4733 3326 4175 4173 2920 3973 2682 4174 4281 4187 3076 4737 4610 3007 4724 4278 3104 4030 4035 2683 4596 4540 3070 3597 2502 3363 3229 3920 2535 3202 2725 3659 3981 4199 4630 4979 4157 4556 2687 4669 3398 3302 3548 4872 2515 4553 3881 4375 4566 2516 2871 4251 4262 2885 2561 3622 2688 2942 2858 4484 4962 4195 3517 3377 3229 4388 3552 3968 3504 3329 4859 3679 3610 4054 3550 2792 3103 3532 2697 2767 4920 4393 4780 2632 2981 3732 4192 4705 4967 4609 2687 4844 2972 4604 4735 3799 4930 4954 4082 3702 4286 2588 4383 3011 2954 4233 3548 4328 3381 3057 2565 2505 2992 2931 3288 4555 2863 4821 4636 4494 4167 3034 3858 3893 4758 4616 2981 3796
9 24 7 18 33 33 21 22 8 9 9 21 1 30 13 31 27 11 1 6 27 22 23 12 24 38 35 30 36 29 1 39 23 21 21 9 14 31 16 13 30 21 25 37 32 25 8 24 30 29 21 32 8 5 26 28 28 22 11 26 3 19 14 21 15 39 28 2 13 4 25 18 5 4 24 30 11 8 17 31 16 5 17 7 23 7 24 24 31 38 7 25 24 24 12 31 26 25 22 26 3 19 38 35 34 23 21 0 33 22 22 5 35 15 2 2 27 26 19 12 28 36 30 29 9 2 28 19 35 19 3 33 11 33 36 4 34 30 6 33 25 1 30 30 20 34 39 25 36 36 14 27 7 2 13 8 30 29 38 27 37 5 8 20 28 39 23 17 3 39 6 13 21 23 25 32 23 26 15 16 21 1 28 38 25 21 14 32 11 24 4 17 34 13 4 13 26 11 25 28 4 17 6 15 39 13 13 9 34 34 15 24 13 23 24 28 11 21 30 13 4 22 20 24 29 3112 2758 3385 4300 3080 3605 4192 4119 4940 3814 4230 4677 3965 4883 4110 3715 4205 2745 3599 4423 3791 4078 4143 3013 4726 3674 2969 3460 3722 2982 3359 2966 3569 4053 4731 3186 4269 4054 3487 4202 2686 4913 2858 4489 3151 3545 4767 4691 3460 4250 3183 3429 4172 2519 2726 4135 3990 3648 4650 3809 3193 3012 4198 4832 2525 4580 3986 4693 3815 3642 3969 2576 4392 2647 2979 3577 4772 4095 3214 4345 3770 4597 2602 4619 4223 3416 4364 4564 4397 2907 2583 3663 4268 4937 4631 3105 3393 4882 3180 4566 3170 3153 2663 3244 4049 3126 3110 2703 4863 4900 3349 2779 3178 3697 2896 3579 4791 3359 3782 4267 2682 3532 2630 4184 3900 4161 4386 3997 3702 2931 4075 3364 3219 4568 2574 3889 2968 3865 3485 4499 4112 4646 4964 3179 3582 3436 2764 4393 3616 4759 4525 4740 3917 2527 3295 3179 2740 4017 4350 2964 3274 3116 2748 4981 3963 3378 2969 3525 4052 2678 4126 3425 4679 3397 3109 3554 4990 2783 4236 4895 3600 3871 3347 4086 3022 4790 3663 4250 4834 3478 3180 4680 3278 3234 3320 3028 3688 3021 3557 3870 4819 4062 3179 3212 3340 3946 2774 4171 4834 4854 2739 4761 2919 2660 3156 4285 2627 4439 3390 4884 3654 2994 2863 4877 3686
8 1 35 35 7 39 12 23 21 38 10 10 30 14 17 27 38 22 8 1 6 22 7 19 28 21 1 16 6 22 24 7 31 34 38 29 26 17 8 7 12 29 22 32 25 6 26 25 18 9 1 3 20 14 39 11 35 15 13 39 31 28 21 15 7 24 4 19 27 19 35 14 21 19 2 8 6 9 7 21 29 26 25 25 21 8 29 32 17 5 20 12 39 29 39 29 31 28 11 37 17 10 32 24 37 38 25 17 0 35 6 28 25 36 23 8 36 8 31 11 26 7 34 34 27 1 35 22 32 11 25 17 34 29 18 4 7 7 22 33 33 15 26 23 13 29 39 34 3 28 15 36 38 3 37 30 10 20 37 14 27 30 3 2 9 29 37 1 6 3 22 3 24 2 34 36 3 26 18 18 22 23 1 2 3 28 33 12 7 23 29 14 35 17 14 2 28 39 5 39 13 25 27 17 33 9 26 20 28 20 35 11 1 25 19 31 13 4 4 4 30 28 8 28 39 4553 4096 3799 3019 3364 4853 2926 3052 3945 4201 2990 4246 4490 3127 2586 3495 2948 4330 2737 4433 2820 3645 3813 4316 3135 3360 3924 3690 2517 2709 4279 2837 4500 4873 3814 2681 3000 3137 3896 3282 2645 4973 4011 4184 3734 4905 4303 4233 3473 4799 2655 4373 2535 3369 2858 2912 4391 2506 4740 4311 3555 3889 4715 3046 3393 4643 4422 4964 4924 4699 3000 4249 3663 3576 2601 4955 3460 3283 3971 3856 4912 2810 2910 4425 4857 4879 2903 3990 3720 4374 2703 4117 4022 2732 4882 3524 2708 3722 3891 3370 4227 3592 3950 3470 3106 4044 4339 3748 3754 4500 4417 3219 3185 4208 3726 4544 3783 3046 3818 3670 4860 3067 4367 3897 2532 3469 2881 2937 3999 4818 3568 4838 3997 3388 4662 3421 2696 3487 2727 4387 3335 3957 4175 4384 2756 2731 4432 2918 4771 4224 3028 3052 2623 2924 4048 4002 3448 3770 3356 2882 2809 4967 4771 4462 4570 3695 3276 4295 3482 4034 3376 3822 3892 3565 3397 3071 3822 4612 4860 2755 4796 3247 2988 4597 4323 4715 2957 3309 4366 2665 3516 4343 2661 3606 3875 3107 4286 3109 3997 4071 3232 4636 2692 4160 2653 2910 4686 4437 3603 3248 4263 4935 3287 4005 4132 3985 3409 2544 3498 4836 3271 3710 4985 3313 3776
37 4 21 25 2 13 24 5 8 3 19 16 5 35 23 10 5 11 30 39 5 26 24 19 16 21 8 21 29 9 6 4 18 16 16 2 10 8 35 17 7 17 8 13 33 6 3 37 18 2 24 4 25 23 30 12 38 31 36 37 11 12 5 8 17 18 21 4 5 37 34 18 1 9 20 14 23 14 24 26 27 39 25 15 2 14 27 15 18 30 21 29 29 32 24 3 25 14 33 1 31 39 15 6 1 3 17 4 14 0 26 7 16 3 36 13 2 23 12 3 34 33 31 37 2 19 13 16 2 19 13 36 34 19 12 16 19 10 39 37 9 14 4 20 11 28 20 29 26 8 12 11 24 27 31 34 16 1 7 29 20 31 21 21 23 30 4 19 3 33 36 25 15 39 8 29 4 23 6 30 16 10 21 38 9 33 18 30 33 7 32 2 26 1 11 17 22 30 39 18 17 4 15 23 31 31 29 26 15 20 25 28 3 37 36 36 35 10 3 38 4 8 16 34 6 3240 3472 3819 3068 3978 2850 2774 3759 4701 4371 4056 2508 4213 4828 4997 3722 3891 3412 2609 2718 3554 3222 4944 3614 4599 4493 4177 3312 4228 2701 2653 2584 2630 2911 3623 2520 2887 4096 4251 3658 3253 3243 2810 3181 3643 4267 3131 3234 4720 4558 3287 3533 3062 3945 3850 3672 4517 4327 3963 2796 4879 4646 4370 3116 2829 4955 2979 2910 3662 4054 4908 4289 3912 4983 3760 2671 3723 4757 2580 3009 3992 2954 4310 3374 2952 4807 4553 4317 2895 4938 4154 3827 4998 3997 4186 2964 3623 4734 2534 4433 4659 3007 4193 4841 3086 4145 3223 4275 4727 3665 4955 3004 3930 4286 2659 3145 4423 2606 2903 3328 2720 3411 4351 3410 4823 3199 2751 3553 4352 3177 3027 4861 4095 3511 4969 2657 3579 3771 3372 3858 3970 4967 4917 4825 4700 2609 4561 2871 3582 4444 4626 4720 4872 3492 2880 3541 4267 3308 2708 3062 3039 3157 4889 2595 4683 3192 3996 3624 4648 3344 2509 4779 3021 4976 2659 3734 4921 4577 4224 3160 3071 3576 4751 2730 3969 3639 3369 3067 2658 3801 3151 2899 2806 4700 3286 3409 3622 4178 3480 3684 4736 3475 3164 3461 4052 2648 2802 4739 3779 4332 3112 2646 3676 3424 4381 4948 3529 3374 2542 3245 2779 4532 3311 2630 3213
28 39 16 12 15 6 21 18 24 26 5 4 32 3 28 30 9 7 19 36 11 12 24 7 15 34 24 10 31 11 35 27 23 30 21 37 34 35 11 23 31 37 13 6 11 36 37 6 23 12 26 31 26 33 31 35 4 19 28 33 2 25 6 28 10 10 17 33 21 22 3 2 32 6 31 36 14 1 37 9 3 5 37 3 16 18 33 36 17 1 33 38 31 8 20 25 13 14 12 18 19 28 37 1 4 28 29 38 33 20 0 11 25 37 37 12 9 17 33 24 1 26 16 35 20 23 1 19 25 34 39 32 23 16 16 3 36 15 26 11 10 1 39 3 27 35 26 18 18 38 37 10 32 20 7 16 18 6 21 27 24 25 23 35 14 21 28 3 9 7 8 33 28 8 16 21 30 30 10 13 33 10 16 7 10 26 35 5 23 5 31 14 8 18 5 24 39 26 15 35 23 16 7 33 33 14 11 19 34 11 34 32 17 27 39 13 11 13 28 9 36 8 22 8 28 3656 4410 3768 2941 3519 4194 2643 4474 2761 3583 3782 4862 3648 3192 3118 4241 2628 2599 4481 3182 4644 2777 4502 3948 2653 3917 3101 3793 3295 4207 4170 3802 2782 4931 3357 3178 4971 4348 4465 3516 2641 4164 3718 3058 3206 3803 4674 3999 2689 4401 3159 4041 4887 2774 4089 2826 3405 4233 4339 3329 4643 3137 3579 3542 3539 3349 4779 4618 3934 2526 4631 4871 4998 3943 19 2928 2981 4947 3895 3852 3355 3173 4758 2755 4072 2818 3854 4672 3502 3151 3579 2683 4783 4507 4803 2997 3243 4292 3025 3437 4768 3387 4191 4269 2740 4110 4051 4589 3341 3201 2780 2632 3563 4427 3284 3806 4431 2997 2685 4611 3179 3595 4774 3609 4467 3729 2814 4564 3851 4837 4728 3274 3045 3195 4029 3296 4696 3124 3882 2834 4670 3701 3271 3383 3398 2736 4954 2516 4840 3397 3277 3753 3976 4749 3587 3304 3973 4989 3242 4491 3546 2643 4111 4274 4876 3782 2765 4912 4043 3071 4255 2767 4193 3916 3535 4742 4343 2805 4137 3027 3966 4204 3830 2798 2861 2885 3512 2746 4020 3111 3414 3684 2756 2581 4590 4936 4068 4482 2706 3400 2768 3740 3878 2565 2927 3183 3789 3368 2861 3697 3811 3508 3974 4765 3647 2660 4623 3089 3015 4685 3683 4355 4039 3764 3106
36 14 13 11 22 24 23 28 5 9 28 30 7 8 1 36 30 32 2 11 13 1 7 30 28 20 32 3 37 12 32 30 3 20 31 1 23 37 5 33 32 22 30 3 2 25 37 4 37 26 6 15 18 18 6 39 32 27 5 6 6 10 33 8 31 9 27 33 29 35 23 35 29 16 22 23 33 35 28 14 29 24 10 2 19 36 14 23 11 30 26 1 24 35 29 22 20 3 21 24 38 37 22 18 34 8 21 27 16 32 31 0 28 39 36 3 11 21 10 6 16 23 7 28 10 11 24 12 20 29 32 20 37 26 5 7 1 20 22 10 4 6 19 4 30 38 17 15 32 22 30 5 5 12 4 39 28 7 13 23 18 35 38 16 25 6 31 14 24 37 6 34 32 27 17 24 11 38 7 38 3 20 11 20 20 7 27 6 1 22 10 38 34 21 13 16 39 19 32 10 28 3 36 21 29 18 10 14 26 38 26 20 14 5 22 25 19 11 34 15 19 13 3 17 7 4008 3465 4765 3530 4733 2782 4556 4888 3372 3403 4279 3685 3792 2987 3429 2949 2790 2792 4343 2993 4382 4016 4473 4577 4008 3128 3931 3776 3022 2610 4588 3035 4647 3277 4952 2827 4203 3354 4113 3303 3781 2923 4911 4690 2770 3496 4253 3855 3984 3600 3240 4557 3515 2590 4822 2557 3206 3016 3185 4951 3516 2963 3291 4757 4128 2782 4867 4360 2886 4396 2737 3266 4506 2584 4921 3542 3459 3014 4852 4413 2577 2908 3807 4451 4582 3186 2930 4322 2931 4769 3689 2691 3511 4981 4651 2972 4578 2776 4809 4549 4836 3533 3521 4800 3459 4977 3369 4150 4602 3924 4881 3802 2756 3851 3266 4229 4189 4282 3193 2917 4609 2964 3287 3301 3257 4015 3521 2622 4852 4549 4451 2527 3642 4096 2544 2623 4436 3399 3571 3593 4731 4968 4926 3548 2743 2754 2696 3935 4388 4341 3245 2953 3229 4092 4030 2822 3870 3453 4358 4818 2967 4970 3895 4936 2879 4081 3255 2796 3838 3904 2620 3040 3600 4495 4515 4429 4278 4521 3145 2755 3817 2873 4706 2797 3287 2633 3615 3365 4679 3061 3207 4039 3702 4164 2544 2592 4249 2921 4979 4792 4926 2901 4630 3597 4281 3576 2608 3891 3109 4877 3586 3801 4868 4155 3717 2694 4053 3657 4410 4242 4349 3913 2690 3191 2787
29 9 30 2 24 37 23 1 10 29 11 19 33 19 10 36 19 35 28 25 27 7 18 35 32 22 10 6 8 20 5 9 11 21 26 28 4 1 13 29 10 25 19 24 30 1 36 26 34 3 2 24 36 11 30 18 39 39 31 13 39 11 38 30 27 2 15 22 20 12 22 19 3 29 18 9 36 15 19 12 17 3 10 23 12 10 27 18 21 26 7 14 4 23 15 38 37 6 39 23 12 39 9 6 25 20 23 35 14 39 5 17 0 20 27 10 15 28 28 18 25 20 26 16 31 19 13 36 6 5 11 27 1 21 28 3 10 33 15 9 36 13 11 14 15 21 5 15 27 9 18 12 12 13 29 2 11 23 35 26 13 16 39 21 1 31 4 3 2 37 36 33 13 30 7 39 2 4 10 22 11 22 16 27 23 24 28 33 20 19 26 21 23 17 18 15 25 22 7 32 36 34 35 15 23 25 1 25 28 21 30 25 18 8 16 11 12 29 23 33 6 39 3 36 4 4153 3612 3465 3528 8 3274 4613 3266 3608 2864 4811 4045 3926 3541 4404 3387 3318 3903 4303 4326 3545 3917 3955 3253 4327 4353 2993 3684 4086 4417 3465 4341 3549 4695 2839 4707 2814 4043 2606 3781 4245 2976 4050 2957 3864 3577 3918 4234 3623 3127 3690 4746 4120 3090 3170 2707 4853 4715 2644 4846 4636 4426 3891 4301 4656 4849 4892 2724 3704 4700 4435 4406 4136 2847 4250 3443 4007 4574 4719 3114 3303 4970 3970 3523 2758 2679 2965 4427 4464 4088 2955 2772 2689 3856 3789 3771 3693 3076 3625 3558 3342 3958 4929 4514 4286 4139 2873 4366 3157 4857 4562 3088 3322 4764 2853 3604 4358 3845 3440 3960 3516 4612 4962 3426 2524 3366 3775 3371 4224 4144 2795 4603 4804 3019 4193 3516 4913 2754 3251 4381 4540 3250 4573 3500 4190 2970 3847 2509 4761 2630 4302 2847 2983 2604 4820 2920 4070 2865 2923 3412 4789 4943 4070 3167 4221 2544 4121 4406 3511 4663 4321 4681 2721 2654 3273 3928 4071 2686 3892 4658 2611 2580 4830 3703 4544 2929 4481 3525 2526 4384 4190 4050 3202 3601 3509 3775 3030 4606 3907 3322 2903 3888 2970 4195 4075 4241 7 4470 3769 3698 2711 3614 4692 2742 3388 3532 4598 3710 4001 4714 3584 3380 3065 4141 2916
39 17 10 38 19 10 15 36 21 10 2 3 24 31 1 36 8 36 14 31 35 17 11 11 37 11 28 23 23 35 39 28 5 19 37 2 27 8 39 31 19 9 20 34 5 12 32 31 20 18 14 22 39 25 24 1 5 7 18 11 35 23 20 25 24 13 3 26 35 36 8 1 4 37 35 21 36 33 12 4 3 24 27 37 18 19 30 30 26 17 29 13 23 34 21 31 17 19 8 34 3 7 25 26 5 33 37 34 13 38 27 38 25 0 27 30 9 31 32 26 27 10 24 27 30 22 24 18 25 26 21 3 25 31 26 35 36 20 33 4 33 7 25 14 38 14 9 39 22 32 11 26 10 25 11 29 5 27 11 4 20 13 36 26 14 8 24 23 20 39 2 35 24 10 34 18 35 19 10 7 24 10 10 33 9 1 19 28 30 27 3 35 2 7 3 7 20 34 31 30 3 20 10 18 25 39 25 22 25 27 13 4 20 1 39 2 34 37 25 34 18 13 37 15 16 3586 4549 4156 2895 3054 2996 4177 4365 3458 2831 2932 4430 3524 4932 4921 4839 3510 4156 4268 4095 4872 4435 2746 3450 3721 3145 4808 3678 3349 2827 4324 4786 4240 4279 2622 4574 3465 4674 4781 3846 4671 2987 4441 4264 2846 4300 4603 3359 4616 3817 3854 4840 2708 4048 4134 3893 3928 4047 3429 3279 4234 4310 3727 3715 2568 3331 3602 3939 4837 3114 2568 4534 3481 3644 2672 2524 4666 3993 2731 3347 4718 4038 3344 2774 4698 3073 2586 3301 3730 4002 3481 2795 2577 2930 2822 2687 3313 3201 4160 3916 3943 4387 3162 3475 2537 3919 3791 4093 4714 4756 2702 3543 3346 2958 4479 3672 3537 4841 4163 3544 3123 3018 3684 3986 3552 4146 2814 4097 3093 2750 4268 4510 3595 4842 2880 3098 3058 3036 2771 3743 2853 3147 3126 4934 4215 3353 4216 4323 3121 4005 4869 4900 3932 2673 4904 3739 4520 3405 2749 3501 3884 3732 3764 2695 4193 4614 3384 3038 3844 4637 3537 3333 4717 4603 2939 2679 2981 2566 4332 2517 3656 4312 2818 2537 4180 3048 3079 7 4903 4731 3118 2739 3020 4557 4271 4096 4196 3545 4993 2867 2506 4868 4794 3860 3326 2873 3514 2815 3823 3012 4134 4943 4823 3066 3164 4442 3087 2858 3964 4589 3541 4572 3813 4052 4782
12 1 32 9 31 31 8 35 30 34 29 24 24 38 6 36 21 19 2 18 26 37 14 20 8 2 20 1 14 32 10 28 10 31 23 28 24 8 2 24 23 16 14 8 33 30 26 8 8 27 21 2 25 25 28 24 1 6 11 25 26 11 29 11 10 28 11 34 1 29 34 2 39 6 4 8 7 5 1 28 18 13 20 19 19 5 38 25 17 5 31 34 16 25 35 17 21 17 30 11 3 35 23 5 15 1 32 6 1 27 28 9 39 9 0 4 27 15 12 27 12 5 2 38 9 21 3 36 9 29 33 28 13 2 7 10 7 30 11 5 13 10 7 2 29 34 39 35 26 28 3 23 20 6 1 35 11 9 4 12 19 21 30 2 9 19 33 38 11 23 1 6 6 29 28 6 13 8 3 32 10 33 13 27 1 5 20 18 5 39 8 5 2 24 27 15 16 10 39 16 35 10 25 4 13 2 3 8 27 3 24 24 19 30 38 26 3 16 26 6 30 31 30 18 15 2843 3028 3657 4524 2899 3434 3571 3378 4401 3927 4690 2522 3108 4649 4301 4588 2522 3409 4766 4513 2877 4611 3102 4256 2742 3964 3863 3754 4168 3740 3574 4823 4501 2537 4500 3827 4316 3093 4447 4123 4913 3525 3142 4239 4302 3272 4900 4770 2735 4780 4375 3902 3907 3686 4463 3497 3941 3949 2536 4587 3917 4435 3326 2815 4644 2845 4309 4700 4183 2961 3969 4817 4661 4430 2530 4699 3937 4255 4195 4751 2928 3511 2879 3452 4772 4646 2950 4114 3549 4540 3967 4451 4366 4230 2514 3727 3299 3476 4009 4772 2513 3331 4281 4267 2875 3715 2910 3391 2947 4909 3417 3583 3365 4652 2563 4454 3810 4381 2671 3393 3447 3661 4331 4402 4370 4325 4366 3240 3456 2755 4873 4931 4532 2623 2765 2970 3467 2709 4965 3359 3208 4232 2861 4198 4173 3050 4256 2783 3030 3941 4104 2694 2841 2582 3578 4045 3101 2536 2907 4757 4957 3679 3018 3952 3113 2939 3767 4767 3234 3555 4976 3040 2540 2938 3600 4198 3630 4813 4236 3578 4499 4219 4018 3010 2833 3760 4046 2796 4704 3541 3325 4906 2998 4163 2572 4633 4001 3914 4100 3748 3665 3036 3952 4881 2842 2632 3004 3329 3088 3683 4796 3683 4549 4046 3654 4225 4945 4636 2863 4737 3190 3253 4198 3644 3531
19 16 37 36 19 37 2 18 24 23 5 30 28 21 30 28 9 31 37 7 30 1 36 33 14 32 34 38 32 25 8 27 32 19 19 12 27 20 37 7 18 22 21 33 9 19 30 34 21 32 33 9 3 37 23 6 18 29 35 32 5 28 38 36 7 26 2 5 28 30 22 36 2 36 21 36 9 13 9 26 33 24 35 9 2 1 28 32 31 26 20 26 24 5 38 25 35 28 7 14 5 32 17 21 1 3 8 29 1 11 12 38 2 8 8 0 15 33 13 22 18 37 20 31 8 4 11 16 17 39 3 3 23 24 39 28 3 21 27 32 30 19 36 1 6 24 3 9 15 14 22 33 14 24 37 29 38 12 39 19 2 23 11 17 32 38 11 29 33 28 28 33 8 4 32 5 2 31 14 11 6 38 5 11 36 37 23 17 13 39 4 22 18 31 14 5 19 25 5 18 23 31 18 21 13 5 15 29 5 26 24 9 15 5 5 31 1 3 21 26 32 35 18 39 9 4683 3750 4160 2913 3206 3658 3095 4126 3224 3744 4778 3897 3638 4068 4258 3725 2660 4748 4959 4616 2792 4664 4538 4727 3647 4501 3528 3305 4546 4630 3284 3558 2709 4642 4632 3436 3836 4060 3979 4146 2556 3953 3260 2731 3184 2589 4137 3389 4709 2801 4160 4982 3898 4714 3317 4764 3058 3413 3941 4949 2866 2794 4143 2549 4811 4864 4907 3597 3017 3234 4443 2558 4881 2730 3250 2920 2854 3163 4771 3549 4589 4903 4437 4042 4033 4011 2750 2514 2965 2958 3860 4742 4754 3623 4850 3024 4847 2869 2862 3470 3808 2867 4054 4127 4676 3897 3901 3405 4885 4883 4387 4275 4127 3273 4702 2593 3721 3311 3680 4910 3042 3325 4005 3993 4404 3689 3112 3341 4078 3366 4230 3097 4998 3548 4824 3681 2856 4762 2632 3884 3934 3736 2761 4712 4296 4624 2885 4023 4569 4035 2900 2686 2992 4233 4890 3951 3659 2616 4814 3097 4794 3167 3093 4157 3055 2732 3172 2946 4915 2964 3330 4669 2518 3761 4712 3975 4129 3873 4688 3632 4973 2909 3118 4363 4432 2688 4483 3400 3283 4538 3345 4773 3939 4188 4005 4769 3973 4935 2985 3598 4669 4266 3379 3088 3778 3153 3710 4348 4821 4339 3262 3674 4574 3782 4465 3975 3918 3967 2702 4837 3262 4522 2553 3385 3106
6 23 18 1 1 11 33 32 1 7 32 30 29 24 34 4 25 10 26 20 17 7 22 28 17 7 12 11 7 23 39 25 6 36 24 28 13 13 17 6 15 5 15 19 34 23 1 30 11 22 7 30 14 31 22 10 24 6 31 19 25 12 6 9 37 18 14 4 11 30 15 15 35 20 38 8 13 16 15 27 16 10 3 35 22 17 3 21 25 21 39 17 14 26 10 3 20 31 39 29 24 18 29 10 32 35 24 38 6 30 15 3 20 10 9 15 0 27 37 32 6 9 10 11 15 11 7 32 30 19 5 36 29 26 16 4 3 36 38 30 14 24 6 39 18 37 5 24 32 12 9 12 17 39 35 10 2 39 29 39 29 11 24 15 16 9 32 6 21 13 33 39 11 29 17 10 9 3 29 16 28 16 24 6 33 14 26 21 3 20 36 24 13 20 19 4 11 31 38 30 10 14 24 30 25 35 4 7 20 22 16 3 7 20 25 4 38 25 16 10 29 13 33 23 29 4025 3630 2662 4695 2747 3237 4090 4729 3054 2588 4335 4672 4168 2587 3898 3475 3683 2683 2572 3025 3496 3626 3432 3808 3908 4732 4873 3895 3855 4377 2734 4230 3508 4629 4277 3633 4102 4745 2614 4388 2825 2801 3388 4768 4058 3710 2652 3966 4850 3632 4080 4350 3698 3414 4175 2565 2800 2549 3391 4072 3432 2704 4581 3596 4365 3503 2759 3631 2562 3186 4689 4398 3514 4029 4094 3686 2546 3436 3217 4297 4158 2772 4207 4549 2994 2637 4396 3302 4908 3981 2963 3302 4777 2991 3057 4429 4305 3843 2801 2588 2812 3049 3867 3831 4827 4685 2744 2979 4774 2888 2584 4214 4305 4358 3739 4641 3914 4286 4919 3664 4177 2555 3335 3709 3015 2848 4559 4545 4858 3989 3371 2974 3036 4275 4420 3100 2923 4796 3980 4157 2731 4603 2903 3390 4592 2521 3309 2524 4502 4762 3209 4111 4735 4154 3335 2683 4162 3757 4169 4733 2843 3381 2725 4081 3305 3053 4682 4891 4111 4516 2819 2685 4375 4559 3631 4871 4256 4636 3025 2877 4461 3390 4050 4975 4173 4485 3088 3353 3220 4591 2779 2954 3353 3281 4322 3215 3171 3859 3991 4018 4425 3288 4909 3183 3246 4826 4530 2636 3042 4454 4255 2618 4716 3714 2767 3938 4019 3144 3487 2820 4090 4782 2599 4916 4371
30 24 31 19 33 4 1 37 23 16 24 15 18 11 9 11 15 32 24 25 34 38 10 8 32 39 25 21 37 38 30 1 15 32 38 11 14 26 12 23 1 32 5 9 13 21 5 36 27 12 28 18 11 2 20 25 9 6 12 30 10 34 25 29 5 3 1 39 7 15 35 17 8 28 6 18 10 14 32 30 39 33 36 38 5 35 18 24 22 10 1 16 6 17 21 4 3 11 36 3 22 11 32 26 11 38 20 31 27 18 36 23 19 5 16 13 39 0 35 1 38 25 18 5 20 29 26 29 28 23 39 19 3 9 8 36 16 24 28 32 5 22 6 23 8 12 30 3 30 1 32 19 32 5 5 38 12 32 39 5 39 20 13 9 13 4 19 32 8 21 23 16 9 10 24 14 23 22 7 9 23 6 23 4 31 2 11 33 28 14 33 27 11 14 37 17 37 14 38 19 33 22 30 27 13 1 5 31 20 39 25 25 8 31 34 17 11 32 16 14 35 2 19 6 11 3604 4027 3224 3220 3374 3451 4064 3285 3239 4536 2829 4368 4140 4238 3300 2720 3054 4471 2983 2827 3730 2793 4348 4211 2824 3423 3501 4639 2727 3879 2668 3889 3255 2557 4236 2913 3994 3746 3410 4003 3115 4018 4918 4496 4664 2905 4881 3026 2598 3611 4906 2827 3162 4809 4234 2581 4070 3510 3716 3124 3813 4007 3495 4724 3858 3523 4970 4477 4782 4051 2501 3675 3079 4948 2606 3706 2792 3130 3580 3249 2805 3441 2563 3720 2737 3536 3506 4980 3759 4912 2966 3279 4659 4484 2614 2729 4440 3484 3656 4257 4611 4285 3243 2946 2738 3066 4357 4601 2791 4233 3179 3452 3300 4960 4974 3179 4644 3860 2637 4078 3893 4096 3875 4092 3244 4358 4884 3805 3266 3505 4976 4402 2610 3382 2744 4914 4382 2519 4087 4452 3558 4711 2850 19 4224 3708 4268 4852 4467 2602 4357 3541 2709 4727 3936 3009 2561 4235 4414 4970 2949 4866 2728 3626 2912 3007 3039 3530 2788 3959 4851 2885 3937 3629 4023 4357 3545 2931 4697 3076 4265 3875 2537 2512 2584 3238 2932 3886 3537 4620 3451 2539 3634 4875 2767 3254 3222 2891 3142 4523 2985 3172 3723 3157 4908 4083 3696 3999 3225 3786 3918 3428 4031 4421 2536 4452 4330 3735 4784 4611 3876 2859 4623 4004 2820
39 32 29 25 35 25 28 39 10 13 5 25 6 32 20 33 25 13 16 20 19 23 28 24 17 25 2 34 24 11 8 18 36 2 19 38 1 16 30 1 18 27 33 15 27 18 5 24 12 7 36 29 4 36 21 8 11 19 29 25 6 4 31 13 27 38 11 7 2 36 1 8 29 19 30 20 23 3 9 3 5 28 39 26 21 35 22 32 33 32 34 8 34 20 6 25 39 14 25 4 35 34 25 31 9 4 36 17 23 15 33 20 4 33 22 11 5 35 0 33 33 19 6 15 2 27 33 26 27 29 9 12 12 27 8 9 33 27 12 37 24 37 24 34 1 8 17 39 7 32 2 30 3 6 8 18 14 3 39 9 9 33 9 27 7 13 4 16 6 37 32 31 29 19 24 30 6 31 34 21 8 7 39 4 39 20 20 4 9 27 5 8 29 36 16 37 31 39 32 1 30 9 2 32 10 30 10 1 8 33 36 34 2 3 9 28 10 19 39 21 14 39 25 19 14 4394 2613 3061 2783 2763 3772 3173 4024 4319 3559 4792 3431 3525 4970 3960 4442 3986 2821 4301 2631 2591 4890 3911 4518 4844 4754 4793 3356 4585 4628 3258 3639 2788 3569 4580 2923 3249 4547 3405 2650 3782 4751 4462 2900 4505 4697 3500 4305 4927 3155 2682 4237 4904 2644 2783 4366 3598 3894 4247 4016 4278 3515 4376 4390 2895 4129 3848 2889 2594 3785 3360 4989 2945 3383 2825 4297 4526 4632 3445 4508 2659 4400 3259 4112 3711 3418 4939 4629 4985 4755 4793 3077 2672 3790 10 2991 2586 3394 3637 3381 2515 4331 2588 2906 3146 4585 4962 4852 4531 2509 2510 2804 3075 2870 2896 2711 4993 4168 3554 3666 3331 3765 3250 4032 4366 4794 3674 10 2634 4999 4936 4318 4086 4054 4407 3290 4280 2820 3015 2539 4552 2903 4632 2976 4140 3236 2532 4236 4521 4626 3707 3524 3437 2964 3897 4864 3724 3836 2811 3603 4403 4355 3280 3577 4605 4606 3874 3645 3334 3747 2932 2810 3511 3798 2980 3129 4720 4718 3956 4892 4320 2914 3776 3276 3569 4636 3251 2614 4256 2879 4710 2713 4913 4592 3813 4319 3976 4237 3312 3617 3814 4233 4838 3549 4465 3860 3177 2871 3554 4148 3445 3210 3825 2802 4010 4091 3213 3958 4983 2627 2505 4002 2797 3872 4775
16 33 20 36 11 4 13 30 10 12 20 2 15 25 30 11 2 28 4 21 22 8 14 21 36 14 5 23 36 26 6 16 39 37 13 29 15 21 34 33 7 14 14 31 32 11 29 29 16 34 36 35 13 29 8 8 24 39 6 23 13 23 25 18 1 2 14 30 17 6 33 21 27 37 12 38 10 24 2 39 6 19 25 38 18 13 36 1 6 36 32 11 21 36 16 27 11 14 35 35 35 14 8 6 10 25 7 9 29 14 30 37 31 15 34 35 3 19 39 0 7 24 36 20 19 33 37 30 23 8 38 8 31 4 38 8 5 4 34 22 37 17 1 24 10 31 9 37 34 33 21 29 30 2 19 32 39 3 11 35 11 9 19 24 15 10 12 19 36 30 36 13 36 10 19 10 24 8 27 13 25 25 35 9 30 12 9 33 11 38 28 18 12 16 22 5 28 15 3 14 37 15 4 20 6 19 6 13 16 7 19 8 20 9 1 8 10 32 26 36 36 28 20 38 29 4247 4128 13 4449 3118 3370 3637 3944 4608 3627 3287 3144 2819 3940 4571 3939 4466 4534 3802 2693 3888 4728 3516 3033 3785 3818 4331 4374 4289 4472 3203 4878 3390 4492 3215 4401 3767 3189 3205 4735 4980 3603 3091 3729 4033 2515 3107 3284 3556 3936 4574 4307 4654 4707 3293 4934 3122 4550 3470 3126 2743 4408 3312 3659 4141 4046 4471 2895 4279 3964 4166 2641 4442 2932 4625 4955 4839 3505 4470 3751 3245 2682 4698 4118 3742 4857 4416 3475 3006 2926 3735 4609 3660 2903 3605 3909 4683 3200 3179 4581 4981 4262 4539 2533 2824 3961 3196 3898 3164 4111 4387 2501 4039 3385 3224 3256 3196 4507 4314 4908 2539 2910 4199 4195 4263 3791 3782 4613 3730 4759 4718 2518 3870 3766 4507 3029 4186 4534 4315 4876 3547 4984 2918 3438 2882 3740 3500 3676 3677 4949 3692 4987 2693 2895 3355 3780 4664 3717 4065 4389 4089 3133 2530 3960 3174 4184 2796 4348 2636 3926 4910 3985 3692 4867 4701 3538 3240 4117 4013 3765 3460 2942 4739 2582 3628 2555 3115 4158 3169 3652 3403 4167 2766 3442 3717 3404 3792 4092 3179 2648 3279 2780 4969 2922 3969 3259 3716 4942 3606 3948 4580 4038 4081 4926 4135 2854 3685 4496 4971 3520 3331 4145 4415 3676 2972
25 18 4 19 30 7 30 3 39 7 4 9 13 22 4 21 6 27 33 14 16 8 35 19 22 22 7 31 17 25 28 3 6 24 9 25 28 30 16 3 34 3 23 12 24 23 17 1 6 18 31 25 21 10 3 22 5 25 3 22 10 11 36 38 9 19 3 20 25 27 1 17 18 33 9 17 1 16 2 32 2 20 15 28 3 25 22 22 21 39 13 18 22 23 29 37 39 22 8 11 19 22 21 35 8 38 27 19 38 37 2 9 36 2 2 15 29 15 11 32 0 8 1 6 23 35 10 7 10 32 24 36 5 15 19 31 35 32 18 11 39 32 26 30 30 5 35 35 26 10 34 39 18 16 37 34 11 37 28 9 10 30 14 7 19 8 1 35 39 30 17 3 23 4 35 23 21 32 4 15 27 29 4 19 19 22 32 31 16 9 14 6 21 1 17 5 30 1 30 36 21 2 25 31 9 31 2 27 15 19 7 39 19 35 13 3 8 26 8 20 12 5 22 30 20 3358 3267 2900 3274 3326 3774 3194 3725 3765 2991 4697 3216 3244 2890 3974 4435 4135 4765 4464 3430 4552 3007 4799 3607 4422 4354 3860 2852 2533 4458 4533 3649 4157 2514 4400 4399 2591 4157 3462 2646 2930 4914 3754 4984 2949 3812 3140 3810 3211 3679 4497 3968 2786 3416 3923 3458 4277 4969 4836 4428 4277 4626 2990 4966 2806 2958 4629 4179 4296 3815 4944 3088 2605 3505 4576 4258 4701 3239 3449 4193 4954 3622 4145 3952 3744 2855 3552 3532 2823 4265 3445 4980 3040 4158 4016 3490 4315 4349 3749 3953 3304 4275 3538 3809 3923 4669 2850 2787 4044 4025 3004 2897 4158 4240 4792 3392 4154 2569 2732 4902 3720 3864 3143 2708 3608 3519 3762 3494 4966 4292 4688 3049 4198 3877 3896 3688 3802 2971 4548 3308 3497 3922 3518 3640 3239 2903 4396 4648 4882 4272 4928 3900 3465 3643 2520 3199 4425 3343 3943 4040 3646 4114 3138 3771 3427 4710 2719 4800 4537 3196 3849 4702 4724 2902 2912 3991 4028 4367 4512 3257 3890 4219 4298 3301 4785 4057 2938 3236 4445 3708 3494 4360 3690 3593 3368 4871 4320 2823 4981 4863 3995 3532 3196 3825 2767 4515 2571 4055 4013 2671 3766 3649 4982 2833 4267 3522 4571 3546 3021 4341 4326 3693 2892 2626 3292
14 11 34 37 6 6 25 26 2 29 8 29 36 29 29 10 14 6 16 28 24 18 15 26 28 31 35 4 2 23 8 21 33 8 13 23 24 6 19 6 1 15 13 25 35 16 36 2 33 36 4 38 11 11 33 35 23 14 34 19 12 29 33 24 24 9 1 1 8 2 28 32 16 8 33 10 38 1 38 24 2 29 28 20 35 16 28 17 37 19 30 3 21 32 13 10 22 10 15 32 6 1 8 20 20 37 2 37 19 4 4 26 32 18 14 25 31 33 26 33 14 0 10 2 21 7 20 2 3 39 35 30 9 37 15 6 33 16 3 27 19 1 31 33 38 3 6 6 7 38 36 19 26 23 38 21 29 25 37 33 39 6 11 32 5 12 20 38 16 9 2 34 11 3 27 18 3 9 3 10 13 8 9 26 32 12 32 34 6 33 39 17 39 31 18 17 6 23 20 7 39 28 35 8 14 16 14 27 11 35 30 8 10 8 9 25 36 27 35 26 23 21 25 20 13 2766 4099 4029 2568 4433 4396 3857 4230 3658 4402 3741 3931 4513 3783 3648 3014 3826 2618 3062 4093 4079 4082 3115 3083 2501 2993 3233 2832 3055 4605 4468 3984 3092 4538 4526 4772 3961 3570 3495 3310 4774 4146 4100 3859 4682 2943 3700 4423 3220 3887 2677 2746 4274 4677 3331 2953 4286 4717 2940 3519 3397 4400 2663 4189 2870 4678 2881 4040 3064 4989 4191 3624 3429 4368 3872 2574 4510 3537 4283 2813 3400 4221 2505 4960 3373 4684 4020 2548 4658 3560 3181 2569 4369 4700 2536 3491 3613 3149 4174 3878 4963 4592 3916 3764 2737 4442 3607 4307 3640 3331 2974 3096 4312 3337 4832 3246 2636 4918 3620 4077 2686 3535 2502 2949 4171 3828 2917 4326 4918 2563 3746 4061 3023 4234 3868 4112 3605 3514 3511 2881 3101 3064 3017 3892 2719 2721 4949 2567 2797 4274 3112 3123 3152 3268 3804 2531 3658 2534 4580 2527 3412 3992 4190 4395 4144 4577 3055 4064 3170 3045 3770 4055 4328 2996 4746 4839 2925 4560 3767 3407 2637 2937 3671 3830 2640 4762 3056 4727 3005 3175 3482 3808 3208 2664 2823 2699 2669 4142 3941 4410 4996 4262 3619 3109 3810 4528 4977 4488 3216 3992 3822 3278 4059 3587 4758 3030 3622 3765 3753 2991 18 2562 4420 4117 4682
13 17 4 7 30 15 33 33 5 21 18 20 6 5 13 26 9 12 19 35 18 31 15 32 22 2 1 1 28 3 32 12 27 20 9 22 38 17 29 2 15 29 5 10 4 9 27 35 7 21 24 18 22 39 13 14 9 23 26 8 14 1 33 38 37 1 26 15 30 29 4 24 13 35 4 32 34 26 14 18 26 29 30 7 4 4 22 38 11 37 10 18 22 27 1 19 35 14 36 25 39 27 33 17 30 9 30 18 38 7 3 12 36 18 39 7 29 25 27 37 17 9 0 9 1 34 11 37 6 10 1 14 10 38 16 10 29 32 2 27 24 18 23 36 5 1 12 17 15 9 18 14 6 7 15 5 36 7 12 34 24 21 29 27 17 12 22 11 3 14 14 5 26 35 13 32 16 36 16 17 29 11 10 26 26 33 8 11 14 27 5 8 28 34 32 11 19 4 23 17 23 34 4 34 7 28 16 38 30 10 8 31 10 36 37 39 22 19 6 18 3 9 30 17 38 3073 3823 3885 2572 3307 3727 4127 3088 3195 4282 2886 3399 3879 3664 3411 3979 4018 3395 3645 2601 3294 2637 4566 4962 3133 3615 4598 4051 2799 4028 3987 4162 4383 2803 2795 3193 2782 4281 4486 4356 4477 3617 2596 3012 3721 3526 4958 2608 2910 3163 2650 4883 3598 3239 2836 4768 3882 4378 3745 3983 4246 4662 4787 2585 4854 3294 2658 3337 2553 3850 4174 3977 2717 3244 4990 3822 2608 4708 2619 3933 3463 4832 4171 3630 4602 3333 3994 2991 2804 4973 3514 3921 2592 3087 2572 2659 3315 4164 3310 4848 2903 3054 4577 2932 3810 3347 3260 2865 2892 3396 3106 3962 2807 4838 2702 3871 2666 3035 2658 3314 4363 2865 2529 3673 4249 3510 3826 2809 3363 3126 3923 2961 4277 3886 4962 3002 3140 4757 3446 3197 4722 4755 4451 3769 4644 3318 4884 3504 3447 3453 3470 3627 4274 4996 2600 3976 3677 4043 3920 4107 4871 4067 3517 3744 3454 4774 3798 4022 4041 2684 3550 2674 4209 3283 3773 2807 4525 2912 4361 4107 3677 2716 4803 2847 3731 3924 2991 3707 4620 4178 4639 2574 4055 3582 4644 2835 2715 3525 3398 4178 3606 3718 4804 3456 3771 3778 4315 4562 4079 4673 3259 3277 4895 4916 4152 3984 4979 2819 3075 4283 4411 2601 4528 3233 4285
25 14 22 27 25 15 14 27 37 7 1 34 34 2 1 16 10 16 9 24 38 1 16 27 16 6 9 6 21 22 24 24 31 9 39 28 19 18 8 27 39 20 8 17 15 17 22 18 38 9 6 31 3 29 19 4 19 31 34 27 31 15 31 6 31 4 4 32 11 23 16 5 15 7 31 5 11 7 37 14 5 36 27 12 33 11 12 28 25 25 14 27 1 16 36 24 34 38 10 10 33 34 16 33 22 15 8 26 4 17 24 18 19 26 10 30 16 11 1 2 17 9 13 0 12 3 14 18 7 39 2 4 1 25 27 28 4 18 39 27 31 25 2 19 37 27 20 19 26 34 12 23 9 37 18 5 16 20 18 11 17 23 12 35 12 20 10 36 27 11 12 38 7 8 37 25 18 30 12 4 29 6 5 2 29 38 36 30 2 2 34 25 28 33 35 3 23 9 18 7 20 10 10 38 22 36 22 17 22 39 6 3 5 29 21 20 29 26 1 22 3 19 8 16 8 2746 2781 4997 2667 4102 4674 4880 4610 3079 4487 4544 3737 4176 4203 2586 3644 3704 4973 4162 3709 3639 4183 4469 2988 3469 3262 3356 3611 3660 3892 2737 3419 4694 4092 4582 2670 2659 3309 2963 3730 4536 3878 2744 4279 3015 3914 2543 3047 4900 3565 2927 3454 4987 3473 3864 3068 3345 3137 4556 4239 3747 2778 3120 3569 3138 4078 2844 3432 3540 3699 2745 4785 3263 4614 4067 2542 3564 4229 2722 3444 4742 2954 3936 3496 4816 3114 4206 3746 4097 4159 2722 4534 4915 3019 3563 4745 3314 4567 3644 3991 2831 4067 2785 2588 3032 4372 4746 3636 3142 3266 4576 4555 3353 2757 3873 2950 2792 3700 3392 4026 3887 4400 4747 2740 2845 2959 3610 3146 3017 3506 2824 4857 3347 3695 3852 3568 4728 3042 3528 2546 3130 2513 4404 2745 4309 4646 3228 2999 2884 4901 3836 3380 4327 4140 3347 3561 3319 3610 2915 3280 4936 3460 4432 3525 3147 3943 3184 3521 4618 4078 4188 3975 2785 2838 2930 2930 2944 3510 3789 4275 2621 3260 3519 2775 4843 3636 4047 4492 4996 4284 4634 2529 2869 4890 2639 4910 4799 3657 4224 3308 3239 3312 4294 4649 4696 2540 4581 3857 3016 4511 3251 4264 4867 3606 4276 4913 2927 2990 2889 3657 3846 3244 2560 4335 3912
19 34 33 10 19 4 39 9 3 6 32 13 11 29 5 39 9 3 34 30 32 20 18 34 37 38 27 7 10 39 2 39 32 30 9 34 13 9 11 22 1 23 3 11 2 39 15 7 19 3 2 10 27 36 20 1 30 8 32 18 11 27 38 23 29 11 6 3 11 13 22 7 11 29 21 39 22 30 34 30 24 29 24 37 12 14 19 11 36 24 36 26 29 10 16 21 24 10 1 12 7 23 31 1 19 36 25 10 21 34 7 32 29 7 13 7 32 1 13 8 23 30 29 5 0 16 35 39 28 38 16 14 34 4 7 20 10 30 2 10 32 1 12 7 14 16 7 4 39 33 37 28 17 18 10 13 39 34 24 18 17 35 28 2 34 6 20 2 27 26 30 26 21 35 12 31 3 32 12 29 36 18 35 39 17 3 39 29 23 37 11 24 6 4 15 32 14 26 35 16 28 37 29 1 14 11 38 5 26 10 38 24 18 28 4 38 17 4 15 24 32 20 17 34 12 3925 2783 3173 3300 2777 4222 3346 3106 3069 4961 2921 4689 4978 4383 3472 4271 4651 4733 4013 4685 3005 3724 4904 2901 2589 3970 4024 4009 4746 3977 3920 4701 3541 4128 2813 2982 3371 4184 4472 3907 4084 3354 3580 2601 2911 3565 3176 3974 3139 2745 3135 3184 2848 3099 4874 2984 4779 4817 2993 3136 4640 3045 3764 4524 3122 2626 4054 4560 4378 4392 3990 4299 3900 4495 3004 3933 2664 3163 4928 4215 3456 3308 3058 4385 4305 3210 3665 4340 4070 3136 4916 3546 4963 3267 2810 2698 3545 2949 3161 3787 2501 3008 4076 3038 3451 4897 2528 2907 3691 3415 3289 4527 3575 3979 3280 4203 3496 4947 4801 2754 3933 3301 2850 3823 3959 3462 4261 3768 4620 3668 4926 4854 4888 4091 3071 3548 4515 4969 4080 4485 4622 3573 2539 2681 3128 4678 3574 4420 4371 4934 4436 2882 3296 2715 3012 3873 2868 4511 3827 2551 4872 3893 4465 2822 3748 3693 4124 3484 4660 3307 4935 2789 2708 3304 4185 4297 4752 4227 4646 3599 18 3794 2728 4381 4649 4822 2671 4337 4496 4009 3950 2708 3597 2624 2516 2773 3425 3255 3722 2605 3117 4176 4444 3456 3312 4746 3976 4715 3334 4603 3402 4085 3100 3774 3044 4147 4508 3911 2992 3227 3394 3178 3723 2912 3623
34 29 26 13 35 18 20 32 8 14 31 9 19 12 39 22 10 39 36 1 22 32 39 30 39 37 32 1 30 10 17 20 8 30 6 14 27 28 6 5 34 19 2 37 1 18 26 2 10 32 14 25 38 11 23 13 26 14 30 4 10 32 21 18 24 7 36 4 38 38 1 26 30 6 3 10 22 33 23 17 26 33 37 2 19 27 27 36 23 12 11 15 24 7 7 32 35 20 8 32 16 6 32 12 21 2 12 4 19 7 38 19 28 22 34 16 16 16 24 15 30 2 35 25 21 0 37 15 13 11 7 30 14 28 31 29 15 17 37 12 10 7 35 33 14 37 12 10 8 7 9 2 23 37 30 12 7 36 3 4 23 15 25 2 10 2 31 33 23 28 28 11 16 21 29 12 12 37 14 25 32 26 39 29 17 5 22 30 7 6 1 17 30 29 17 27 8 28 4 14 18 34 20 4 6 36 23 8 20 22 36 2 22 20 38 3 35 15 26 9 5 4 19 33 39 3028 4736 4026 4444 4741 2849 4524 4849 4024 2856 4059 4561 4579 3796 3242 4143 3415 2744 4275 3821 4484 4320 2921 2846 4809 3408 2810 2927 4607 4328 4200 3516 3533 2938 4119 3706 4838 4481 3816 3029 3727 2675 3652 3080 2994 3215 3194 4804 4938 3561 4333 3165 4891 4568 4227 3259 4903 3358 2880 3670 3927 3591 4794 4564 3370 3108 2742 2513 3580 2708 4658 4275 4241 3384 2768 4318 3721 3202 4718 3245 4550 4633 2880 2845 3898 4838 3867 4929 4627 2885 3071 3186 3017 4400 4188 3489 3480 4687 2500 3406 2774 3058 2524 4975 4365 3745 3293 2764 3032 4552 3986 3950 4522 4190 3561 4808 3694 3056 3406 4214 4266 3813 4003 3553 3255 4729 4750 4293 3839 4963 3992 4927 2677 3038 4924 3380 3317 4208 4067 2888 3732 3950 4545 3114 4363 4457 3915 3072 3744 3719 4893 4786 4689 3201 3482 3407 3497 4886 3965 4529 3183 2935 3448 4931 4073 2678 3555 4709 4970 3762 4332 3565 3884 3644 3079 3589 3357 2872 3291 3839 3380 3158 4929 4337 2500 3692 4317 2815 4582 4197 3330 2578 3969 2819 3474 3150 3632 4465 3828 2666 3973 3329 13 4253 4519 3386 3176 3636 4705 2695 4917 4605 3272 4055 4280 2989 4480 4320 3755 4497 3763 3218 4850 4362 4245
28 11 17 8 34 11 8 38 34 20 15 26 9 38 23 24 6 2 23 16 5 24 8 23 38 8 8 1 7 7 26 17 23 31 20 1 37 13 28 20 19 36 15 35 19 18 25 3 16 1 26 22 28 10 27 9 28 15 1 16 5 9 15 30 32 32 17 10 3 14 35 8 32 10 23 14 13 29 11 37 36 38 26 4 1 31 25 21 18 33 18 11 6 14 5 37 12 25 11 32 36 33 21 1 22 14 3 10 36 12 28 21 3 28 26 24 36 26 3 29 26 29 31 5 22 33 0 19 4 11 21 39 35 7 35 17 37 17 21 22 28 19 30 30 25 31 24 4 8 16 26 18 5 22 39 13 14 22 3 38 2 24 21 12 20 3 37 27 31 9 27 10 29 9 15 18 21 1 8 12 13 5 2 23 29 18 18 24 9 34 10 20 12 19 29 33 15 7 35 6 33 8 34 13 7 27 20 36 7 3 3 2 36 33 17 3 38 33 2 31 18 19 18 3 5 3280 3773 2927 4321 4168 3781 3773 2784 2744 3342 3183 3499 4539 3964 3052 2809 3802 3745 4008 4778 4526 2666 3546 4047 2500 3455 3919 3683 3574 3118 3156 3254 2987 4223 4454 3196 4148 3585 3437 3637 2874 3645 3260 4600 2695 3387 4600 3267 4660 3579 2559 4110 4075 4100 2836 4991 2604 3730 4611 3797 3812 4214 3710 4127 4157 3146 2935 4729 4662 4746 3956 4984 2674 3502 4509 3445 3667 3310 3943 4384 3152 3170 3407 3185 3192 3601 3821 4678 2603 3498 3936 4607 2503 2761 2648 3909 2673 3251 4674 4150 4125 2529 4088 4481 4160 4725 2679 2513 3262 2951 4189 4439 3264 4943 4384 4914 3519 3780 4680 3309 3605 3283 3224 3076 3992 4404 3542 3883 3417 2525 2646 3634 4711 3598 4870 3959 3322 2947 3622 3772 4164 2552 4038 2907 4190 4638 4202 4852 3459 3839 3041 3457 4134 3562 3919 3246 3794 3486 4400 4156 3407 4128 2621 2918 4441 4896 2666 3045 4616 4637 3336 3475 3379 4032 2679 4322 2685 3465 3125 3533 2551 2914 4459 3936 4800 2750 3501 4179 3439 2520 3299 4611 3930 3444 4299 3559 3405 4348 3880 3540 4465 2599 2786 4222 2538 4250 4634 4504 4236 4881 3270 2553 3683 4591 4325 4133 3067 2561 4107 3253 2992 3944 2862 4952 4220
15 38 22 15 20 37 1 35 15 14 14 20 7 29 33 24 36 15 10 16 3 30 22 22 21 13 18 19 18 29 3 31 24 14 9 15 1 5 15 21 28 17 19 16 18 15 13 4 21 11 14 31 29 5 5 27 11 19 38 39 12 14 13 16 2 1 29 10 31 1 37 20 25 33 27 12 26 14 26 30 4 1 6 36 24 25 9 39 30 15 14 14 21 10 2 30 26 38 5 37 34 11 39 23 33 26 16 10 5 10 13 16 23 37 18 6 12 5 16 3 33 20 16 22 2 23 35 0 31 35 35 15 14 1 37 32 29 8 19 38 26 28 34 34 23 30 21 8 22 12 20 25 26 3 37 39 30 30 12 4 10 37 38 5 15 9 32 33 26 39 21 14 19 29 19 33 2 38 27 8 32 25 33 25 17 36 13 31 25 5 1 15 25 4 8 18 5 23 25 16 28 21 9 12 8 18 14 10 22 22 12 8 3 3 2 13 15 7 28 21 19 23 4 3 21 3295 3651 3837 4197 3490 2532 2842 3031 4463 3252 3304 3638 3027 4987 4225 4469 3639 2734 4905 4714 3570 4864 4678 4528 3940 4946 3678 2937 4414 3607 2984 3343 3914 2637 3064 4286 3627 3646 3060 3543 3838 4227 3631 3154 4933 4298 4055 3532 3165 4589 2562 4054 3428 2644 4907 4178 4787 4828 3350 3761 4657 4835 4711 3798 2659 4585 2616 2894 4530 3632 2672 3975 4815 4228 3627 3743 4688 4934 3627 2995 4090 4686 4730 4034 3947 4383 2928 3838 2837 3656 2753 2589 3727 4069 3444 4991 4398 4452 3401 3192 3030 2741 4843 4979 3634 3903 3967 4409 2685 3839 4346 4906 4047 4371 3501 4838 4764 3575 3347 2884 4193 4353 4611 3440 3428 4620 3117 3063 3384 4715 2653 3229 3826 2569 4673 3528 4282 3101 2968 4400 3203 3646 2698 3659 3702 3065 3828 2692 2803 4915 2792 4377 2971 3373 3432 3064 3989 3602 3563 4669 3544 3546 2873 2931 3786 3850 4563 3438 2640 4440 2577 3073 4899 3425 3119 3879 2955 2768 3230 3652 4125 2781 3835 3946 3928 3317 2736 4818 3176 4138 4755 4856 3453 3011 2818 2892 3121 4790 4786 3911 4172 3833 3717 4810 3882 4086 2567 2837 4980 3186 4071 4430 4415 3739 4140 2928 3681 3382 2718 2564 4613 4842 3564 3317 2758
23 24 10 24 38 2 5 20 9 4 4 39 33 21 15 6 39 14 20 38 9 14 29 14 36 32 13 16 38 13 38 2 2 32 15 4 21 10 9 7 35 23 27 19 35 12 15 22 12 34 18 16 33 12 38 29 13 22 10 32 30 28 12 13 25 19 33 32 38 34 16 3 16 36 6 22 26 17 32 14 5 36 1 27 25 12 26 39 13 9 22 39 27 31 38 11 22 18 37 11 26 12 9 8 8 5 26 18 31 18 4 16 33 17 38 16 35 35 11 37 11 21 10 22 34 22 2 26 0 36 13 32 1 27 2 25 13 10 37 28 19 26 21 10 3 38 36 4 12 33 27 14 5 32 39 36 4 7 2 30 15 11 3 33 9 7 8 13 5 13 39 34 36 19 28 6 30 15 25 8 22 5 33 3 7 23 4 2 18 18 33 29 36 23 33 26 32 5 10 8 18 13 32 39 35 27 35 38 2 12 29 23 33 23 32 20 32 36 7 29 11 39 8 5 31 3593 3679 4586 3826 4635 4751 4509 3135 4030 4977 3804 4098 3587 4884 2671 4847 3284 4827 4197 4963 4048 2826 4134 4245 4511 2782 4538 4661 3081 2885 2893 3035 3401 4167 3838 3965 4280 4689 4486 2607 3097 3331 3238 4798 2619 3895 4769 3442 3067 4467 2591 3334 3343 4940 3435 4822 2581 3133 3534 3747 4671 2976 4072 3158 4775 3278 3266 4354 3981 3094 3218 4695 4681 3041 4131 4880 3859 3319 3864 4659 4410 4873 2567 4355 4818 4970 3710 3973 3455 4188 3827 3645 3022 3022 3827 3700 3201 3422 3513 4081 3659 2584 3119 4892 2746 3065 2684 2622 2789 4372 4377 3772 4935 4592 3833 4747 4462 3417 3215 3529 4645 3431 3419 2545 3290 4033 4706 4545 4353 3769 4879 3356 3690 4523 3605 2502 4421 2779 3951 3020 3693 3805 4472 4086 4255 4884 4701 4249 4985 4851 2795 3724 3191 4562 4250 4677 4610 4509 4511 2603 3863 4738 3288 4010 3980 3548 3721 2998 3451 4046 4779 2723 3335 2616 3534 3976 4251 2993 3181 4568 4335 3165 3267 4880 4283 4445 3197 2705 3961 2565 4610 3946 3877 4882 2840 4711 3904 4974 4764 3238 3254 4690 4971 3871 3989 3656 2821 3685 4587 3193 4227 4902 3860 3594 3581 2927 2585 3673 3258 3864 3247 3897 3381 4090 3836
4 18 14 10 27 35 3 13 20 31 18 29 9 36 31 11 35 22 3 34 36 34 2 31 4 37 31 4 29 30 26 7 22 24 30 11 18 35 16 33 4 12 18 31 24 4 35 1 27 21 28 11 36 9 26 19 9 4 15 4 33 27 23 38 19 20 9 38 33 18 23 6 36 16 34 1 9 32 33 26 29 16 7 36 10 15 21 20 19 26 20 10 19 35 19 35 19 11 24 36 16 7 1 22 37 1 28 22 17 7 32 21 18 28 32 9 3 2 29 32 19 7 23 13 29 26 3 13 21 0 37 15 5 26 1 11 13 26 29 17 28 9 24 8 3 27 30 29 1 24 11 20 23 31 14 34 14 13 25 22 29 14 32 33 29 20 31 17 39 38 8 16 1 23 3 18 29 39 5 8 20 19 18 15 34 38 13 14 38 19 1 25 12 31 14 14 1 29 8 15 29 38 34 27 15 18 29 13 6 7 6 33 18 35 8 32 20 35 38 26 26 23 5 8 37 2961 2807 3330 3873 3429 4256 3849 3089 3176 2908 4305 4756 3144 15 4562 4367 4401 2593 4482 4829 4332 6 3121 3330 3896 3282 4404 2523 4891 2516 4575 2538 2521 4389 2723 3522 2538 4483 3709 4941 4532 4681 2970 4154 3817 2755 3222 3545 3796 4573 3470 4018 3875 3843 4366 3650 3250 4866 3510 3902 3623 2958 2576 2957 4792 3260 2884 2710 4969 4916 2811 2766 4528 3248 3016 3061 3997 3552 4814 3704 3373 4441 4999 4122 4671 4207 4941 4615 18 4328 4378 4868 3879 2785 3862 3966 3856 2965 3720 4362 3730 3786 2518 4972 4784 4547 2677 3271 2820 3418 3492 2679 2605 2815 4178 4743 4527 3155 3904 2909 3210 4076 3976 2612 3320 2866 4388 2695 4125 4329 4236 3578 2743 3759 3548 4364 4698 2598 4927 4941 2907 3849 3608 4475 2634 4108 4499 2885 3425 3991 4750 4007 3781 4523 3670 4117 3932 2954 3020 3356 3871 4968 3618 3442 3774 4972 3923 3166 3174 3582 4612 4087 4877 3970 2994 4002 4820 4414 3686 2661 2551 3794 3959 2749 4330 4006 4367 3373 2637 4457 3810 3622 3064 4030 2869 4544 4671 4058 2791 3100 2633 3381 3317 4008 4410 3213 2518 3337 2969 2749 4013 3107 4806 4169 3041 4030 3642 3464 4766 4541 2775 4433 3363 3373 2555
14 5 4 16 31 7 37 14 22 12 4 4 10 36 33 21 24 6 13 9 14 20 29 36 25 2 22 12 34 38 33 10 26 34 20 31 31 34 24 8 11 10 13 37 21 22 8 19 19 8 9 20 12 37 2 10 28 2 22 5 10 17 12 12 32 8 8 8 16 38 29 17 2 20 37 4 35 2 3 25 17 33 19 15 2 4 24 33 39 16 10 37 4 12 10 11 31 15 26 30 2 9 19 6 16 28 13 28 30 34 34 31 35 16 4 8 33 26 39 18 14 22 2 31 28 6 5 7 16 20 0 36 2 1 17 29 24 10 6 6 37 29 8 18 7 37 32 16 3 4 29 32 34 23 11 17 22 15 26 20 34 34 15 29 13 15 8 11 21 29 27 13 19 35 33 14 2 17 18 13 13 4 29 28 26 25 8 37 10 1 14 15 14 31 28 10 31 24 30 16 20 11 35 2 37 25 28 27 29 25 32 20 35 1 9 1 35 1 32 12 12 25 5 13 11 4753 4417 4116 2862 3470 3883 2943 3275 2555 4978 4454 3457 2573 4664 3530 3066 4734 4229 4397 2646 3070 2683 3493 4708 4450 3293 2654 3468 4245 4825 3678 3013 2929 2824 2828 4926 3745 4932 3509 4790 4341 3268 3636 3677 4116 4816 3564 3892 3517 2669 4348 2583 3404 3793 4077 3827 3966 3490 2752 4533 4880 2802 3644 3297 3240 4012 3333 4768 4353 3912 3922 4588 2808 3344 4355 2867 3482 2720 2912 3102 2521 4982 3547 3229 3545 2857 3074 4318 3210 3481 3293 4513 3331 3676 4478 2787 2713 4890 3170 4782 4099 2833 4852 3486 4476 3526 2689 3195 3287 4879 2755 2830 3636 4028 4512 2772 3982 2989 4097 4100 2782 4481 2643 3689 3162 3138 4325 3928 4062 4249 2859 4343 4885 4513 4999 2711 4285 2804 3899 3757 3926 3467 3317 15 2506 3895 3482 4426 4871 4701 3086 4284 3938 4726 3319 2988 2912 4374 2658 3502 2516 3629 3028 4750 4661 3267 2901 3582 4612 4982 4790 3109 4338 3883 4314 4176 4958 2985 4920 3923 3766 3041 4841 3585 4269 3388 4695 4689 4151 3971 4247 3762 3668 3125 3000 4199 3271 3329 3884 4082 2642 3306 4724 3793 2759 4090 2655 3987 2822 2513 3221 4554 3726 4640 3332 3732 3583 3538 3299 4056 3674 3264 2666 4742 3568
18 1 2 26 36 15 17 2 25 11 22 8 35 25 35 13 19 26 2 22 23 9 30 19 10 34 38 17 11 25 13 33 17 34 17 15 37 36 38 22 34 37 32 35 33 15 14 30 4 4 13 30 9 1 11 26 22 31 24 9 21 27 28 11 24 25 31 32 9 14 4 16 32 4 10 32 23 6 27 1 38 11 29 18 36 27 7 7 18 36 29 6 16 32 2 15 21 11 12 27 14 23 2 31 38 29 5 29 24 21 23 9 32 17 24 5 4 39 37 25 28 39 24 11 36 17 18 32 27 14 33 0 8 30 30 21 10 22 16 16 33 23 31 29 31 19 33 39 24 33 18 32 13 39 16 21 35 6 5 39 27 11 39 14 21 11 8 39 25 26 10 24 4 27 30 34 35 5 24 12 30 14 21 16 25 16 16 24 7 16 33 35 13 30 9 20 18 5 37 2 29 4 32 20 29 25 15 3 23 21 38 9 28 5 16 30 16 6 6 37 38 22 36 16 34 3334 4636 3141 4872 3529 4652 3060 4669 4629 3577 2766 4638 3587 2751 3108 3591 2812 3254 4862 3575 3003 2720 4641 2610 3979 4228 3806 2794 3854 2943 2787 3891 3382 4973 4648 3592 2970 4521 3405 3967 4593 3855 2574 2913 3956 3791 3062 3491 2845 3310 3095 3068 2872 3877 2996 2686 2606 3495 4075 4594 4548 2994 3546 3845 4981 3213 4267 3207 4992 4239 3254 4723 3147 3664 3484 3719 4478 3828 3615 2915 3886 4643 3118 3722 3704 3946 3846 4406 3451 2699 2560 3502 3967 3321 3646 3822 2556 4924 3484 3748 3909 3615 3535 2579 3430 3341 3103 4345 3374 4539 4342 3743 3163 3551 3155 3796 3294 4489 2571 3374 3373 4246 3858 2917 3899 3126 4616 4969 4033 4301 3045 4277 4975 3736 4712 4855 3647 3003 4148 4151 4028 4579 3476 3079 3070 2848 2866 4961 3668 4914 3075 4815 3860 3755 4847 4770 3526 4833 3077 3722 3774 2986 4229 4029 4670 2903 3763 2955 3422 2503 3392 4633 2623 3328 4819 3675 3415 3298 2981 4235 2804 2788 19 3810 4595 3770 4221 2847 2985 2678 4863 3888 3032 2925 4637 3520 2816 2829 4117 4199 2584 2899 2741 3116 3976 3804 3132 4355 4484 4312 3676 3135 4036 4243 3559 3067 3087 3451 2537 3955 4661 4472 3466 3759 3991
15 12 32 25 5 24 30 16 9 28 22 21 10 6 2 14 39 27 20 2 19 1 2 14 5 9 11 12 3 17 2 25 38 15 8 14 2 31 3 36 3 15 12 13 11 30 36 13 2 22 1 39 35 6 12 38 36 6 19 35 12 6 5 7 29 33 23 36 34 11 31 21 38 8 38 5 21 1 25 17 2 11 33 12 19 14 12 30 20 35 24 31 24 12 33 26 28 25 36 11 24 39 19 15 33 6 39 12 3 34 9 19 12 24 33 36 18 25 36 12 33 3 7 2 36 37 11 33 37 17 11 11 0 23 9 23 8 7 21 1 24 28 8 4 6 17 34 30 1 11 13 17 10 39 22 31 37 8 35 1 19 8 30 22 24 33 29 30 7 11 8 29 18 12 14 4 36 32 21 31 18 37 36 10 39 23 21 23 39 36 4 29 13 8 5 10 11 11 29 25 7 1 23 13 3 37 22 30 7 17 38 39 4 24 20 10 18 10 16 3 7 37 1 24 12 4571 4885 3558 3754 2842 4745 2645 4220 4261 3333 4328 3926 3649 4210 2988 2643 2837 3311 3436 3239 4368 2546 4052 4346 3212 4338 3357 4541 4061 3017 4680 4109 3578 4841 3539 2891 4902 4531 3564 4379 2521 4406 4292 4854 4224 3355 3410 3552 2985 2563 2751 4601 3174 3848 4794 2617 3891 4047 2728 4776 2514 3833 3926 4521 4271 2940 3226 4597 2969 4345 4216 4208 4714 4112 3984 4982 3222 3283 3052 2569 4399 4648 4274 2977 3868 3032 3805 4365 4333 4446 4834 4724 3183 3986 4557 4530 4711 3965 3244 2834 4597 3974 2805 4654 2732 3890 4230 4186 3065 4254 2940 4825 3884 3210 3724 3375 2652 4547 4154 3965 4845 4987 3914 2958 2526 3093 2647 3994 4788 4491 3187 4305 3267 3134 4375 4185 3573 2850 2734 2918 3324 4431 4463 3853 3088 3133 3414 4436 4634 3886 4983 2708 3298 3382 3109 3811 4594 3013 2604 4911 2998 3628 3977 3326 3324 2588 4071 3516 4747 3198 2671 2799 3849 4341 2571 4825 3916 2885 3678 3209 3437 2832 3696 4743 3877 2672 4494 4162 3728 4462 3095 3339 3754 4001 2848 2621 3474 2966 3374 2944 4636 4273 2523 2535 2608 4031 4872 4624 3007 2550 4244 4823 3695 3393 2643 3925 4113 3066 4346 4722 2535 3731 3639 4538 3257
21 6 12 3 16 5 12 30 6 13 19 15 4 28 32 11 20 33 7 23 28 36 5 3 9 30 14 4 15 18 12 3 19 33 3 34 30 10 36 38 9 39 26 12 27 17 29 37 32 19 10 11 6 22 10 2 18 6 17 2 35 13 29 18 24 1 37 5 27 19 38 5 23 36 38 35 1 33 16 36 21 15 32 33 30 25 20 21 30 26 9 34 12 7 25 29 32 38 22 7 32 27 4 5 32 38 13 17 36 11 26 4 6 6 15 3 39 15 7 17 10 17 28 15 25 31 28 24 37 38 27 13 29 0 26 34 17 6 32 36 10 11 9 36 31 25 11 30 14 30 5 17 3 38 35 14 31 22 28 28 20 1 28 18 38 17 5 8 37 28 27 28 38 30 8 14 24 32 21 19 24 25 5 12 38 9 39 17 18 27 6 23 17 13 3 37 38 21 30 31 4 36 5 37 12 11 28 36 3 29 2 22 26 29 28 35 19 37 7 21 36 5 33 16 13 4331 3923 4122 4183 3178 3944 4148 3895 4264 3716 4023 2696 3296 3022 3691 4064 4923 4948 3510 4187 3394 4699 4524 2816 3026 4048 3692 4844 2575 3663 4113 2505 3172 4507 3624 4528 4959 2986 3728 3988 3299 3617 3194 3286 3991 2993 3212 3335 2604 2707 4298 3375 3242 4267 4131 3484 4478 4171 3758 4262 3649 4368 2815 3330 4530 2608 4460 4471 4810 3210 4264 2736 4202 3336 2802 3477 3702 4199 4167 2535 2847 3846 4401 4515 3633 4309 4424 2647 12 4733 4311 4549 4072 2651 3386 3097 3549 4200 2767 3939 4351 4076 4409 3910 2690 3013 2521 4455 3153 3510 3592 3824 3946 3310 2922 3121 3124 3397 3543 2828 3492 3183 4229 3052 4756 4461 4756 4072 3603 3237 2643 3785 4326 4994 3286 3790 4270 3618 3220 2580 3211 4763 4732 4930 4731 3098 4120 3083 3405 3781 3018 3237 3597 4363 4578 3977 4863 3419 3667 3441 2996 4311 4953 3455 3876 3454 4870 2983 3145 3666 3481 2715 3863 3487 3044 2979 3424 3982 3027 4288 3896 2562 3648 4749 4419 3925 3793 2712 2765 4138 3779 3258 3524 3264 3804 4762 3116 3485 3393 2660 4033 4011 4617 3175 3166 4749 3916 2957 4976 3249 4884 4311 4158 3711 3369 3697 3691 3898 3532 4595 3796 4418 4980 3989 4611
32 36 4 14 1 35 25 14 12 17 9 2 5 25 38 26 34 33 5 12 6 11 37 8 17 5 1 23 11 1 35 39 23 25 19 31 35 4 21 3 15 35 15 26 2 6 19 32 37 37 37 26 14 17 20 32 7 20 11 3 12 36 30 36 17 24 37 37 20 11 37 39 6 7 10 26 5 17 18 24 10 21 31 34 9 17 16 22 17 36 39 11 12 11 10 33 34 30 17 28 20 3 3 9 22 17 16 3 25 11 33 21 6 26 33 6 31 36 31 33 22 33 32 7 28 4 37 20 27 12 28 28 14 19 0 28 3 34 29 16 33 35 13 2 21 37 22 4 7 17 26 24 1 5 18 30 26 30 25 24 24 10 17 36 28 18 15 38 22 30 16 38 16 25 31 8 13 2 19 37 4 9 18 11 34 14 38 15 24 22 34 11 36 28 16 30 33 14 34 21 34 32 22 18 37 32 23 19 29 18 27 6 29 28 12 20 30 15 34 27 29 28 12 30 28 3133 3734 3317 3785 4329 3768 13 3979 4940 3520 4809 4085 3253 2716 2682 2561 2836 2785 4406 3251 4349 3121 3944 3440 4413 4563 4695 4977 2824 3695 10 3823 2836 3617 2516 2889 4028 3433 2940 2598 4575 3304 4392 4616 3537 4663 2621 3656 4892 4179 4629 2974 3632 2539 3490 4535 2810 3047 3868 3273 2800 4622 4904 3965 4345 3616 3532 2979 4721 3260 3040 3285 4835 3068 2810 3111 4597 3546 3754 3401 3402 3960 3092 4412 3032 4096 4757 3164 2537 2925 3726 2995 3219 4763 4095 4078 4741 2574 4312 3351 3163 4955 4581 2946 2911 4057 3654 4819 3859 4140 3734 4710 2913 4922 4993 2639 4963 2923 2963 4996 4449 4114 3102 4331 2569 4040 4036 2646 3320 4144 4339 3525 4182 4117 4756 2920 2984 4498 4228 4056 4398 4389 2618 4806 4432 4799 4715 3935 2654 4532 4530 3745 3568 4772 2989 4922 3213 2810 4266 2943 4846 4729 2803 3138 4799 3618 2609 2646 2870 3299 4758 4721 3569 4302 2869 3444 2595 3658 2590 3581 3193 3843 2863 2991 4639 4103 3890 4647 4888 2546 3080 4513 3843 4438 3038 3462 4514 4844 2940 2831 4929 2986 3327 4343 2709 2789 3121 2942 3516 3142 4556 2969 4768 3040 3306 3536 3404 3594 4037 3656 3376 3138 4046 4228 4667
36 2 6 15 32 37 2 30 7 27 21 5 12 4 18 21 20 24 37 36 39 20 11 8 6 19 33 11 31 1 39 24 28 11 6 5 17 2 4 37 20 4 2 28 18 5 10 1 28 31 5 23 23 25 22 8 28 39 5 30 13 17 38 33 39 32 20 3 27 15 18 34 19 27 7 35 26 20 28 26 29 23 21 22 4 6 15 12 35 13 34 16 29 7 36 32 33 16 28 10 5 9 12 29 30 18 38 34 37 1 27 6 27 12 30 27 29 23 5 32 5 29 12 1 11 18 29 7 10 28 32 37 38 8 18 0 3 38 34 19 16 35 35 6 21 20 13 2 18 31 3 15 25 7 29 29 30 12 17 33 18 32 1 28 4 7 12 18 20 35 13 37 29 15 17 25 18 30 26 34 2 22 14 12 18 11 5 24 21 18 11 4 22 34 36 1 27 31 16 39 28 31 30 29 5 29 17 38 24 25 11 35 15 10 12 9 1 7 8 17 38 7 9 19 30 3079 3473 3491 3117 2620 4192 3606 4745 3165 3713 4291 3550 4174 3420 4447 3737 2657 2626 4838 4846 4709 3333 4641 3737 4878 3000 2689 4611 4980 3640 4638 4366 4896 4957 2521 3671 4979 2529 4313 4558 3761 3731 3297 3138 3700 2731 3743 3549 3049 4527 4997 3816 4114 4270 4149 4864 2594 4772 3660 3863 4528 4806 4981 4236 2990 4496 3084 2985 2518 19 3304 4221 4531 4614 3094 4353 2819 3437 3626 3709 4394 3620 4272 3200 2664 3986 4281 2798 2972 4186 4898 4173 3477 4589 2634 4322 3512 3582 3801 4811 4917 4236 2619 4282 4769 3642 3368 2736 4048 4995 3125 4680 3616 2987 4979 3066 2886 3251 3101 4273 4966 3135 4850 4920 3804 4409 3150 4109 2930 9 4923 4217 4376 4216 4528 3075 4672 3983 3304 4361 3093 3394 4001 4434 3985 2589 4335 2952 4697 4989 3470 4927 4805 4681 4752 3544 3874 3486 3331 4372 3501 4655 3645 4083 3936 4961 2650 2928 3582 4645 4321 4394 2820 4917 3740 4346 3029 3985 4208 3096 4748 2814 4680 4889 4272 2842 2500 3752 4414 3626 2506 4351 2578 3441 4519 2610 3333 3624 3627 4086 2614 2508 4069 4610 4825 4623 4269 3063 4986 4957 4210 4489 3186 4467 4912 3272 4782 3307 4550 3329 3411 2527 4065 4634 3806
38 37 14 28 39 4 30 15 8 19 27 29 8 28 24 32 38 2 20 17 31 30 34 39 15 7 34 32 33 24 36 16 37 34 29 26 10 23 16 7 19 22 27 32 12 2 5 35 37 6 19 7 6 33 11 33 34 38 39 31 17 29 33 37 13 25 4 22 17 3 25 21 8 32 27 14 26 1 8 39 14 33 33 5 14 19 28 11 2 21 11 2 13 12 18 13 21 17 6 10 1 31 36 7 37 32 28 24 8 15 10 6 27 31 16 14 19 33 32 32 2 10 38 12 27 27 15 24 9 10 17 26 19 7 33 31 0 29 14 25 22 38 23 24 24 13 27 12 14 22 27 1 32 24 28 38 24 26 31 23 34 9 22 26 23 5 3 31 30 33 26 29 29 7 5 14 3 35 21 6 32 7 8 30 19 23 5 4 28 32 10 28 21 12 4 4 6 11 16 10 33 33 39 12 5 7 7 12 24 9 6 32 6 37 31 22 20 5 32 23 28 29 23 26 11 3777 4819 3172 4662 4171 4848 4516 4645 3201 3215 3949 3101 3271 3827 3177 4734 2689 4837 2749 4325 4636 2886 3279 4591 3232 3518 2839 4324 4962 4170 4314 2554 4368 4115 3113 3119 4204 3466 3253 4247 4930 4816 3921 3533 3487 3818 2731 4115 4733 2809 2712 3443 4817 3503 2961 3645 2592 4185 2858 4181 3954 3817 4904 3787 4174 4764 4021 4549 2534 3150 2552 3778 4785 4272 4537 3116 3818 2803 2974 4298 4926 4910 4357 4180 3049 2585 4463 4377 3059 4151 3062 3902 4661 13 3593 4226 3062 4462 4286 3411 3092 3839 2926 4533 3667 3465 3449 4013 4425 3818 4722 3521 3501 3028 2841 2694 2631 3256 3907 4239 3375 3109 3002 3356 2770 4435 2553 4431 3308 2775 4892 4102 3485 2846 4279 3539 3529 4121 4817 3895 4470 3412 2984 4856 4172 2862 2733 3051 3616 2869 2721 3537 4599 4267 4068 4070 4597 2823 4144 3173 2832 2760 3875 3574 4457 4665 2915 3429 3736 4923 2739 3769 3597 4279 2531 3406 4717 4578 3941 4778 3538 3645 2674 4020 4760 2873 4996 4815 3105 3124 4708 4331 4373 2524 4512 3991 4162 4535 3057 3993 4060 4220 4916 4278 2545 4606 4702 3201 3565 4220 4632 3472 4068 4737 2664 2853 4066 3082 3295 4577 2515 3573 4518 3792 3299
34 7 13 27 28 27 4 2 39 38 30 26 4 4 8 35 14 35 20 4 12 23 14 30 32 1 21 12 25 34 39 34 6 18 28 37 30 27 32 34 33 10 7 8 9 31 16 29 11 29 26 30 23 38 39 25 39 13 8 34 27 21 34 17 8 24 19 26 22 33 7 28 13 37 11 15 30 7 8 1 35 5 17 12 21 8 22 20 14 11 31 28 28 13 2 31 15 34 18 33 34 34 28 30 24 33 23 16 11 32 23 39 19 21 8 31 36 36 13 30 10 3 4 24 12 19 8 18 27 3 27 9 1 31 24 14 9 0 33 17 5 27 5 22 31 4 1 19 29 11 13 16 5 32 16 22 38 31 13 24 21 19 35 31 7 11 2 14 30 22 24 22 27 39 32 28 12 15 11 18 8 30 25 34 7 8 30 13 15 39 26 11 22 35 39 38 30 17 15 37 8 21 5 3 4 36 39 2 27 6 20 1 37 4 8 30 22 20 13 34 15 37 26 37 28 4286 3524 2711 4755 2697 4372 4258 4423 3203 2573 4859 2972 3654 4531 3370 4752 4960 3048 3274 4143 4226 3594 4032 4882 3900 4918 4431 3945 3995 3638 4503 4049 4257 4664 2940 3697 4825 4392 2738 2781 3562 4588 3715 3946 3918 2838 3322 3241 2980 3185 4410 4357 3226 4617 4204 4042 4902 4789 4051 4939 4251 3796 3812 4777 4860 2863 3021 4060 4724 2818 2773 4059 2689 4185 2913 4696 4740 2978 4052 2682 4402 4998 3013 4123 2756 4916 4187 3531 4648 4928 3642 2953 3041 4576 4543 4893 2979 3650 3034 3947 2765 4764 3453 3543 4534 4212 2597 3746 3261 2658 4666 4162 4541 3605 2670 4915 4992 3986 3720 2854 4298 2643 3539 4387 2515 2698 4339 4109 2843 2972 4006 4294 3709 3031 3970 3084 4416 4147 4187 4855 4155 3686 2580 4664 3735 4935 4909 2698 2853 3771 4338 4380 3199 2860 3544 4114 4723 4821 3925 2544 3435 2731 4167 4383 4457 3319 4142 3134 3904 4409 3060 3381 3148 2764 3752 4060 3182 2710 3845 4700 3479 4343 4218 4987 3709 2867 2766 4359 2899 3352 2575 3538 3100 3787 3743 3403 4551 3410 3987 4989 2741 4734 3248 2574 2798 3784 2541 3461 3488 3168 3459 3670 4995 4227 2537 3458 4498 3800 3724 3709 4325 2508 3701 2626 2598
33 14 21 1 23 39 4 5 26 7 11 13 39 23 8 35 16 8 29 7 31 37 36 18 30 3 22 26 6 20 6 36 5 10 27 12 31 9 11 11 38 25 26 8 17 2 22 36 20 37 10 11 38 29 16 33 33 30 6 12 12 19 30 34 32 36 26 28 38 23 37 18 22 36 37 34 32 15 16 32 12 10 36 6 27 5 20 39 36 25 32 26 5 29 9 33 8 36 28 29 3 36 5 15 12 38 13 31 38 38 11 32 27 32 16 1 20 23 2 27 12 33 36 20 24 29 15 10 27 25 11 4 31 29 11 3 38 11 0 16 14 6 36 3 23 25 35 35 31 31 34 27 6 13 36 12 3 34 7 4 29 5 11 2 22 21 37 35 15 38 22 31 25 15 17 2 21 17 32 32 4 30 37 27 28 25 1 2 19 25 37 26 9 26 2 13 15 23 22 38 20 13 25 35 15 32 27 39 37 26 38 4 37 22 16 24 38 7 9 18 12 21 19 34 12 4878 4954 2855 4871 4375 3844 2712 4572 4970 3312 4423 2768 3451 3128 3718 3519 3178 4805 4798 3312 2907 3838 3018 3345 3868 3622 3152 3138 3771 3427 3522 3496 2885 3422 4703 4815 3869 2755 2954 4781 4090 3354 3772 4582 4207 4809 4379 4298 3736 4831 2745 3249 2731 4032 4885 3647 3611 4607 3080 3514 4566 4552 2791 3171 4929 3458 4653 2623 3411 2697 3864 4202 3452 3751 4072 3932 4993 3957 4428 4502 4606 4500 2518 4359 4457 4273 4272 2693 4162 4781 2849 3801 2668 3094 2593 3853 3694 2701 4276 4411 3579 4646 4862 4644 4348 4735 4991 4267 3725 4356 3319 4866 2850 3446 3539 4801 4095 4631 2548 4556 4290 4778 4565 2673 3195 4832 4724 2537 4425 2579 4213 4052 4376 3647 3807 4608 3933 4678 2924 4859 3875 3203 2867 2887 3885 3515 4748 4629 2741 2874 4579 3055 4274 4489 4082 4262 2832 3631 2689 4370 4139 4128 3786 3385 4529 3344 3222 3884 4097 2842 4971 4494 4332 4679 3630 4004 4120 2508 2706 3047 4243 4974 3741 3276 4682 3495 4649 3560 4593 3682 4754 3351 2593 2874 4193 4983 3431 4835 4980 3649 2974 4258 3283 4248 2569 3787 4126 3525 3048 3498 4903 3478 2968 3175 3710 4405 4655 3065 3876 3242 2761 3840 4809 3475 3871
6 33 2 23 36 9 24 22 38 38 17 17 1 27 21 8 23 14 2 27 8 25 27 32 26 8 24 16 5 18 17 38 6 19 22 29 11 15 36 10 14 38 13 10 32 7 20 16 6 30 38 4 12 9 18 38 15 37 17 29 17 6 29 30 18 36 11 27 21 30 17 6 37 24 32 23 12 26 35 27 4 13 1 29 15 35 26 17 10 16 33 36 35 1 1 38 1 14 11 12 29 9 37 10 19 26 29 21 13 11 35 32 3 11 2 4 9 35 4 15 5 18 4 14 25 29 29 24 36 3 25 9 7 13 8 29 23 13 21 0 30 2 3 1 34 33 35 16 28 31 34 31 17 13 23 28 6 18 12 34 7 10 11 29 35 30 21 37 31 27 3 34 25 1 34 19 11 29 17 8 32 39 37 2 3 10 24 28 5 34 8 17 23 16 5 39 12 24 15 23 19 16 24 24 27 10 24 2 3 28 12 36 10 27 13 36 35 32 28 34 23 24 25 12 38 4756 4164 3914 3297 3825 3867 2579 3364 4495 4020 3373 3467 3139 4397 4507 3501 4777 3573 4314 4607 3589 2781 4463 3133 2818 2666 4979 4417 4530 3430 4662 4802 3121 4387 3742 3071 4735 3777 2762 4003 2650 4708 4741 3343 4301 3855 3222 4277 4592 3867 4947 4655 3725 3406 3882 2901 3168 3866 3894 3801 3122 3261 4148 2568 3541 2509 2661 3072 4051 4869 2944 3621 3606 3351 3789 2537 3220 3176 4603 3179 3930 3503 4431 4478 3856 4736 4435 4275 4939 2669 4019 4791 4063 4326 4867 4208 3480 3300 4777 4353 4095 4791 3739 4795 3414 3706 2916 2677 4821 4257 3289 3348 4452 3400 2735 2666 4035 3759 4875 3729 19 4048 2608 3212 4296 3278 3827 4110 3014 4061 4244 3701 4609 4785 2577 4753 3847 3485 3998 4259 3179 4395 4791 4189 3227 3552 3707 4015 3992 4414 2617 3173 4757 4964 2807 2693 4723 3956 3601 4670 4539 4804 4433 4903 4483 2808 2971 3457 3322 3640 4443 2683 4066 4024 3077 4975 2967 4528 3250 3454 3780 3379 3384 4112 3270 4318 3832 2616 3872 3274 3824 3073 3597 3540 2820 3532 4579 4749 3718 3006 4534 3012 4853 3539 4438 3299 3461 3822 3886 4440 2858 4240 4070 4724 3954 4847 3209 4760 2538 3093 3128 4955 2905 2635 4457
4 10 15 10 30 19 17 38 25 37 17 38 33 33 5 4 28 22 21 4 31 7 18 5 29 4 17 10 10 1 11 16 28 36 21 1 10 14 10 35 3 26 5 34 13 5 8 27 22 14 39 14 32 39 26 27 30 9 29 12 6 34 1 17 35 11 11 34 6 15 28 37 30 37 17 12 3 8 10 22 26 37 12 32 22 34 19 35 16 22 33 14 11 26 36 24 11 27 4 6 10 33 9 37 34 3 5 32 20 15 7 20 1 9 9 26 27 2 20 17 28 30 35 4 27 35 20 22 12 16 12 14 12 32 32 27 34 33 37 36 0 17 24 8 36 33 31 33 16 10 16 32 12 38 35 38 28 8 11 20 38 30 18 23 19 15 17 31 3 1 19 12 23 14 24 22 31 24 2 21 18 35 35 13 33 13 37 26 13 31 12 38 22 15 23 21 32 31 2 5 18 27 33 15 30 8 16 25 10 25 35 2 34 9 31 9 9 30 9 25 3 30 12 19 12 3539 4591 2844 4309 4350 2641 4862 2507 2765 3156 3584 3104 2988 2936 4404 3776 4465 3913 3420 4005 3936 4553 3301 4114 2718 3082 3190 4083 3740 2624 2951 4067 3845 3400 3625 3278 4962 4282 4451 4182 3334 3299 4790 2847 3381 4519 3624 3457 4013 3068 4843 3323 3631 3872 4805 2949 4960 3346 3200 2761 3712 3732 4815 6 3573 4556 3618 4925 6 3315 2732 3430 4702 3706 3037 3476 2755 2549 3744 2896 3820 7 3829 2694 4264 3046 4815 3449 4263 4999 4711 2819 4971 4512 2594 2581 4652 2860 2750 3412 3850 3275 4289 4046 3060 4902 4505 2572 4971 2957 2583 2526 4044 4667 3731 2782 2998 3090 4467 4116 4249 4705 3637 4599 3754 4858 3416 4318 3326 3236 4422 3295 4668 2689 4775 3456 3387 3416 3339 3824 4039 3044 2700 3917 4732 3614 3626 2515 4285 2528 3219 3450 4771 4405 3081 2723 3057 3015 3733 4790 3611 4686 2911 4527 4023 3011 2555 3722 3988 3856 4343 3904 4385 3254 4975 3999 4793 2620 3660 2884 3391 3314 2757 3805 4571 2785 4913 4493 4345 4791 3390 2751 2797 2771 3132 2962 3017 4880 2784 3397 2634 4927 3291 3396 3311 4743 3786 4049 4093 2968 4884 2542 3083 3473 3184 3610 4496 3911 4879 2663 2856 4001 3874 4764 2578
21 21 13 32 27 24 32 30 34 23 20 27 13 33 30 2 34 17 17 34 7 1 10 34 11 15 9 11 36 33 1 8 20 2 21 20 22 20 15 16 27 6 8 25 32 5 9 37 36 22 2 34 9 5 37 21 24 9 18 11 24 1 38 30 15 28 13 2 20 27 31 3 28 1 34 5 5 5 4 35 28 29 25 7 7 6 13 4 4 2 33 22 15 1 35 28 20 10 37 18 27 28 1 19 19 5 12 30 29 11 30 39 18 3 36 22 22 18 14 16 18 37 25 34 20 38 31 14 32 12 32 36 38 31 24 3 1 17 23 33 18 0 35 32 21 20 10 37 24 14 17 3 39 26 26 8 20 1 5 37 4 2 17 6 21 19 21 1 35 27 1 26 11 36 3 3 25 3 39 36 22 27 37 36 24 35 16 1 37 32 15 37 26 25 24 26 10 16 38 16 1 23 5 28 14 37 19 18 35 1 6 9 12 9 14 4 37 35 26 13 34 7 33 19 13 4714 3638 3093 2925 3023 4114 4356 4448 4048 3200 3696 3725 4966 2746 2822 3026 4598 4477 2970 3587 4356 4056 3378 2616 3940 4055 3896 4391 3352 3121 4540 3468 4101 4343 4918 4261 3401 2585 4021 2997 4438 3785 2545 3282 3858 4942 3740 4127 2886 3058 2971 3475 4126 3972 3919 3829 4236 4858 3636 3922 3682 3622 3616 3407 3512 2593 4318 4084 2904 2663 4404 4598 3028 4887 4565 4077 3279 4002 3648 3202 3128 2582 4434 3170 3147 3888 3030 3540 3058 3374 4384 4747 3570 2935 2784 2867 4271 4877 3958 3830 3458 2719 4584 4863 2616 4158 4322 4350 4293 4230 2631 3999 4304 3233 2651 2769 3181 3271 3243 4258 4603 4963 3245 3322 3850 4825 4968 4134 3467 4282 3590 2752 4465 3876 4474 4565 4608 2580 3441 4598 4064 3191 2929 2656 3865 3509 3389 3571 3862 3286 3004 3455 2826 3805 4754 4690 4706 4634 3460 4058 3733 3346 3560 3593 4138 3607 4199 3574 3972 2934 4479 2733 4404 3657 3809 3827 4575 4974 3671 4619 2543 3111 4680 4063 3520 4266 4427 3478 3052 3022 2658 2964 4187 3915 3487 2668 3365 3813 2590 2576 4980 4122 4266 4894 4374 4194 3653 2513 3307 3111 3649 3622 3313 4029 3855 4297 3377 2684 4351 4788 2761 2812 3323 3005 4731
21 31 20 35 18 15 9 9 21 26 12 34 26 19 12 18 1 30 23 5 22 24 19 9 27 32 4 12 37 38 11 18 28 29 12 25 32 36 30 39 4 20 2 8 37 16 1 21 17 13 13 2 4 5 13 28 39 2 22 10 30 11 9 6 11 28 32 13 27 33 17 13 9 29 1 10 34 35 6 26 16 12 26 30 38 13 1 31 25 7 4 20 31 12 13 7 25 2 12 38 13 27 2 38 22 28 29 36 36 27 30 18 13 10 3 4 25 9 39 20 38 37 11 33 30 27 28 14 4 39 13 17 32 21 38 9 34 33 36 31 3 37 0 15 35 29 39 11 35 19 15 9 22 17 29 24 1 8 10 12 32 38 23 14 17 3 38 31 26 36 39 1 33 36 36 5 4 25 38 37 21 14 10 7 25 25 26 1 20 19 36 5 9 15 2 29 34 30 38 5 33 33 12 3 36 7 35 4 39 19 1 1 34 11 22 29 23 8 21 7 11 25 18 9 27 4744 2854 4086 4434 4137 3635 3071 4987 3050 4479 4513 4490 4507 4341 3291 3697 3639 2626 3061 2730 4890 4464 2982 2758 2922 3443 3095 2689 3518 4625 4632 4113 3596 4820 4412 3491 2655 3573 4626 4451 3789 2558 2725 3367 3870 4674 4814 2556 3776 4360 4614 3239 3158 4519 4540 4528 3564 3926 4304 4351 4177 4524 4851 2792 4599 4245 2705 4975 3520 2777 4212 4660 4551 3909 4776 4911 4587 4701 4002 4778 3419 4527 4633 4853 2976 4779 4105 4762 3175 3823 4526 3724 4170 4841 4945 3081 3696 4128 3530 4061 3204 3737 4185 3970 3392 3667 2674 4453 3437 3955 4846 4720 4173 4637 4495 3970 3819 4602 3188 4875 3201 4183 3500 3548 3405 5 4903 2990 4233 3597 3117 4789 4964 4064 3521 3436 3472 4214 3514 3197 3194 4210 4935 4785 2878 4767 4360 2680 3140 2710 3728 3226 3861 4291 3647 3097 4387 3569 4270 4390 3936 4627 3303 4421 4910 2583 3113 4339 3481 2980 3391 3091 4126 4753 3362 2724 2563 3673 4818 4637 4873 4863 4429 3457 4773 4424 3734 4714 3079 3291 4538 3572 4826 4956 3636 3549 3385 3896 3029 3355 4750 3293 4274 4471 2632 4700 3956 4028 3687 4525 4948 2998 3347 2702 2978 2892 3403 3596 2934 4319 4946 3996 3265 3084 4457
23 12 9 31 30 33 22 35 32 7 9 12 15 30 17 17 27 10 35 10 19 23 32 21 31 9 4 12 1 36 10 18 15 19 37 6 33 2 8 34 29 39 9 26 20 29 19 5 20 8 14 28 10 13 31 24 26 7 21 21 24 30 37 39 39 8 1 29 29 29 30 4 28 21 18 33 27 20 32 23 29 22 4 19 31 25 36 33 9 7 26 17 39 37 11 23 25 2 18 35 12 7 21 17 32 12 35 29 25 26 25 34 32 25 3 37 29 27 37 13 34 33 39 23 23 20 16 21 5 28 34 8 9 24 22 8 28 9 9 34 34 15 1 0 13 13 4 21 26 31 21 5 1 17 15 36 18 31 38 12 10 11 3 13 15 35 24 31 17 18 11 29 28 5 18 26 32 33 36 6 27 30 8 38 39 27 3 34 39 1 7 27 9 2 33 9 36 31 3 6 35 31 13 31 34 19 33 34 39 26 39 29 9 2 14 30 3 5 37 37 16 31 19 5 17 2823 2986 4431 2767 2518 3027 2926 2831 2866 3858 2547 4936 3879 3803 4017 4388 3709 4227 3531 3793 2644 4876 4600 4816 3196 2677 3408 3347 4278 4640 4284 3488 2515 3231 3981 3573 3482 4789 3271 2673 3163 4364 3595 3022 2854 3334 3132 4725 3620 4492 3563 3229 4055 3494 4822 4495 3212 4056 3764 2677 3427 4174 4607 3807 4652 4519 4506 3086 3247 2540 3844 4330 3437 3184 3283 2995 3095 3544 3814 4798 3709 3241 4069 4628 3053 4286 2515 3061 3640 2706 3903 2859 3498 4281 4618 4973 4045 3714 2684 4227 2990 3543 4876 3182 4455 4832 3609 4736 3811 4442 4991 3331 4773 3994 3416 2642 2866 2657 4028 3622 3457 2536 4199 3869 4006 3511 4846 4380 2515 3694 4799 4288 4135 3294 3467 3270 3409 3488 4727 2538 3178 3072 3837 2721 3824 2534 4841 4754 4982 4902 3978 2694 4490 2934 2753 4581 4785 4119 3739 4467 3792 2808 2715 4413 4498 4852 4632 4174 3908 4378 3171 3997 2582 4031 3478 3559 4511 2743 2937 3049 4652 4497 2531 4125 4963 4076 3941 4741 3157 4019 4210 2977 4267 4720 4177 3673 3544 3189 2556 4645 3137 3802 3074 3372 4834 3397 4004 2535 4066 3122 3057 4023 3388 4363 4416 4933 2914 4396 4773 4528 4857 4575 3662 4443 4444
24 16 14 6 23 21 8 38 30 24 3 26 14 4 25 30 2 29 4 21 11 35 5 29 38 31 37 26 37 13 12 8 16 16 5 34 35 15 30 32 16 25 14 21 8 39 36 38 10 22 23 35 25 9 28 1 34 6 26 32 13 30 27 18 12 31 12 13 33 24 10 21 39 33 32 13 18 36 20 16 37 25 23 18 19 4 20 10 39 15 30 29 38 19 39 32 38 17 7 28 14 29 34 22 32 5 7 10 35 24 35 4 11 38 16 39 7 34 28 31 33 37 38 32 37 13 11 25 12 30 36 38 21 35 10 4 10 38 20 25 36 31 36 21 0 35 25 19 5 9 30 1 39 18 39 13 27 10 22 7 39 25 36 31 29 11 23 9 10 28 11 17 33 21 14 27 13 12 10 3 23 5 3 9 31 14 39 36 36 23 36 21 17 9 32 24 4 10 13 15 8 5 17 33 4 39 27 25 30 10 16 30 21 33 4 26 36 30 33 3 15 22 23 4 14 3338 3831 3991 2637 4142 4281 3767 2662 3199 3290 2697 4185 4087 3699 4442 4361 3968 4189 3237 4569 4231 4984 3026 3284 3894 4032 3168 4563 4386 4052 2913 4844 3690 3941 3097 4666 3482 2690 2947 4630 4892 4399 2533 3739 4000 4214 3384 4713 10 4632 4676 4371 4648 3613 4222 4250 4534 3576 2734 2817 2724 4159 4897 2935 2561 4274 4639 4529 3177 3932 4341 3526 4772 4813 3027 4831 4936 2658 2803 3422 3131 2522 4216 3850 4132 4484 2894 4243 4765 3599 4363 4880 4644 3106 3652 4795 2954 3910 3206 4887 4690 3753 4684 4151 2521 3586 3730 4273 4049 3851 4386 3562 4595 3142 3939 3864 3009 3790 4055 2676 3099 2680 3626 4620 3045 3331 2547 4508 4429 2881 3205 3048 2632 3003 2745 3826 4589 3294 3885 3841 4542 4105 2668 3642 4968 3469 3890 4224 3013 2974 4346 4407 3549 4308 4088 2991 2634 4107 4826 2795 3791 3521 3653 4902 4959 3227 2952 3463 2599 3410 19 3860 4882 4546 2637 2890 4127 3250 4643 3100 3784 4395 3607 4972 4643 3429 3073 3718 3586 4190 3886 4003 4870 4235 3232 3851 2831 4527 3821 4585 4290 4478 3513 2654 4588 4894 4683 2991 3878 3641 3259 3806 2879 3091 2508 2905 4544 3824 3239 3010 3559 4074 4849 3884 3272
28 8 25 9 28 19 20 22 7 4 32 32 29 27 6 16 38 3 31 8 24 25 25 21 33 6 3 31 14 15 3 12 22 1 38 30 4 2 37 34 7 13 12 12 36 36 35 32 6 12 35 33 24 37 16 16 16 3 33 19 32 7 22 21 31 14 22 37 10 24 26 9 1 35 25 39 19 23 29 22 17 2 15 16 28 34 2 21 38 12 15 13 25 3 3 5 28 28 31 2 2 30 22 14 16 15 26 14 4 34 3 23 32 7 20 8 17 32 39 9 8 26 16 12 23 3 4 8 13 37 26 14 4 2 37 19 37 9 8 29 4 13 12 5 29 0 1 35 33 17 1 24 2 10 29 39 24 9 37 13 16 27 31 36 15 11 19 26 6 2 30 17 36 2 19 38 5 6 25 18 31 39 33 32 38 13 4 13 16 11 3 8 38 6 39 33 37 27 32 38 7 10 38 32 12 31 13 2 14 20 21 36 17 35 14 26 6 23 12 19 38 4 1 30 32 3132 4227 4904 3632 2652 4790 4136 2717 3856 4003 3087 2903 3957 4217 3963 2993 4687 3316 3678 4589 3650 4897 3532 4513 3414 3038 3532 4060 4069 3021 2579 4112 2594 4501 3175 3897 4650 4164 2779 3602 4827 4479 4231 3887 4183 2816 2971 2857 19 2630 4668 4309 3742 4112 4210 3501 3383 2946 3284 4649 4333 4326 3512 4328 3535 3658 3553 3920 4216 3860 3740 4374 3255 3877 4715 4965 3406 4787 4461 2808 3318 4469 3510 3125 3277 3073 3489 4290 4677 3375 3551 2585 3838 4395 3401 4113 3048 3172 4449 4365 3738 3759 3215 4081 3093 3410 3503 2884 4628 4673 2534 2765 3452 4120 2705 2673 3000 4319 2848 2610 4634 3884 4270 4885 4192 2601 3285 3556 3684 2798 4376 4188 3793 4290 4159 3865 4750 4935 3006 4062 4689 2619 4453 3151 3402 4263 2985 2513 4840 3650 4138 2945 2950 4699 4495 4480 2652 4459 3715 4221 4123 4278 4722 3493 3744 4046 4611 4864 4250 3640 4857 4428 4095 3055 3678 3847 3654 2839 2894 3491 4624 3169 4840 3032 4452 4106 2539 3290 4584 2727 4759 4609 4691 4297 3799 3250 2804 3934 2524 3458 3015 4320 2768 2915 3008 2773 4522 4272 2701 3813 4922 3483 4793 4905 3580 2577 3236 4429 4164 3926 3566 4426 4265 4484 2803
21 24 4 24 13 18 26 14 37 18 26 38 33 29 28 19 9 13 14 3 36 19 27 25 33 9 31 34 19 31 8 24 1 34 4 39 21 18 12 31 15 13 34 2 15 37 38 3 7 35 12 4 36 39 7 1 10 20 17 36 3 23 12 33 21 30 21 18 20 19 18 8 36 38 36 32 15 22 4 35 37 30 6 19 27 32 28 31 18 1 4 1 13 24 15 21 37 7 18 28 22 34 13 6 16 5 5 20 1 35 27 6 1 22 34 24 12 26 32 25 39 27 8 5 28 26 2 11 15 33 22 28 2 8 7 21 31 25 4 25 32 14 35 35 5 20 0 11 35 33 4 3 18 36 11 17 39 30 27 26 8 1 27 12 10 16 12 28 31 4 23 32 16 34 8 15 13 26 19 19 24 13 37 32 31 14 39 6 34 9 15 21 28 26 29 14 15 17 22 20 38 30 24 28 29 15 26 28 25 25 29 22 12 33 4 2 29 26 36 13 29 8 24 34 4 2998 4455 4727 2620 3217 2971 2759 3387 2649 4138 4346 4361 4351 4387 4639 2878 3949 2504 4347 3223 3628 4104 3527 4332 3376 4979 3671 2544 3984 4144 3122 4156 3264 4901 4312 4223 3995 3173 3764 3412 3548 4972 4974 3390 3110 4240 2760 3173 3375 2605 2694 4761 4421 3310 2655 2890 2700 4847 3771 4119 4261 3231 3008 3981 3521 4826 4512 2924 3415 2638 2791 2665 2537 3170 3495 3212 3284 4561 4491 4091 4012 3261 4692 3153 2553 3188 3322 4978 3102 4175 4968 3765 3492 2977 4172 3105 3372 3666 3650 3056 4353 3920 2606 2526 3805 4868 3630 3704 3130 3307 2750 2782 4547 2888 4595 3062 2978 4651 4633 3401 2592 2781 3697 3565 3797 3431 3900 4683 4888 2739 2740 3509 4426 2834 3345 4073 3525 4174 3720 3974 4392 4777 4084 2740 10 3163 3098 2764 4325 2991 3189 3195 2899 4507 4127 3646 2991 3146 3528 3872 4150 3816 4177 2910 2940 4331 2636 3313 4342 4915 3445 4984 2653 4441 3779 2533 3033 4350 4390 3693 3959 3556 2764 4438 3248 4996 3313 3919 4996 4570 4096 3425 3739 4359 3265 3563 4546 3822 4010 3566 2829 4618 4264 3407 3578 4614 3310 2724 4506 3387 2915 2716 2784 2635 4180 4061 3412 4017 3848 4203 4098 4052 2723 4903 3601
15 30 39 32 11 39 38 37 29 16 25 30 15 35 35 3 8 27 24 16 24 16 18 24 15 11 5 13 15 36 2 2 26 28 18 18 29 32 6 39 30 26 18 16 26 31 22 10 36 28 26 31 25 22 30 5 23 3 4 12 18 38 2 18 5 30 4 30 4 7 13 30 4 11 14 36 32 7 2 32 11 13 23 5 37 28 28 37 21 6 9 14 35 5 16 10 15 33 11 33 28 15 12 3 9 38 2 24 26 13 18 15 38 8 8 10 36 14 4 1 14 30 25 29 18 33 28 10 38 35 25 7 29 2 18 21 6 28 38 38 35 16 21 11 22 26 21 0 34 34 8 5 14 2 22 3 30 10 14 37 25 12 9 24 38 4 29 26 25 17 10 34 18 26 35 13 29 9 26 19 15 12 1 1 24 8 39 35 36 3 2 3 14 18 29 38 32 12 21 31 11 26 22 21 3 13 13 6 8 14 22 32 21 35 16 2 1 14 2 32 34 24 15 16 9 2651 2854 3339 2965 4874 4815 4357 3853 3955 3724 3472 2675 4611 3139 4468 4569 4576 2566 3466 4342 3374 4163 2893 4112 2635 2640 3839 4663 2774 3088 2806 2927 3180 3662 3715 3681 3839 3847 4900 2986 4577 2850 3680 4814 3392 4575 4917 3094 3380 3481 4056 3444 3210 2722 4739 3138 4932 3904 4718 2625 3861 2889 3320 4045 4316 2615 3310 3908 2668 4488 4774 4319 4065 4583 2896 4426 3394 4157 2802 2941 3873 3183 2770 3423 4986 4649 3210 3172 4886 4644 2949 3350 2621 4883 3502 4583 4550 2765 3499 4888 2546 4265 3382 4134 4262 3199 4638 2810 4097 4430 3417 3425 3090 4041 2617 3945 2603 4863 3059 3898 2676 2681 4347 4661 3116 4115 4785 2863 3759 3323 4141 3226 4007 3808 3326 3552 3732 3098 3787 3396 2695 4175 2570 3644 4044 4340 4082 3552 4866 4015 3095 4466 3892 3781 4160 2795 3698 3661 4195 4037 4466 4116 3678 4929 4714 4249 3863 3654 3527 3815 4548 2594 2826 4854 3349 4929 3178 2533 2999 3312 4912 2656 3474 3752 2828 3406 4676 4974 3264 3593 4969 4248 2822 4509 3266 3141 4470 4395 2756 3154 4785 3987 3901 2837 4904 3515 4387 3359 2632 3834 4175 3027 2779 4988 4954 3627 4148 2797 2680 4904 3751 3183 4553 3414 3198
14 5 37 36 35 14 33 17 5 24 35 34 17 35 19 7 5 20 20 24 13 8 30 30 4 31 15 27 13 12 6 12 17 14 4 2 32 25 10 15 28 14 14 8 6 19 28 24 39 17 34 22 35 31 33 23 20 37 34 25 29 24 38 31 39 7 8 13 25 8 8 32 22 8 35 9 23 12 19 6 24 1 4 35 14 32 28 38 34 5 36 34 18 21 29 37 22 4 31 25 25 35 33 14 28 9 5 28 28 16 4 21 32 25 21 27 33 20 21 11 17 33 32 13 34 21 12 10 25 7 3 38 11 7 34 1 28 19 27 17 26 16 8 3 8 27 39 22 0 25 6 33 22 36 6 13 39 23 11 9 5 7 12 30 39 36 30 34 8 34 6 6 9 36 14 27 13 1 23 36 27 9 1 25 35 6 16 29 31 2 31 16 8 11 3 22 8 32 8 36 21 22 15 9 26 28 9 10 24 38 19 31 24 4 8 35 16 1 30 37 38 10 26 28 18 3603 4021 4596 2606 3817 2928 3677 2959 2767 3152 2888 3811 4731 3597 3351 2807 3645 4772 2670 4232 4048 3390 2608 2689 4450 4088 3449 3192 4699 3031 3876 2652 4482 2913 4273 15 4595 3578 2509 2997 4577 3123 3231 4910 3808 4111 3422 3588 4129 2911 4080 3095 3526 3554 4210 4990 3417 3436 3513 3390 2785 4249 2774 3495 4506 2837 4432 4737 2533 3890 4804 2947 4958 2773 3995 2751 3960 2892 2638 4404 3518 4986 4964 2587 4444 3704 3419 4718 2506 4225 2648 3041 4713 2872 4314 3164 4996 4131 3872 3128 3624 2735 4981 2904 3271 4914 3914 2516 4220 3270 4650 3225 4725 3222 2971 4666 3765 3798 3144 4561 4865 4602 2618 2561 2703 3679 3437 2734 2735 4335 4145 4790 4124 3802 3209 4189 2704 3528 2757 4018 2557 4032 4530 4131 4459 4005 3974 4502 3999 3358 4078 2738 3704 4053 4943 3093 3907 4925 4769 4332 3381 3049 2786 4414 2575 4459 3225 3352 2636 4544 4668 4695 4319 3670 3083 2944 3617 2768 4210 4786 4822 2539 2575 3571 2840 4846 4796 2594 3349 2598 4522 3747 3347 2787 3845 4351 3106 4082 4750 3848 4253 3046 2579 4932 4772 4197 3305 2894 4431 4841 4297 3899 4362 4602 2577 4112 4595 2508 4651 2615 3511 2659 4838 2862 4835
17 7 13 15 39 26 34 7 8 13 24 7 18 23 39 23 23 2 1 28 3 31 3 37 24 7 31 1 27 4 20 23 12 39 19 14 8 24 1 10 3 13 28 32 23 9 8 32 19 28 27 29 26 18 6 21 39 34 35 12 4 24 22 20 35 35 27 9 22 37 9 18 33 31 9 37 25 29 33 15 29 32 21 30 21 17 14 38 26 19 7 14 34 27 15 4 34 26 10 37 18 20 24 32 34 19 19 21 20 12 15 34 29 32 13 1 26 2 11 10 10 21 5 18 16 3 15 32 25 19 9 39 12 23 35 21 30 4 31 6 19 11 34 28 6 5 13 25 35 0 38 10 18 27 9 32 9 36 24 21 36 28 30 21 36 26 16 21 24 31 36 25 7 10 25 12 30 31 9 21 5 25 2 23 27 19 37 20 17 21 37 9 39 5 39 27 1 29 27 9 6 29 31 32 25 29 11 15 11 2 38 29 29 7 7 9 13 34 20 28 26 39 22 10 24 4509 4401 2621 4266 4622 4357 3679 2896 4266 4848 2852 4526 3046 4592 3839 4491 4169 3023 4209 2963 4251 2706 4749 3511 4815 4342 4095 4156 3021 4458 4016 4351 3132 4169 4412 4197 3638 3084 3555 3597 2847 4725 2961 2652 3389 4272 2683 3634 3347 2993 3604 4172 4039 4848 3791 3979 3562 2851 3077 4898 4975 4276 4694 2559 3844 2725 3558 2503 3089 4014 3403 4860 3983 3414 3331 4465 2614 2906 4272 4383 4246 4100 4358 4104 4089 4961 4737 2870 4421 3166 2977 3988 4145 2619 3509 3148 4600 4282 4304 3242 3746 4210 4058 4174 3635 4846 3009 4107 3648 4179 3748 3946 2562 4741 3173 2756 3960 2927 3965 4890 3700 4905 2884 4507 4196 2654 4538 3627 3490 3135 4901 4364 4351 4892 4063 2652 3421 2683 4888 3392 2852 3868 2696 3675 4364 3654 4449 3337 3853 2788 3541 2689 2789 2613 3161 3452 4375 4499 4973 4834 3500 4275 2635 2979 3917 4794 3904 4134 3540 2837 4748 3784 2557 3279 3713 4770 4462 4348 3672 4514 3768 3098 4965 4547 4742 3107 4773 4828 3919 3102 4637 3192 15 3687 2926 3946 4802 2555 4754 4189 4303 3781 4760 4272 3097 4772 3285 3803 3908 4179 2512 2714 4767 4519 2669 2941 3345 4579 4258 2635 3876 4990 3485 4682 2595
34 23 6 4 34 1 39 7 11 20 10 37 34 1 3 2 19 19 25 35 24 25 31 10 36 9 8 7 30 2 32 3 24 34 5 20 16 24 36 26 38 27 13 38 5 21 25 19 8 31 11 33 26 13 23 24 30 22 23 29 37 23 34 4 18 19 20 8 4 3 9 13 27 38 24 37 16 39 6 33 28 2 27 5 21 6 21 14 4 39 13 28 8 18 1 29 20 27 4 18 23 13 33 37 22 32 16 19 4 28 21 23 33 9 23 27 36 12 11 11 4 36 39 6 11 39 19 18 16 39 1 37 19 9 3 14 38 15 15 2 33 35 39 33 16 38 3 10 9 1 0 10 17 8 11 16 10 36 6 33 28 4 4 6 33 3 39 37 17 18 24 13 23 37 36 10 3 2 17 18 5 21 10 12 25 21 21 5 7 27 5 13 27 12 23 31 22 31 11 11 39 38 29 11 7 20 30 21 14 14 13 35 3 22 32 9 16 24 7 26 15 29 5 14 17 4035 4008 4048 2612 2896 4710 4801 2761 3621 4688 4154 3979 4006 3485 4114 3849 4862 3414 3540 3670 4693 4201 2563 2596 3537 4039 3108 4236 3519 3412 4011 4834 2962 3060 3797 4913 2657 4065 2613 3574 4995 4939 4768 4633 3761 4138 2725 3789 3524 3764 3554 4504 3249 3596 4253 4501 4620 4852 2533 3381 2600 4985 4725 2877 2728 4008 2649 4575 2588 2572 4491 3299 3180 4106 4140 4949 3993 3067 4959 4494 3860 4598 3411 4923 4400 4668 4093 4963 3073 3153 3817 2588 2729 4731 4352 4732 4798 3746 3572 4847 4303 3660 3358 2707 3075 2805 2970 4511 2552 2817 3286 4548 3095 4134 3018 2841 4949 3202 4108 4581 4747 4101 3094 4657 3215 4681 4309 4806 3697 3298 2550 3201 4101 3397 4967 3762 3057 3256 3949 2651 4857 2665 4925 3254 4039 4558 4195 3816 4166 4660 3279 3064 4242 2718 4209 4674 3501 4429 4098 3702 4113 2915 2837 4268 3540 4451 2759 3041 2816 3841 4174 4197 3215 3331 4519 3867 4379 3182 2901 4540 3986 2958 4641 4240 4511 4897 4044 2989 4477 4983 3260 4996 4958 2926 4031 2673 3899 2516 4470 4687 3245 2857 4455 2968 2534 3060 3999 4982 4259 2731 2711 4233 2549 3509 2890 2533 19 3898 2679 4651 3174 3577 4664 3466 4194
19 16 12 34 4 6 37 30 14 24 11 6 1 27 24 24 17 38 8 26 19 33 14 37 24 18 28 16 15 13 13 39 9 29 32 29 10 19 11 12 4 32 20 36 35 36 38 29 13 13 24 3 5 22 17 2 17 1 36 28 17 7 13 35 25 1 13 39 26 31 15 7 33 9 17 33 26 16 28 17 23 32 25 31 12 23 37 9 34 19 27 18 33 17 36 9 17 8 3 2 10 31 7 29 2 4 38 34 29 21 15 31 2 26 11 20 12 16 3 7 8 2 6 38 15 31 18 1 15 30 6 22 11 19 8 20 34 33 25 3 11 37 32 29 21 20 13 2 4 28 28 0 36 35 6 33 3 32 24 2 4 11 36 9 12 12 16 11 6 23 34 18 23 2 22 23 25 21 33 8 20 36 14 23 38 15 38 21 26 23 22 35 16 38 17 27 25 34 20 17 28 33 5 20 3 10 6 26 11 9 26 1 5 30 26 39 18 27 4 32 25 14 18 27 3 4379 4561 4715 2925 2853 2896 4886 2682 2744 4173 4532 3110 4521 2703 3725 4734 4111 2775 4530 4833 2525 4433 4346 3619 2902 3446 4657 4943 3282 4922 3065 2794 3110 3720 3382 3097 4879 3042 4742 3732 3845 2893 4918 3147 4500 4649 2986 3036 4542 3466 4184 3483 2641 3910 4996 4878 2748 4128 2951 3033 4133 4087 4757 4413 3425 2752 2598 3274 4939 4484 3324 4175 2715 4772 3227 3135 3461 4338 2809 2509 4545 4571 4496 3379 4805 2727 2788 4769 4015 3308 4141 4837 3326 4783 2828 4458 4821 2702 4383 4201 4603 2930 3742 3209 3296 3218 3033 4595 4147 3430 4463 3457 3910 2546 3728 3948 4518 2977 4879 4719 2976 3584 2596 3318 4761 3617 4378 2550 4321 3953 2862 4421 2827 3297 4379 4420 3190 2779 3486 3838 4341 3229 3052 2711 4284 3533 4725 2713 3142 3041 4207 4442 4340 4782 3900 3850 3870 2937 4926 4090 3884 3041 4935 2903 4124 4705 3662 4588 3421 3974 4205 3215 4563 2704 3846 3450 3860 3371 3119 3706 3809 4001 4025 4145 3792 4920 2882 4085 4209 4732 2558 3455 3689 3222 2962 2924 3620 4019 3763 2878 4114 4582 4946 3463 4893 3143 3802 2914 4734 3504 3275 4745 3571 2721 4938 4976 3938 2794 3619 3906 4321 4293 3469 4768 4597
10 3 8 20 8 11 15 23 24 4 1 19 4 39 12 25 28 24 38 12 15 23 23 10 17 21 39 2 25 18 23 25 2 3 30 30 34 38 22 8 32 11 29 29 35 2 13 8 28 33 29 3 32 17 10 19 14 16 2 33 4 20 24 6 24 2 29 14 4 7 30 34 7 4 21 35 12 37 24 20 31 14 38 23 15 11 34 34 18 9 18 7 35 5 10 33 8 39 36 34 22 25 31 20 14 24 33 28 1 33 33 17 38 5 18 35 23 32 35 29 23 11 6 36 2 38 30 18 19 18 9 32 9 11 14 9 24 21 5 39 13 30 25 31 10 38 34 19 5 14 31 35 0 1 2 28 28 27 14 9 30 31 31 16 39 27 27 29 7 35 16 2 10 20 2 35 22 6 9 3 7 22 30 6 10 36 20 39 7 3 1 39 5 21 39 12 37 14 13 27 21 5 27 33 28 31 16 34 36 24 37 33 39 30 4 6 34 30 3 6 15 21 31 37 34 3058 4472 2830 2997 2565 4030 2826 3533 3922 2788 2852 2556 4185 4704 3936 4405 3998 2744 2926 3723 2857 3566 4554 4448 3423 4043 3511 3357 3644 3954 2725 3150 4277 4278 4232 2824 2993 3640 4408 3524 4493 3625 4220 4577 2506 2586 4123 4791 3960 3294 3856 2623 3781 3982 2652 3879 2629 4928 3355 4781 2776 2857 2673 4403 4927 3845 4112 3595 4082 4656 4501 4055 3688 2857 4581 4549 4783 4719 4435 3141 4771 3432 3502 3926 3809 3349 2741 4711 4442 4558 3269 2748 3982 4963 4664 2812 3322 4261 2918 2829 4711 4430 3878 3580 3320 3938 4310 4745 4875 4990 4527 2977 12 3463 4619 3319 3766 3260 4169 2538 4766 2506 4316 4524 3370 3017 3044 3191 4945 3215 3887 3722 2976 3395 2875 4746 3486 2987 3506 3717 3482 4019 4543 3096 3885 4436 3563 3779 3997 3388 4008 2599 2974 4970 3824 3253 4179 3411 2647 4629 4006 4743 4427 4143 4415 4953 3861 4908 3005 3684 2835 3071 13 4659 3186 3657 3656 3199 3819 3658 4821 3682 3820 2888 2804 4308 4438 4969 3158 3492 3196 4934 4055 4813 3892 4093 3884 3464 4818 2984 3100 4714 3409 4412 4086 4251 4961 3149 4997 3266 3570 4138 3524 3557 4012 2517 3050 3510 3527 2796 3752 3254 2916 4187 3163
11 32 25 33 15 20 32 38 18 25 25 19 2 4 17 2 15 20 5 24 31 21 18 20 29 30 14 34 16 9 6 14 5 34 11 11 28 5 8 7 35 33 38 15 13 5 17 18 18 19 19 31 26 2 18 17 20 6 29 15 16 38 22 15 38 7 5 24 36 35 10 15 21 9 29 18 37 3 2 12 21 20 31 6 3 11 32 37 7 17 38 37 24 14 37 20 30 7 34 1 31 1 29 38 22 39 23 31 21 35 32 15 16 14 19 5 9 2 13 34 37 10 5 2 31 19 33 12 29 32 4 24 13 21 20 10 20 10 3 39 4 10 34 31 4 25 20 20 37 1 26 6 33 0 19 22 28 15 25 34 17 39 15 11 3 14 19 6 15 26 1 14 24 13 28 1 34 37 9 3 26 7 28 19 28 14 7 14 16 29 4 9 33 2 10 20 8 6 25 25 34 9 5 35 36 23 36 2 5 11 29 15 21 1 4 36 7 4 14 11 10 34 33 35 34 3098 4580 3309 2677 4952 3542 4706 2549 3363 3968 4695 4258 3358 2857 3635 4554 4825 2962 2607 3457 3031 3331 4345 4706 3384 2880 4437 3460 2798 2811 4410 2931 3399 3062 4425 4307 2520 4062 2889 3785 3630 4912 3143 3102 3803 4402 4300 4919 2889 2835 3417 2777 2765 4590 3112 4486 4777 3975 2506 4103 4820 3352 4365 4304 2900 4917 4933 4101 3401 4231 3145 4428 3790 3276 3681 3061 10 2552 4497 3977 9 3034 3293 4820 4019 2670 4899 4778 4286 3284 4903 4988 3272 4889 3459 4435 2896 4398 4764 4958 3730 3276 4174 2772 4354 3825 3321 4665 4405 2816 4822 4060 4940 4017 4239 4617 4562 4648 2570 3595 2590 3729 3853 2745 3975 4325 3700 3049 3644 4478 4962 3721 4282 3584 4212 4184 3570 2789 2614 3204 3312 2924 3253 3706 3826 3270 3137 4600 4387 4547 4825 4882 4701 4741 2727 4532 4398 3430 2995 3925 3497 3107 3846 3643 3684 2780 3282 4533 4075 3731 2935 2628 2556 3882 3812 2959 3945 3485 4539 3370 2626 4197 4834 4236 3559 3677 4889 4094 3656 4168 4025 2694 2615 3175 3542 3402 2809 4393 2623 4425 3800 4287 4109 3411 4141 3792 3444 4161 3331 3031 4534 18 3307 3500 4971 3983 3947 3219 2711 4603 3480 4345 4713 4403 4473
12 10 2 4 16 4 23 3 16 4 20 25 23 39 30 33 37 3 14 34 36 16 13 13 6 6 3 16 36 28 10 20 32 13 2 18 30 12 3 1 37 6 36 3 2 35 6 33 21 27 23 34 31 28 1 17 36 25 15 32 2 6 36 3 23 33 18 14 38 16 7 19 15 7 34 31 14 7 24 29 34 37 18 5 23 29 30 39 13 2 23 12 5 27 24 16 32 25 16 35 7 18 35 26 32 12 30 6 24 7 14 6 4 39 4 2 7 6 39 35 5 17 34 18 14 6 9 2 29 1 14 15 28 10 17 34 7 28 36 28 6 3 20 30 8 13 16 1 19 3 36 19 31 31 0 33 10 5 11 13 4 4 36 14 11 17 3 12 33 1 9 24 38 26 32 31 24 26 14 39 36 27 34 27 14 4 25 22 38 31 37 31 19 29 16 24 20 10 18 27 20 27 18 14 37 12 19 10 19 22 31 21 11 2 1 14 20 27 24 3 7 36 10 13 18 4157 4982 4008 2641 2539 2660 3851 3644 2580 2945 4829 4880 3615 4991 3248 3844 3076 2807 3276 4420 4751 4620 4799 3411 4770 3230 4676 2534 3048 4421 3607 2561 3001 2593 3299 3378 4319 4648 4287 3798 3113 4935 2983 2771 4963 4911 2814 2836 2895 3140 3537 4485 4612 3161 3136 4175 4280 4404 4247 3714 2639 4508 3247 3439 2757 4762 4571 3701 3311 2737 3148 3084 2897 3691 3041 2605 3939 3003 2937 4299 3446 2590 4050 3261 4589 4194 3626 3758 4281 3389 2817 3827 2774 4413 2716 3810 4540 3108 3947 3777 4874 3686 3144 3829 4468 3006 4088 3664 3287 4973 4334 4668 3424 3763 4882 2889 3508 3533 3552 3830 3694 3015 2631 4251 4582 4244 4391 4556 3122 3623 4843 3067 3631 3477 2849 4690 3482 4664 2930 4288 3912 4429 3132 2514 3212 4557 4525 3708 3527 4751 4646 3936 3398 2916 3611 3012 3609 4485 3225 2661 4722 3347 3798 4969 3038 4290 2998 2884 4728 2605 4548 3142 4138 4957 4891 3498 2600 3097 3288 4569 3180 3636 4636 2763 4031 3702 3241 4417 4504 3911 4734 4577 3622 4530 3298 4337 4669 4799 3394 4882 4568 3381 3398 2760 4290 4710 3871 3021 2784 2724 3804 4973 3546 3868 2878 4988 2739 4443 2686 4330 2670 3544 4825 3198 2932
38 2 25 13 14 28 33 17 6 32 19 8 14 17 38 2 25 11 2 21 25 3 15 30 32 13 20 30 16 30 19 30 29 26 26 35 39 24 5 2 1 21 8 17 2 26 13 2 5 10 30 2 39 5 25 34 7 22 14 30 23 4 18 28 34 18 30 7 14 37 25 1 39 15 38 9 39 14 35 2 32 21 18 24 31 35 2 9 33 1 14 32 16 33 39 37 10 35 34 3 12 25 9 14 31 7 37 14 12 11 38 31 28 23 8 31 11 9 28 25 25 8 12 14 22 6 10 21 18 14 13 36 9 21 22 11 18 1 22 32 16 15 36 27 21 8 28 1 25 35 23 24 39 2 14 0 27 37 3 1 14 4 23 19 18 19 25 38 22 18 28 21 12 16 1 5 2 38 19 28 4 20 20 22 20 38 9 25 2 15 13 5 35 32 1 21 29 15 6 37 1 27 24 9 7 31 22 3 4 7 8 5 38 31 18 9 28 10 22 4 27 23 37 28 19 3381 2886 3492 2636 3853 2805 2906 4950 4446 3637 3866 2728 4588 4963 4660 2922 4711 3263 3244 4334 3275 3214 3741 4755 3606 4100 2889 4490 4165 4838 3943 4868 4611 3335 3808 2616 2917 4711 4709 2948 4734 4334 4026 3193 3902 4946 3696 4915 3560 3935 3845 3684 2581 4072 4744 3917 4670 3496 4896 3318 4713 4515 2642 4180 4823 3259 3061 3939 3941 4714 3843 4643 3611 4211 4025 3821 4886 3477 2516 3999 2887 3204 3150 4611 2616 3818 2969 4806 4055 4491 3603 2978 3468 4032 4431 3747 15 3843 4611 4761 4453 4105 2981 4907 4170 3097 3090 4470 4225 3071 3500 4727 4535 4347 4399 4006 3050 2607 4706 2595 3603 2910 3229 2889 3322 4773 2678 4417 2775 4178 2578 2987 3473 3878 2930 2645 3733 3427 4738 2685 3298 2625 4950 3592 3964 3185 3314 3578 3331 4575 4962 3534 3800 3851 3830 4474 4412 2868 3412 4914 4751 3123 3366 4276 4369 4891 3135 4242 2935 3446 4434 4751 4589 3988 3686 3849 2771 3667 3318 4788 3382 3008 4656 4086 4176 2783 2611 4604 2691 4861 3314 2596 4391 2658 4666 3640 3627 4071 4584 4340 4634 4534 4270 3322 4572 3643 3226 4896 4210 3487 4925 2801 4581 3738 4651 3698 3182 4183 3571 3449 4987 3732 4910 4579 4422
11 26 18 4 39 8 7 17 17 30 23 10 24 35 9 16 24 25 38 13 17 17 22 8 22 39 15 19 5 2 34 29 28 15 26 13 36 32 28 17 35 29 14 19 7 1 4 16 10 34 1 25 37 29 24 18 7 24 16 8 24 1 22 5 31 22 35 25 5 10 35 13 27 16 32 29 16 21 34 9 5 36 4 33 32 28 32 26 4 26 20 15 29 34 27 32 38 35 3 11 4 39 5 29 37 25 2 29 3 21 21 26 5 32 18 37 32 26 34 36 38 13 5 34 28 30 29 2 1 22 8 1 18 23 4 3 2 12 6 5 28 20 29 9 15 19 18 14 10 34 8 3 10 37 2 17 0 27 26 5 9 38 36 5 27 20 2 13 28 29 32 24 23 39 16 14 4 28 22 28 3 8 32 18 26 28 25 38 29 37 15 2 26 24 27 10 32 10 23 10 24 27 33 7 1 38 38 20 18 20 14 32 1 8 26 39 30 8 34 7 11 1 22 2 1 4806 4554 2914 2813 4662 2645 4207 2677 2808 2679 3474 4750 4770 4636 3977 2693 3728 3259 3234 3593 3075 4678 3020 4464 4178 4986 4411 3884 2693 3365 2663 2575 3330 2856 4556 3841 3333 3470 3614 2978 4818 3066 2842 2545 3330 4470 3009 3380 4001 4535 3551 2989 3219 4210 2889 3193 4301 4885 4124 4550 3780 4347 2843 4780 3906 3450 3132 4575 4879 3816 3280 3348 2669 3675 4514 3207 3918 4668 4667 3241 4582 2798 4087 4422 4990 2673 4419 2519 4137 3042 2792 3078 3303 4148 4872 4798 3246 4061 3114 4953 4490 4992 3705 4808 3269 3057 3835 3347 4179 3118 2755 2739 3273 3786 3542 4326 3836 2753 4607 3972 2564 2993 3292 3584 3048 4429 3184 2909 3685 2901 2798 3333 3354 2831 3740 3613 2525 2875 4349 3092 2540 3677 2582 4300 3759 4544 3583 3339 5 4001 4956 11 4756 3642 2928 3058 4372 4130 3070 4445 4688 4069 4925 3591 4668 4782 4920 4361 4975 2530 4103 3528 3739 4617 3678 3564 3440 3384 3225 2995 3147 4828 2865 2642 3060 3405 2510 4540 3646 3767 4450 3171 2653 3143 3550 2792 4554 3080 2766 4017 3351 3584 2622 4055 4497 3534 4021 2531 4068 3440 2766 4220 3513 4552 3410 3874 3366 4630 4319 4390 4564 4838 4618 3311 4410
26 31 35 23 6 34 31 24 28 26 37 24 22 32 5 20 23 37 5 32 28 14 5 39 25 28 18 20 33 39 36 15 9 4 38 35 37 21 21 1 27 17 10 37 17 32 4 32 20 37 35 33 31 2 35 16 1 13 17 7 5 15 32 1 2 22 19 24 8 14 7 37 3 8 33 5 32 6 35 28 8 29 6 13 30 26 21 13 9 5 8 21 8 13 6 7 20 20 32 31 5 7 18 13 37 7 30 25 31 7 14 39 17 3 8 21 11 7 27 22 35 28 29 17 6 32 12 4 28 8 15 36 17 14 1 38 30 15 38 3 23 14 14 39 9 37 8 1 31 20 11 20 35 3 17 35 36 0 13 20 17 34 26 15 4 10 39 26 23 2 25 18 24 12 25 28 31 15 25 21 17 24 7 1 19 3 24 34 36 3 33 16 32 9 19 19 11 14 5 39 38 17 34 13 23 29 2 31 19 23 35 37 8 11 10 6 37 31 13 37 35 36 39 25 36 4182 3611 4285 3324 4996 3221 3796 4408 3535 3625 4565 3999 3133 4121 4499 3682 4283 2896 4754 3514 2823 4625 3231 3270 3498 4019 4003 3328 4901 4246 4065 4891 4293 3852 3181 4872 3226 2596 3458 4427 3916 4755 4371 2844 4911 3798 3209 4142 3532 3961 3896 4490 3113 4749 4262 4290 3791 3613 2679 3476 3117 2915 4803 3214 4585 2684 3527 3005 3834 2733 4583 3363 3675 3106 2930 2825 3663 4666 3264 4366 4621 4141 4597 2870 2524 3522 4162 3125 3140 2519 3902 3087 4585 3200 4553 3977 3497 4846 4756 3182 2763 3818 4147 2564 2526 4503 3201 3389 2865 3459 4321 2617 3642 4542 4588 4225 2794 4069 4855 3290 3665 2963 3056 3921 3352 2908 4628 2515 4984 4902 2575 4099 3837 3501 3382 4120 4817 3204 3085 2870 4068 3259 4956 4061 2944 4066 4820 4925 3167 3688 3557 4898 2971 4093 4534 3328 2704 2724 3441 2862 2559 2854 2879 3639 4145 3067 3593 3139 2569 3931 4664 3572 4823 4428 2692 2578 3821 3018 15 3511 3655 3922 2972 3122 4119 3053 2933 4683 3668 3818 4193 3955 3754 4912 3706 3742 3137 4362 4288 4383 4362 4240 4156 3345 3918 3357 3787 3260 3210 4444 4169 4329 4564 4548 4901 4702 3070 4581 4905 3331 4645 4982 2728 3089 4802
4 32 7 3 35 37 38 14 31 35 22 22 31 17 16 7 29 11 9 16 29 25 14 2 39 27 11 36 35 8 22 11 24 4 33 22 18 10 36 28 36 29 9 17 13 7 10 26 35 17 1 14 33 33 36 34 3 32 35 6 1 8 20 33 17 9 5 8 15 24 6 9 36 18 5 39 7 32 38 23 15 12 16 31 31 32 14 20 14 19 23 29 7 12 1 34 23 15 37 29 17 28 25 31 16 14 3 5 17 20 33 9 36 26 24 27 6 24 14 7 36 30 17 12 5 29 24 36 27 18 33 38 26 20 14 18 26 11 8 37 17 38 1 38 11 19 36 24 13 14 20 29 30 27 23 18 34 31 0 11 39 3 5 5 14 25 24 22 23 18 32 2 29 9 38 34 33 21 24 39 26 20 14 34 28 29 36 26 30 30 3 21 8 32 18 17 22 36 36 36 22 27 28 5 19 30 14 9 1 27 21 17 19 14 39 25 31 3 1 22 27 1 38 5 27 4927 3580 3681 4355 4704 3146 2625 2760 2597 3929 2921 3708 4481 4475 3323 3621 4132 4447 4711 2942 4526 2555 4894 4990 3122 2674 3381 2788 3059 4936 4341 3245 3086 4927 3251 2669 3339 3538 4012 3288 3731 3795 4764 3650 4926 4632 4758 2600 3951 2980 2742 4847 3244 4609 3688 3532 3178 2813 3363 4411 4014 4384 3167 4030 4020 2991 3662 2500 4646 3260 2880 2503 3109 3151 3130 4331 4326 3742 4983 4665 4381 3875 4251 4194 2715 3004 3447 2845 4329 4989 4594 2766 2928 4191 3862 2891 3170 4494 2996 3847 4128 3810 4655 4040 4223 2678 4345 4751 4464 3961 4827 4208 4123 4608 2557 4448 3276 2537 3263 2862 3471 3183 4455 4373 4396 2528 3445 4160 4098 4549 4851 3920 4993 4795 4436 3546 4295 4688 3254 3511 3534 4910 4600 3459 3643 3647 3213 4123 3494 4655 3605 4508 3858 3318 2712 4881 4753 4263 2832 3493 4227 4498 3670 4434 2615 3564 4174 4348 4346 4226 3342 2529 4852 2501 3407 4285 3457 4201 4046 3007 4346 4828 3584 4303 4565 2795 3157 2763 3051 3560 4212 3871 2545 4058 3554 4097 3137 4604 4495 4860 4357 3821 3802 4485 4716 4841 3472 4268 3958 3892 3365 4448 3136 2836 4642 2839 2686 2992 4754 2701 3005 3829 3195 4625 4130
19 23 28 5 9 21 20 16 7 9 36 25 8 12 20 20 32 10 6 38 34 1 32 32 33 22 32 33 29 24 6 25 39 18 13 1 8 25 27 17 26 37 11 6 17 26 24 22 35 25 16 36 32 33 27 25 16 30 13 37 13 12 8 30 30 23 4 1 15 31 37 21 21 22 13 30 38 2 24 29 32 33 30 20 15 3 20 20 28 10 7 31 2 16 16 23 13 30 38 21 14 32 13 33 38 11 9 36 11 19 5 11 8 27 18 9 17 18 10 8 11 1 36 38 23 19 21 23 12 1 3 7 32 4 24 37 7 17 35 12 18 36 18 38 1 23 29 26 16 34 16 7 17 38 1 31 2 9 3 0 35 18 25 27 22 28 24 30 3 23 21 18 16 4 36 34 31 27 8 27 18 28 27 3 26 25 32 10 25 32 36 17 36 26 15 37 1 5 21 18 14 13 8 20 26 9 27 26 15 11 27 31 22 14 22 19 10 23 6 33 1 13 35 35 35 4114 3437 13 3079 4739 4735 4348 4316 3718 3329 4934 3581 4603 4866 4495 3169 4820 2853 3373 3234 3377 4327 4928 2930 3520 4505 2973 4297 4322 4695 3216 2587 3351 4610 3687 2674 3076 3397 2569 3517 4395 4751 3605 3631 3538 3880 2546 4616 2668 3573 4147 2906 3236 2745 3267 4626 3521 4046 3391 4041 4618 3822 2923 3759 2926 4117 3101 2997 3873 4608 4940 2765 4873 4059 3647 4016 4380 4443 2700 3552 3575 2908 4510 4263 4251 3987 4281 3182 3693 3119 2988 3382 19 4383 3400 2842 2944 3395 4029 4290 4423 3562 4770 3138 3978 2739 3909 4341 4236 2975 3633 4243 2679 3468 3487 3182 2500 2862 2936 3658 3362 4503 4845 4866 2880 2833 3502 3576 2870 2740 4929 3279 3673 3106 3313 4768 4711 3863 4963 2977 4312 4732 3948 3912 3291 3914 4895 3814 4037 3401 4529 2822 2725 3925 4451 4959 2667 4539 3755 4315 4422 4651 3076 4475 4905 4178 3201 4073 4891 4793 4132 2905 4045 2954 2561 3290 4986 3959 4346 4147 2869 4526 3280 3762 4997 3627 3433 3762 2658 2909 2881 3971 3253 2972 3748 3694 3454 4496 3394 4574 4494 4331 2947 2838 4330 3021 4315 4456 4529 4155 4421 3743 2774 3647 3959 2609 2547 2599 3532 3691 4957 2863 3791 4930 4246
27 31 31 29 34 37 23 25 24 24 36 10 15 11 33 28 35 14 38 20 34 29 1 24 35 36 1 27 8 30 29 14 3 29 18 3 33 36 21 26 22 31 38 23 22 2 10 36 21 12 5 18 20 31 30 39 15 19 19 30 22 10 11 29 20 9 9 17 18 2 5 1 36 28 27 39 36 25 35 38 12 15 18 21 14 21 2 5 35 17 7 18 15 5 9 9 6 16 14 30 24 3 35 33 22 21 6 8 1 8 37 15 26 24 31 1 14 37 14 25 3 14 9 8 7 10 17 34 28 37 25 28 32 16 11 30 38 18 38 27 25 25 37 10 27 22 17 14 9 34 17 29 27 14 28 30 26 2 38 18 0 21 31 1 5 27 17 30 26 25 14 24 4 13 31 38 4 4 36 18 35 35 2 13 7 28 27 17 18 17 38 35 38 30 34 12 25 26 26 5 15 1 9 39 21 22 16 9 10 3 33 36 29 32 35 3 7 34 27 32 37 32 19 15 22 2665 4634 4856 4283 3738 2603 4148 4341 4322 4288 4849 3021 4666 3921 4873 2959 4755 4871 2981 3604 3759 3454 4759 2931 3532 3434 3289 3763 2586 3391 4002 4679 4493 3119 3217 2678 3288 2625 4344 2524 4545 4270 3369 4101 2615 2949 3919 4369 2734 4084 3702 3998 4913 2796 3688 4411 2882 3418 3751 3786 2558 4140 4791 4313 3556 2550 3819 2527 3063 4093 2531 4827 3388 3101 3009 4180 3489 3537 4414 4331 3359 4785 4069 3600 4206 3763 3986 4747 4758 3989 3678 4448 4172 2866 4054 4476 4905 2960 3029 3514 4925 3270 3737 2760 3755 3969 15 4901 3031 4355 4760 4230 4218 4121 2780 2986 4128 4827 2620 3502 4690 3720 3049 2734 2652 3659 4813 9 3637 4656 3528 3867 2817 3514 4690 4670 4475 3442 4392 3885 4472 4262 4531 3942 4924 4558 4807 2616 3440 3300 4647 4796 4770 3871 3353 9 4920 3493 4260 4902 4247 3204 4062 3888 3994 4434 3868 2603 4025 4195 3828 4741 4335 4234 3367 2875 4435 2581 2672 4409 2967 4715 3686 4770 3442 4720 3954 3927 4256 3297 3926 2771 2931 4762 3521 3660 4064 3305 4370 4710 4829 4611 3825 3601 4369 3244 3017 3477 2900 4839 2900 2988 3199 3700 4870 4686 3732 4323 2840 2703 4588 4884 4559 4256 2702
20 3 4 34 35 24 22 5 24 36 13 30 29 31 36 32 25 12 18 9 7 4 6 30 18 1 38 12 9 22 27 20 32 35 31 30 1 5 7 35 28 35 12 33 10 13 22 11 33 36 26 13 1 38 7 35 14 25 8 11 28 7 10 8 18 27 38 21 27 12 19 38 13 26 28 31 1 1 1 9 12 21 30 14 15 15 32 25 37 38 30 31 16 38 32 15 37 19 14 4 31 33 32 18 3 16 31 32 2 29 33 31 10 7 8 37 1 21 12 3 22 34 35 23 18 39 34 1 24 33 11 20 25 28 4 11 11 9 8 13 10 32 19 5 6 33 2 37 10 29 10 22 25 13 34 6 13 27 28 37 17 0 8 22 25 4 33 16 31 2 4 19 32 8 26 27 19 11 30 27 6 6 23 11 38 19 32 38 33 17 27 32 14 25 12 22 2 37 7 1 27 15 7 16 38 4 38 19 21 33 29 13 25 37 14 22 28 1 19 9 18 8 6 27 11 2573 4968 3375 3812 4792 2663 3431 2863 4034 3224 3825 4929 4800 3252 4732 3228 2510 4079 3297 4205 3871 2740 3912 4427 3170 3539 3151 3772 2996 4230 2850 4639 3445 2700 3979 3025 4607 3029 4398 3514 4921 3757 2822 4298 3002 4621 4569 3265 4086 2522 2676 4201 3829 4354 4162 3941 3927 3493 4234 2762 3767 3273 2849 3809 4199 4266 4030 4809 3479 3917 4616 4675 3914 4074 4250 3383 4109 4525 3675 2524 4467 4007 3665 3419 2839 4928 2674 3272 4767 3904 2671 3000 2902 3991 2744 4848 3128 4178 2628 2738 4266 2733 3185 4292 4966 2938 4951 4909 3769 4889 4910 4799 3712 3234 3163 4785 3583 4967 2585 3033 2814 3440 4061 4238 2500 2941 4466 3585 8 2515 2800 3499 2575 4781 4576 4433 4672 4977 4599 4041 2829 2697 3461 4971 2528 4934 2937 3232 2875 4562 3491 3750 3891 3023 2944 3664 3975 3494 2962 3813 3149 3578 2795 4609 4807 2855 4848 2596 3349 3793 3177 4385 3107 3788 3552 2543 3579 4383 4403 3133 2836 3551 4693 2776 4114 3571 4277 4560 4176 4857 3374 4954 2937 3297 4750 4818 4256 4468 4568 3012 4902 2502 4759 11 4913 2793 3945 2594 3435 4425 4912 4669 3267 4410 2844 4952 4927 4861 2985 3287 4379 3985 4080 3738 3277
29 30 32 11 14 18 13 25 10 25 8 29 37 23 13 10 37 32 2 37 5 15 30 38 28 9 7 16 27 30 23 9 13 21 26 12 12 11 38 22 30 25 36 7 30 20 26 14 37 26 19 4 12 6 38 23 9 37 32 26 35 15 10 34 35 2 37 6 5 3 32 9 28 31 26 1 17 15 35 22 31 29 16 23 36 6 15 28 18 30 38 14 3 25 7 13 26 24 28 38 29 3 29 16 15 28 7 24 18 10 18 14 28 30 26 38 14 2 26 6 8 2 8 35 38 9 16 32 33 9 32 38 26 24 26 29 17 24 8 28 4 16 38 35 12 3 26 13 22 28 13 14 3 8 2 28 4 30 5 29 15 19 0 19 29 8 13 37 33 3 32 26 25 35 20 23 36 17 30 31 34 2 37 24 25 5 37 7 27 28 24 24 5 27 12 7 1 10 38 4 14 5 19 33 7 32 28 3 11 11 17 34 16 15 34 23 18 20 16 27 1 17 26 26 9 4343 4169 4451 3192 4863 3668 4673 4317 4980 4704 3398 2584 4101 3805 4662 3823 4217 4515 4821 3499 3680 2541 4561 3601 4726 4186 4806 3675 2940 3319 4249 3675 4046 4559 4187 3512 3753 2858 3588 4692 3185 3597 4552 4440 4077 3939 3195 3144 3626 4190 3825 4851 2836 2690 2685 4060 2753 2921 3165 4876 2506 3516 3359 4543 2583 3359 3876 3132 2932 4311 4981 4928 3900 3411 4162 4533 3785 2967 3153 2809 4950 3678 2516 4604 3011 4475 3810 3829 3096 4464 3896 4660 3907 4283 4551 3063 4396 4341 4424 4263 3892 3052 3313 2573 3679 3645 2620 3669 3663 4038 2801 3637 2646 4715 4074 3433 3490 3648 4369 3274 2688 3795 4152 4643 4966 3253 2909 2768 2560 4797 3304 4162 3587 4006 4027 4009 4215 3916 3296 3645 4749 4698 3020 3408 2913 2642 3680 4643 4787 3539 4038 4492 4806 3108 2926 2859 3845 3223 4544 3972 4181 4311 4438 4687 4724 4408 3984 4603 4657 4877 3678 2599 4801 3706 4401 3453 4528 4052 2609 3404 4207 2601 4714 3261 3546 3638 4440 3578 4304 4552 3542 4833 3648 2719 4235 4591 2875 2864 2860 4437 3311 2693 3118 2939 4914 4932 4544 2631 2986 2790 4856 4042 3062 4239 4137 4715 3127 4612 3601 3910 2775 4058 2614 3732 3834
31 33 39 29 36 25 27 6 9 30 30 24 18 23 36 18 12 30 5 8 27 15 29 13 11 22 33 2 4 9 38 34 1 3 37 31 36 30 12 7 7 22 23 39 2 15 4 11 15 33 13 14 5 39 3 14 26 15 27 22 1 37 29 16 14 3 11 19 39 24 24 16 29 23 6 24 11 5 1 4 10 21 4 20 27 16 9 7 37 2 2 31 24 35 32 29 38 26 28 29 30 3 14 35 35 39 11 1 30 24 37 2 22 33 4 20 38 19 39 8 8 38 14 19 11 1 21 3 36 20 36 28 16 16 18 18 32 30 9 25 16 7 11 33 32 26 39 14 27 18 3 10 37 14 26 38 10 39 12 3 39 26 10 0 20 31 10 37 23 4 22 33 29 4 8 33 38 5 4 15 39 27 39 21 27 23 13 34 13 37 26 4 2 1 17 27 18 38 25 24 18 10 21 26 11 15 9 25 19 32 22 35 35 5 23 31 39 11 22 36 34 32 9 4 33 4208 3928 4062 4652 3814 3737 3433 3376 4608 4639 3978 4679 4243 4897 2520 4306 3132 4184 3152 2726 3975 4723 4164 3581 4283 3194 4911 4500 4601 4726 3613 2654 4054 2902 4231 4993 2616 2590 4266 3916 4397 3193 2652 4135 3623 3106 4480 3823 4588 4178 3602 4302 2803 3782 4605 4605 3377 4805 4056 4843 3275 3229 3613 4376 3532 2902 4762 2802 2763 4229 2813 3060 4892 4919 4848 4984 4549 4430 3308 3663 3682 3568 2570 4913 4058 3653 3485 4345 4968 3607 2513 3752 4304 4597 3875 4961 4565 3035 2811 4868 4515 4562 2874 2711 3049 3367 4468 3166 3870 2654 2842 2806 3640 3742 4250 3075 3944 2949 3311 2648 4848 3885 4496 2988 3576 4823 3157 3125 3824 3434 4879 3489 4022 3107 3218 2533 3166 3958 4101 3797 4697 4698 3285 2996 4625 3359 4667 4195 3617 4588 3042 3208 3338 4618 3483 4723 4823 3620 4559 2508 3700 2569 4941 2790 3123 2517 3269 2599 4878 4370 4787 3007 4813 3944 3839 4771 3039 3235 4227 3516 4577 3539 3347 2741 4365 3722 4609 3476 4709 3402 3618 3865 3672 3234 4483 2540 2691 2919 4176 3922 3868 4235 2889 4936 4103 2702 3811 3518 3435 3902 3387 2584 4697 4858 3268 3579 3405 3071 3869 4491 2783 3977 4673 3152 4892
31 27 37 20 33 20 38 34 39 34 14 27 21 11 8 16 14 39 32 34 35 35 20 15 36 20 19 24 17 9 28 28 13 2 12 39 32 24 20 38 30 12 21 23 9 32 32 2 1 22 12 6 7 14 39 14 26 31 23 32 20 8 36 19 30 22 5 18 14 14 16 29 5 27 32 30 25 12 2 12 8 24 21 17 6 35 37 25 26 13 25 21 24 30 16 19 34 27 39 8 27 31 2 37 28 19 21 38 18 17 25 2 22 32 33 25 16 28 14 35 36 23 19 23 7 28 17 26 21 4 15 23 17 28 28 15 18 32 17 36 20 33 33 36 19 5 30 1 16 3 7 39 29 2 19 6 20 25 17 21 35 28 39 14 0 6 4 22 30 6 34 39 6 4 22 16 7 32 10 7 36 30 9 19 18 6 30 30 25 34 32 6 34 11 22 11 36 26 17 10 8 22 37 35 36 3 20 29 6 32 32 9 9 37 31 36 39 5 17 27 18 27 2 14 34 2908 2566 4968 4641 4714 2755 2772 3709 3292 4273 4373 3129 4350 3596 4642 4410 4198 3243 2676 4619 3524 4670 2789 3172 3747 3221 2686 3439 3241 3693 4432 4316 3152 2662 4938 4843 9 4649 5 4195 2936 4042 4695 4697 3345 4655 4570 4769 4547 4189 4242 2538 4537 3067 3667 3500 3642 4535 2721 3198 4425 2597 4249 3485 2506 4290 4233 4947 2966 4682 3895 2739 2955 3779 4220 4110 4982 3092 4615 4105 3162 2746 3259 3350 2994 3838 3121 3455 4183 3765 2669 3161 3786 3720 3701 2572 4526 4402 4154 4479 4168 3887 4576 3971 4300 2633 3903 4195 3961 4611 3966 2603 4942 2506 4041 4837 2774 4819 4268 4371 2663 2969 4341 3466 3132 2757 4441 3889 3304 2968 4448 4405 4128 4407 2841 3772 4620 4577 4951 4352 4677 2579 3077 3951 4135 3167 3422 4590 12 4517 2822 2850 3888 3496 3387 3801 2917 2911 4397 3648 4897 3583 3278 4765 3355 4857 4271 4157 4902 2784 3838 2832 4564 3701 3421 2806 3044 3712 2876 4236 3973 3601 3966 3475 3816 4133 4246 4473 3699 4259 4639 3604 2552 7 4602 2653 2983 3374 4731 4780 4758 2748 4236 4835 3656 4339 4861 4742 2994 2580 3738 4787 3719 3495 4987 3520 2852 3624 3092 3076 4416 3591 3311 4047 3106
26 39 6 32 24 29 23 1 28 1 28 31 35 8 31 24 12 39 1 38 34 26 24 17 36 17 20 21 39 36 5 38 20 11 25 10 25 26 20 16 36 23 37 10 12 26 1 10 19 38 28 31 29 28 37 33 32 34 11 21 29 34 37 32 31 13 29 36 38 11 26 12 6 5 7 12 38 33 8 30 9 39 4 5 21 23 12 21 6 30 2 20 30 2 28 4 8 27 19 29 31 7 29 4 1 23 24 23 30 16 14 13 9 8 24 9 32 4 39 22 13 14 24 5 6 8 9 5 32 33 8 8 7 12 7 5 5 12 6 16 32 26 5 21 5 14 34 3 20 39 10 11 26 18 8 21 3 12 36 22 38 36 13 35 22 0 25 31 21 18 19 39 31 22 1 6 6 33 14 13 31 3 6 36 26 5 36 9 36 17 30 5 16 34 37 36 33 4 18 3 38 39 4 37 19 21 14 28 4 7 13 5 34 15 26 37 33 16 12 29 17 13 20 1 27 4705 3269 2815 3700 3102 4038 2717 4142 3947 3389 3723 3968 4527 3130 3477 3824 4220 3132 3643 2708 3119 3864 3420 3203 4016 4509 3920 3063 2906 2967 4776 3405 3145 4558 4698 3571 2551 3096 2940 3310 3149 4209 4754 4529 2670 4272 3506 4562 3366 4285 3072 3703 4242 2894 3215 3296 2515 4612 4473 3815 3756 3237 2930 3367 3352 3277 2731 4302 4485 3147 3707 3839 4853 4400 2640 4120 4676 2941 3936 3728 3629 3738 4957 3970 2850 3181 4275 3190 2752 3792 3102 3732 3630 12 3118 3879 3841 4506 4982 3783 3824 3774 2523 3642 3718 2682 4205 3757 4547 4684 3728 3965 2941 2854 4318 4402 3388 2806 3266 3554 2852 4766 3015 3425 4287 3573 2977 4460 4557 4324 4549 4581 3559 2580 2545 4757 4596 2593 3123 2661 4723 4062 4019 2855 3226 3467 3023 4790 4499 4278 4440 4578 2696 3891 2968 4202 4137 4170 3781 2659 3378 4687 2802 4163 2846 9 4365 3872 3189 2685 3534 3986 4255 3445 4576 2626 4658 3713 2791 4482 2644 3217 4131 2711 3474 3404 4546 3791 3266 4490 2591 4620 3875 4654 4447 4540 4239 3398 2588 3307 3653 4168 4541 2885 4966 2972 2809 3672 2565 3709 4818 3756 3284 3708 3058 3300 4180 3856 4958 4825 3059 4233 4450 4250 4807
18 38 34 10 39 24 2 17 13 30 13 14 33 31 20 22 36 18 38 21 24 16 16 22 3 34 38 15 13 16 1 26 30 34 39 1 16 19 35 16 15 24 6 12 39 6 35 35 32 2 39 1 39 31 38 1 24 32 37 23 15 6 2 15 27 24 15 8 4 33 6 10 19 13 29 6 21 3 33 10 16 32 39 27 13 11 5 16 32 22 5 38 29 22 13 32 4 6 21 3 23 39 5 15 33 20 23 21 35 29 25 29 2 19 23 22 26 7 10 13 21 15 19 3 18 25 30 18 9 37 15 23 8 30 27 30 16 32 1 19 8 37 30 2 14 9 13 25 2 4 35 12 34 24 17 3 29 20 18 5 12 4 7 16 35 20 0 17 13 35 19 19 33 3 30 21 30 32 1 28 28 35 37 1 23 31 39 25 27 29 18 31 4 17 25 32 2 30 35 11 21 8 20 39 36 29 29 18 4 39 1 28 26 5 1 37 14 25 33 30 38 34 3 36 35 2782 2938 4903 3636 3443 4274 3599 3889 4956 3699 4655 2828 3714 3410 2608 4303 3660 4629 4814 2515 3325 4806 4910 2549 4624 4665 4513 2515 4866 2555 3380 3705 3701 4407 3719 3690 4730 4388 3666 4368 3269 2856 3142 3816 2679 4481 2793 3684 4801 2994 3405 4426 4084 4039 4703 2818 3309 3224 3670 2726 2987 3892 2842 3706 4939 3887 4320 4713 3955 3014 3587 2990 3061 3941 3384 3799 2932 3959 4258 3007 4589 2537 3324 4877 4714 4445 4831 3422 4042 3784 3094 4552 4435 3390 4123 4298 2678 5 4857 2923 3962 4358 4590 3996 4046 3077 3950 3677 4413 2638 3630 3779 4502 3519 2819 4166 3153 2656 2631 4435 3602 4939 4911 2700 3268 2609 3523 4591 2684 4531 3892 2896 4358 2709 3921 4735 2732 4192 4939 3618 3744 2796 3514 3194 3070 2566 2707 4303 2932 3696 2591 3798 3633 4783 2529 3742 4826 4057 3260 2791 3289 4284 2530 2726 4534 4839 4165 4775 3978 2688 3770 3915 4257 2659 4880 4063 3863 3786 4972 2699 3178 2844 3471 3483 4945 3525 2915 3175 4361 4150 3791 3544 3428 3387 3605 2633 3936 4120 3571 3640 3999 3301 2729 4883 4404 3057 3646 4619 3519 4783 4035 4697 3693 2834 2601 4991 3967 3480 3804 4977 4303 4203 4270 2693 3285
21 12 35 8 33 13 24 31 35 12 34 6 38 27 15 1 35 35 29 37 38 8 3 38 3 23 37 11 15 7 28 39 15 17 4 18 17 35 16 24 13 29 2 37 4 2 37 25 38 28 21 6 25 16 14 16 18 35 6 34 28 26 16 28 19 9 2 23 21 31 7 6 33 14 33 37 29 17 31 6 10 12 25 34 9 17 20 28 35 39 18 11 39 12 27 11 38 32 12 38 38 7 27 32 35 31 11 35 24 19 3 15 8 9 33 14 10 38 23 13 37 34 38 1 20 27 30 27 38 14 28 7 22 37 36 4 18 25 27 5 28 2 38 12 27 30 17 9 17 23 20 11 16 28 10 9 4 19 10 12 22 2 19 6 17 8 23 0 10 11 4 11 24 10 24 16 18 19 36 15 21 10 28 35 31 15 9 27 19 24 4 29 8 3 28 3 32 36 29 36 19 23 20 6 32 24 12 9 15 7 6 18 36 35 31 26 12 15 3 24 1 4 6 4 38 3402 4323 3522 4522 2516 4764 4906 3882 4768 4128 4825 2625 4111 4650 3962 3623 3303 3705 2635 4428 4759 4399 4220 4518 4694 2852 4757 4549 4985 11 4046 4074 4059 4317 3733 3875 2598 3668 4321 4930 3253 3781 2715 3731 3905 3881 2660 3406 2563 4433 2541 3901 3351 4807 4733 2527 3656 2657 2809 3196 3624 4450 4543 3083 3847 4700 4542 4290 3966 3773 4082 3851 4585 4232 4715 3119 3780 3758 4136 2849 4256 4353 4956 4004 3945 2976 2689 4873 3696 4369 2860 3465 3396 4265 2787 2987 4042 4668 2888 4648 4761 3390 3004 4709 3492 4127 3692 3228 4207 4686 4688 4880 2610 4622 2930 3335 3255 3474 4640 4691 2861 4765 2793 3475 3324 3629 3560 2548 3883 3293 4537 4288 3650 4396 3423 4814 2680 4893 2552 4830 3478 4147 3712 2547 3411 3378 4085 3071 2723 4623 4509 3940 2956 2629 2900 4009 4666 4072 3992 2873 4088 4632 4735 4547 4554 3981 4174 3238 3202 3687 3752 3215 3405 3046 3253 3985 2585 3612 4518 2728 2780 4721 4753 3573 4008 2783 3947 4125 2808 4844 4734 2953 3485 3832 3621 2758 3989 3913 2677 4228 3721 2942 2533 4953 3395 3249 3371 3570 3918 4262 3876 4484 4056 3674 3683 4480 4796 3864 4897 4068 3518 3307 2768 4650 2827
17 23 14 5 21 14 20 23 39 21 5 19 35 22 26 35 27 18 6 16 26 8 7 1 31 35 9 6 30 23 32 12 36 12 35 39 21 39 37 31 20 37 12 4 34 21 9 38 22 4 5 9 2 9 35 33 28 8 6 21 37 4 22 13 17 11 31 5 18 17 10 22 10 4 30 39 13 17 30 25 37 11 31 11 19 7 18 21 23 33 15 25 29 6 12 20 15 15 38 4 22 5 24 13 22 21 39 2 33 22 30 23 26 26 33 27 37 32 11 22 15 19 34 2 9 2 16 6 26 4 9 8 15 22 28 20 20 34 16 32 4 26 35 12 33 17 25 26 5 29 10 9 35 34 20 16 36 22 21 9 36 10 38 36 25 29 12 28 0 26 21 31 10 26 4 10 8 33 30 14 39 35 16 19 25 15 17 31 15 23 27 17 29 7 20 32 30 27 22 16 16 3 39 39 32 17 28 14 19 23 36 29 13 33 22 38 33 29 15 5 36 37 6 29 21 2555 3950 3368 4007 4198 4633 4557 2544 3444 4329 3874 3701 4830 4676 3340 3433 3719 3020 3226 3660 4977 3198 3685 4862 2772 3170 4905 2709 3097 4784 3865 4837 4381 4305 3212 4206 4704 4784 4697 4258 2615 3048 4419 3679 4439 4774 3252 3901 3333 2805 2534 2962 3415 3861 4508 3552 3117 4321 3306 4662 3453 3475 3871 3704 4343 3655 3503 3628 3060 3617 3358 4917 3042 2703 4244 4703 2873 4686 3880 2649 3756 3288 3958 3255 4026 3421 4513 4220 3854 3210 2945 4473 3944 3704 4377 2575 4922 2862 4631 4058 3571 4885 4965 4337 3612 4208 4428 2880 3174 4581 4743 3931 3386 2983 4690 4637 3601 3235 2760 3181 2627 4718 4766 2599 4059 4215 3418 3055 4073 3851 3878 2829 2791 2661 4293 3017 2646 2757 3982 4704 3963 3574 3056 4651 4289 4053 4859 4482 2558 3086 4136 4895 4034 4781 3356 4908 4697 4842 2856 3304 3286 3859 4747 4054 4412 3810 2900 4941 3571 2790 4719 3734 4309 3735 4158 3982 2964 4412 2631 4603 4628 4834 4113 2780 3866 4836 3069 3533 4431 4545 3548 3319 3576 3423 3197 3059 3370 3084 3141 4757 4776 4895 3746 4911 2742 3442 4494 2958 3638 4842 4696 3340 3489 4835 4783 2838 4340 3539 3247 4127 4812 4003 4036 2649 4157
9 6 26 8 20 18 26 37 17 15 19 21 14 3 14 10 37 1 10 30 32 8 13 13 15 6 35 20 32 1 37 23 30 35 2 25 35 23 39 11 19 6 3 1 25 28 21 2 28 36 9 11 3 18 27 2 27 23 34 36 21 36 29 2 26 11 39 5 2 28 31 2 34 37 22 15 26 4 25 12 12 30 13 7 29 9 18 22 2 16 22 24 24 1 15 9 21 25 37 13 23 30 38 8 31 28 10 19 34 18 28 4 31 29 29 36 3 6 33 25 38 18 10 12 38 37 28 19 22 4 30 3 30 38 39 37 12 26 11 16 10 15 23 24 4 17 35 39 25 19 35 14 6 37 2 21 38 22 30 28 2 5 13 1 15 14 6 30 16 0 34 25 5 10 11 38 4 16 11 12 24 28 7 39 16 8 22 19 5 29 2 18 22 17 10 37 35 3 22 5 10 33 20 16 39 10 10 11 8 4 20 7 36 37 4 31 25 18 32 4 31 27 16 39 8 2965 3016 4307 3823 3765 3109 17 3989 2585 4494 3877 4105 3477 4233 2948 2707 3213 4667 4062 4823 4028 4769 4431 4055 4291 4432 3072 4903 4181 2987 4067 2819 4902 3642 2542 3314 2838 3114 3159 2647 4935 4444 4415 2987 2812 4400 3128 4104 4782 3210 4024 3100 3129 3467 4027 3632 4389 3118 2927 3287 4671 4761 4470 4267 2654 4506 3719 3464 2713 2802 3049 4536 4018 2855 2980 2858 2660 4972 3579 4089 4261 3782 2889 4831 3221 3041 2725 2501 2786 3156 2616 2737 3856 3735 4537 4716 4351 3885 3848 4419 4032 4070 4049 3352 4730 3729 2538 4459 2531 4986 2755 4525 4340 3349 2835 3078 3015 2973 4890 3392 3435 3141 4218 4048 3834 2723 3216 3208 2582 4364 3231 3166 2895 2828 3446 4827 3247 4535 3241 2797 4961 4326 3181 3087 3411 4769 3494 3628 4566 4412 4266 3481 4942 4122 2522 2992 2713 4522 2543 4012 4025 4839 4350 4216 4617 3831 2834 3125 3384 3392 2639 4432 2985 4278 4534 4202 3245 3324 4737 4877 3443 3666 4982 3511 2936 3274 3929 2607 3482 2832 4448 4544 4576 2695 3616 3948 3102 4366 4867 4863 3191 4869 4683 4602 4888 4355 4120 4920 4687 3522 4784 4229 3401 4423 3874 4912 4981 4143 4526 4166 4219 3239 4818 3937 2959
10 16 3 35 24 22 16 20 30 32 1 30 27 39 25 28 27 29 28 19 22 19 31 2 25 35 11 30 33 18 31 31 34 5 2 17 8 33 33 29 28 24 38 32 1 28 13 31 13 33 9 20 36 17 33 23 34 37 33 18 8 25 3 19 2 8 3 8 21 21 31 10 4 38 32 14 25 1 16 39 27 22 17 27 23 39 6 23 5 16 27 21 33 21 22 25 30 25 35 14 28 8 34 10 6 16 11 4 19 16 31 34 16 28 17 22 17 29 13 24 11 16 3 39 12 17 28 36 29 4 3 32 33 3 38 3 34 35 1 31 29 25 37 8 35 39 29 29 23 2 5 3 15 25 16 35 23 32 37 34 35 13 34 12 22 28 11 11 34 16 0 9 3 1 12 32 19 33 25 13 18 8 3 32 32 30 25 4 8 39 32 27 15 22 38 3 11 14 15 21 32 23 13 15 34 29 4 33 23 1 14 17 22 29 37 21 32 6 21 22 28 5 18 37 32 3857 4518 4988 2671 4240 4780 4328 4704 3284 2999 3929 2831 3986 4969 4123 3347 3605 3074 4028 4443 3521 4801 4653 2716 3820 3022 3582 3377 2999 4538 4829 3014 3311 3559 3066 2945 3694 3942 4260 2966 4864 2592 13 3657 2805 3922 4424 3492 2710 3140 3293 4623 3716 4690 3060 2584 4314 4012 3298 2580 2633 4742 3267 3937 3801 4643 4681 2766 2616 4645 4390 4178 3757 4878 4359 2621 3024 3806 4812 2827 2916 3268 3152 4367 3379 2536 4053 2858 3424 3530 4062 4511 4704 3526 4630 3551 4217 4668 4020 2605 4121 4798 4167 4483 2710 3229 4822 4387 3065 2969 4812 3700 3404 3056 3301 4473 2723 3137 4225 4210 4176 3922 4977 3195 4737 2969 4825 3418 3887 3844 3914 4201 4745 2540 4704 3076 2899 3471 3181 2577 4653 4581 2791 4231 4779 4671 3511 4591 3626 2718 4928 4236 2980 3103 2550 2601 2682 2928 3332 4991 4559 2718 4520 4195 3927 4374 3745 3111 2819 4974 2835 3860 2670 4376 4714 2851 3435 3396 3340 2958 3262 3064 2777 4122 3594 3490 4102 4448 3898 3822 4380 3733 4758 3288 4848 4337 3570 4785 3568 3814 2856 4015 2914 3919 3849 4474 4937 4098 4448 2762 3018 4159 3272 4423 3510 3520 3579 4298 4266 4585 4854 4770 4557 3177 4027
30 35 34 37 2 31 16 26 29 27 14 24 38 9 39 20 31 16 20 39 17 13 11 6 14 8 4 14 39 26 33 27 18 8 35 13 32 24 38 25 37 3 8 14 28 18 23 15 9 34 17 29 1 8 35 25 8 26 11 11 12 35 9 31 8 39 17 10 33 18 39 30 23 37 3 23 7 25 18 36 13 14 8 6 35 27 10 19 31 24 1 27 13 14 33 26 22 27 16 13 13 28 32 33 5 9 21 19 36 31 32 37 9 1 26 12 17 3 25 6 5 17 19 13 8 3 9 30 17 2 39 32 29 16 10 18 25 34 31 18 36 18 6 20 17 12 14 3 4 39 25 16 16 28 7 14 7 13 32 14 32 14 8 14 14 4 19 21 2 26 33 0 1 37 35 17 32 9 25 1 35 17 9 9 26 30 16 12 19 6 17 16 31 39 17 13 11 12 13 6 24 10 3 26 6 19 15 31 22 16 18 19 12 30 14 2 25 25 22 13 16 1 35 18 35 3864 2852 3243 4792 2749 3079 4122 4895 2794 3371 2627 4639 4993 2696 4479 3215 4197 2771 2574 3237 3552 3852 4675 4576 3393 3645 2686 3236 2735 4894 3108 2535 3748 3953 2864 3446 4144 3278 3774 3805 3036 4755 3224 4408 3877 3249 4083 3193 3687 2613 2702 3881 2527 3014 3198 4981 3921 3869 4395 3144 3305 4872 2819 4745 3377 3665 4907 4939 2643 3218 3066 3892 4848 3512 3627 3531 3546 4263 2912 3465 3597 2733 3644 3739 3535 4042 3587 3615 4791 3931 4094 4168 2584 3032 4754 3284 3593 4685 4849 3813 4632 4148 4935 4917 4201 4573 4315 3331 4915 3464 4054 4342 4057 3651 3823 4911 3509 4307 3936 4084 3837 2551 2860 2534 4945 4507 4707 3595 3398 3759 3388 3709 4959 4576 3858 3429 4283 3774 4087 3587 3750 4970 3794 4406 2717 3360 4099 4040 3927 3305 4471 3315 3002 2859 3971 2956 4089 4330 3783 3393 2508 2890 2678 4156 3239 2732 4136 2864 3000 2705 2996 4775 4735 2719 3248 2611 2830 3133 2638 4677 4780 4931 4142 3225 3667 4118 3060 3705 3004 3122 3986 2667 3023 3944 3901 4579 2864 4478 4000 3764 4015 2855 3550 4138 2941 3442 3801 3360 4233 4549 4327 4857 4655 3964 4576 3880 4059 2841 3427 3297 4297 3520 4323 3292 2981
19 23 14 19 28 16 37 1 36 19 22 26 11 1 12 4 10 21 20 30 26 12 13 29 32 27 19 17 4 29 26 31 15 20 22 10 1 4 32 2 38 24 8 11 7 26 33 25 4 31 23 11 32 6 34 35 33 20 31 9 15 27 8 10 32 15 22 35 24 8 4 35 29 19 22 9 28 17 9 15 6 25 15 10 6 25 24 30 13 12 17 14 12 19 15 38 10 27 18 8 5 35 5 38 8 18 27 19 22 39 12 12 23 14 13 32 28 22 3 6 18 20 37 10 9 28 13 2 28 28 32 12 30 23 35 25 28 7 12 30 12 18 25 16 35 5 25 5 33 7 13 25 21 2 9 19 21 11 29 17 12 24 25 4 36 16 25 39 35 25 7 11 0 31 28 33 26 25 28 38 32 23 9 4 28 32 15 24 38 10 1 18 27 15 9 2 30 26 23 36 37 24 16 21 37 7 29 31 20 22 28 5 15 15 11 12 25 19 9 36 33 35 6 24 30 3562 4169 3090 4304 4496 3772 3292 4889 4317 3937 4282 4196 2594 3428 3341 4187 4863 2686 2673 3602 4214 2660 4842 4270 4873 4429 4954 3883 3412 4380 4220 3199 3823 2508 4147 4372 2883 3391 3130 3099 3900 3161 4685 2995 4358 2537 2994 2617 4553 4685 4461 2609 4729 2879 4387 2792 3220 3837 4048 3020 3715 2750 3222 3945 2858 3809 4311 2885 3748 4428 2863 3431 2983 3040 2816 4818 3499 2603 3075 4423 4106 3842 3473 4792 3738 3370 2592 3478 3096 4663 3603 3080 4006 3813 4696 4583 3998 3386 2668 3137 4523 2811 2778 3907 2787 3327 3785 3523 3819 3487 4855 3831 4555 3790 2618 4517 3413 2903 4234 4944 2791 4158 2596 4659 2676 2535 4348 3835 3991 3890 2514 3012 2762 3145 3045 4223 3600 4372 4734 4356 4534 3775 2869 4115 4779 4118 4121 4641 4989 3596 4840 4100 3255 3398 4885 4542 2999 4475 3655 3220 2762 4537 2809 3719 3731 3498 3206 2726 4285 4331 2914 3715 4311 4666 4822 4856 2948 4046 3468 3556 4610 4784 2654 2664 2992 3050 4769 2719 3625 2554 4361 3025 4407 3508 3472 4410 3088 4821 3625 3032 2510 3605 3529 3817 4906 4328 3977 4104 4848 3602 3298 4502 2940 3307 4761 3266 3516 3987 3810 2906 4565 4214 4015 2568 3564
25 17 22 34 39 37 28 3 24 6 31 39 7 6 27 2 7 17 4 28 27 31 31 20 10 14 37 8 9 35 9 8 9 18 23 14 5 16 25 5 16 18 20 12 19 22 27 27 21 31 2 31 35 31 6 25 9 25 13 15 15 15 16 3 7 32 24 13 38 29 4 31 11 1 24 9 36 26 22 17 35 16 29 30 19 11 34 4 17 22 5 33 17 37 8 10 2 7 31 35 9 39 30 10 21 10 15 35 21 39 32 27 33 22 37 34 14 38 1 8 12 13 11 39 32 36 28 19 26 13 21 9 7 10 1 29 30 12 6 36 31 6 19 18 27 39 8 11 34 13 29 8 13 37 33 26 35 27 11 39 19 3 4 7 39 31 17 6 28 21 11 11 17 0 17 1 15 39 25 30 6 17 13 13 14 14 35 11 1 9 9 8 33 30 18 36 33 4 2 37 11 30 5 6 14 18 34 2 34 24 1 18 16 18 38 14 1 19 26 19 5 34 1 24 29 4151 4624 3413 3815 4665 2824 4678 2679 3751 3748 4345 2719 3181 2914 3906 3264 3885 4218 4347 4201 4852 4600 4018 4513 4004 3060 2944 3817 2770 3075 2623 3286 3501 4689 4809 2925 2941 2589 3208 3291 4104 3340 3559 2690 2674 3260 4095 3193 4314 2704 4421 4453 4144 4883 4624 4468 3570 4273 3576 4808 4413 4234 2642 3591 3795 4411 5 4716 4698 4365 3031 2931 3926 4746 4557 4203 3441 4855 4018 3167 4432 3786 4056 4201 2987 2967 2946 2984 3632 3080 3490 2562 4523 4154 3338 3978 4607 4046 3651 4591 4695 2542 4320 3361 4785 2540 2660 3239 4856 3291 4124 4571 4448 2560 2758 4928 3513 3200 2810 3736 4329 4405 3383 4996 3178 2967 2842 4151 3826 3056 2992 2807 4686 4805 3364 4574 3133 3339 4353 4212 16 4379 4126 3802 2764 4394 4888 3362 3518 4563 4243 4661 4962 3213 3189 4809 3480 4916 2991 3874 4451 4543 3130 3750 4918 3834 3661 3759 3860 2774 4066 3830 4936 2776 3309 3100 2934 4596 2887 3974 3579 3935 3100 3967 3183 2838 4073 4967 2803 2889 3690 4579 3823 4903 2980 3338 2798 2803 2894 3272 3370 2528 9 2965 4268 2953 3770 3404 3530 4852 2576 2587 3480 4627 3260 4471 2739 3157 4815 2876 3453 3513 3675 4709 2644
7 37 7 7 19 26 4 22 3 11 21 21 18 19 17 16 29 19 12 21 6 3 35 31 9 10 11 2 7 5 38 11 23 15 37 15 32 10 1 39 10 20 19 32 9 36 12 15 17 36 8 3 35 13 7 19 2 10 15 27 23 9 7 19 1 21 27 6 13 28 11 2 36 1 24 29 11 20 37 12 37 35 12 11 12 18 10 3 26 31 21 1 15 19 35 21 32 10 30 20 10 26 23 21 17 3 39 2 11 32 31 16 14 14 39 21 31 24 30 26 31 18 5 6 14 17 2 20 17 15 32 17 4 37 22 30 39 9 13 38 35 15 18 21 1 15 13 5 8 6 22 35 18 17 9 28 24 6 20 33 32 25 15 5 33 2 22 16 1 16 20 25 14 11 0 20 11 24 10 32 18 24 37 20 24 18 21 27 29 21 10 10 5 1 13 23 25 37 3 33 28 11 27 24 33 8 17 31 28 27 5 3 33 1 22 5 2 26 33 3 9 35 35 39 38 2679 4662 2932 3487 4313 3548 4323 3940 3684 2996 4658 4648 2971 4506 2578 4258 3208 3074 4892 2586 3137 3355 4233 2802 3057 2843 4470 2567 2845 4949 3695 3953 2742 2990 2797 3106 2745 3682 3822 4804 4349 3689 4676 3128 4081 4413 4131 19 4847 3045 3542 4889 2670 2561 4231 4174 3866 4788 3606 3020 4423 3036 2674 3282 3583 4894 4516 4056 3471 3892 2830 4376 4848 3637 2842 4142 3854 2853 2955 3573 3678 4184 4035 2708 2961 3929 3176 4373 3570 3240 4020 3183 3517 3129 3546 3048 2912 3226 2932 2840 3981 3641 4923 3253 4500 4846 3741 2748 4947 3452 4826 3445 3105 3300 4453 3332 3541 2595 4487 4299 4507 3982 2774 4539 3495 4905 3165 3121 4395 4444 3844 2567 4144 4336 4420 3571 4851 2911 4089 4923 2542 3069 4974 3776 3486 3022 2570 4504 2848 4523 4769 2616 3556 3386 4610 2928 3742 3857 4501 3437 2723 2815 2568 4053 4955 4389 2649 2723 3834 3836 4389 3951 3668 2974 3384 3401 3930 2765 4880 3330 4045 2881 4789 2505 3805 3207 3066 3191 3542 3967 3992 4417 4980 4861 4749 3506 3022 4533 3591 4451 4640 3301 4969 3727 3689 3307 3940 3196 2910 4400 3507 4885 3264 4741 3881 4287 3263 3546 3130 3076 3987 4334 4048 4459 3936
22 22 16 31 36 26 2 16 14 38 5 31 36 6 28 19 15 5 9 28 17 1 2 5 34 32 36 31 23 4 39 8 1 15 14 3 8 33 38 32 17 39 21 4 8 23 1 34 20 3 20 31 13 22 6 11 35 12 13 4 12 21 3 33 5 39 33 1 36 20 2 11 4 3 34 38 35 25 16 16 6 6 26 34 23 18 37 6 24 11 4 34 3 5 27 28 14 24 24 10 12 6 6 3 33 3 36 25 23 37 23 15 38 23 17 1 22 23 15 9 9 16 35 16 6 5 1 11 27 13 25 18 7 3 13 15 22 29 3 12 37 5 3 29 25 27 32 21 13 22 28 3 21 12 8 23 31 36 34 7 9 26 29 8 3 38 2 29 32 28 21 37 30 3 34 0 7 33 34 1 37 15 24 11 15 36 6 24 24 38 34 15 15 21 27 31 22 2 28 21 37 17 28 21 10 36 22 22 8 24 15 39 23 31 14 24 3 31 37 33 37 26 2 36 26 3992 2699 4553 4140 2828 4300 4448 4825 2645 3586 4772 3833 3643 2728 4106 3800 2958 4752 4677 4446 4569 4113 2636 3682 2802 3777 4055 4143 3182 2738 3922 3045 4982 3904 4391 3553 4960 2559 3614 2961 4667 4431 3335 4392 3486 4757 2602 2896 2583 2882 2933 3909 2718 2948 2512 4315 4459 2818 3934 2952 3589 3345 3806 4003 4104 2927 4225 2599 3937 3164 4511 2754 4293 3649 3113 2502 4545 3612 2748 2706 4368 4143 4625 3458 2752 2574 2516 4038 4515 3444 4566 3296 4075 3844 2846 2731 3845 3413 3798 3470 3361 3167 4118 3926 4170 4796 4589 3657 3519 3995 4613 4213 4604 4384 4343 4606 4223 4065 4693 2669 4330 4738 2636 2763 3176 2960 4435 4768 3983 2924 3322 3863 4053 3979 3969 4730 3992 3898 4707 4211 3858 3371 3441 3646 4887 4382 2838 4222 4123 4866 2812 2816 3131 4266 2884 3861 2947 3643 3974 4967 3256 4037 4337 3629 3690 4280 4656 3625 3239 2976 3796 3156 4581 4772 3867 4997 3312 4226 4374 4750 2720 3782 4966 3607 3549 3735 4376 4298 2860 3249 3486 3086 2893 4877 14 2783 3783 3485 4359 3745 4373 4720 4918 4813 4480 4184 3358 3906 3624 3143 3421 3800 2649 4626 2825 2519 3412 2858 2751 3732 4296 4090 2522 4886 3090
18 9 28 21 5 38 38 14 25 2 39 18 12 33 24 34 23 20 23 21 3 31 20 31 38 39 7 34 9 20 19 26 25 18 29 19 7 32 16 37 8 5 19 34 18 39 11 30 21 29 38 23 35 5 23 37 11 10 20 15 8 8 22 7 21 31 11 38 6 22 35 24 32 4 35 28 18 2 25 20 25 5 32 23 28 36 2 14 17 18 5 26 15 22 35 38 14 6 7 14 7 18 20 4 11 1 4 14 39 34 13 8 16 11 30 16 22 36 34 39 4 17 4 26 32 21 5 26 18 32 13 17 35 15 16 21 11 7 4 35 20 10 6 33 22 15 27 29 22 25 10 22 39 9 5 39 17 11 4 4 15 5 29 34 15 11 3 20 16 3 14 8 2 21 19 2 0 29 14 8 35 3 2 26 14 10 35 32 21 1 20 21 19 2 23 13 3 32 31 31 23 37 36 17 22 23 1 4 24 13 21 39 16 31 32 24 12 6 3 38 16 9 1 39 32 2702 2742 3315 4221 3206 3725 3139 4200 4844 4215 3953 3661 4354 4726 3252 4194 3435 3995 2628 4670 4349 4941 3177 3721 4591 4354 4754 4207 2589 4088 2668 2825 3268 3826 4392 3608 2758 3904 4575 2714 4917 4842 4152 3921 3449 3756 2797 2782 4530 3597 4597 3141 4131 4424 4089 3897 3289 3216 4431 2541 2668 3528 3253 3672 4174 3645 18 4552 4043 3074 2905 3521 4037 2992 3114 3636 4535 2831 4564 4460 4139 3674 4196 4969 2799 3537 3528 3590 4778 4012 4529 4748 2875 2845 3149 4477 4506 3312 2630 3586 4502 3567 3936 3250 4238 3936 2501 4904 2742 4498 4489 4181 4975 4487 3380 2744 4184 2807 3276 3856 3519 4807 3001 4035 4477 3457 4825 4120 4001 4822 2802 3467 3136 4772 2739 2855 3198 3173 3670 3992 2851 2535 2961 4920 3052 2859 4829 3321 2883 4083 4007 3723 3572 4146 4026 2845 4435 2602 3511 4592 4659 2658 2959 4904 3384 3784 4448 4621 2756 4178 4918 4187 4979 4864 4826 3784 2984 4961 4321 4927 3423 2985 2668 4727 4439 3277 3665 4135 3580 3306 3442 2811 4464 3243 4836 2918 3719 4735 2802 2927 4531 4981 4650 2983 2983 4384 2951 2668 2754 3683 4766 4193 3549 4240 4710 3473 3236 3224 2824 2774 2976 3727 2577 3102 4094
35 36 35 6 3 25 28 33 33 22 2 3 12 8 14 36 9 24 4 17 6 12 35 15 35 13 10 26 25 26 30 19 29 37 4 9 23 19 15 29 4 21 39 27 30 18 10 36 22 18 19 10 13 3 17 36 18 15 13 20 28 19 38 23 19 12 6 39 4 1 18 1 37 4 19 29 16 12 30 34 21 24 15 24 30 18 20 35 29 7 36 15 31 18 20 29 6 9 27 8 2 22 13 3 35 2 5 3 28 37 10 36 1 11 17 26 3 9 27 1 29 29 32 20 21 23 26 4 29 21 7 3 4 13 39 4 33 38 8 2 8 19 6 6 25 18 2 22 18 24 36 38 20 15 16 19 3 11 20 36 38 29 15 3 18 4 7 22 6 24 39 7 27 8 4 20 37 0 26 21 16 27 22 11 14 18 27 4 21 33 6 12 33 3 14 31 37 37 28 6 32 21 37 20 19 25 30 17 13 22 13 35 35 1 21 27 39 39 17 17 6 31 34 27 23 4075 3237 3732 3193 3601 3732 3044 4522 3538 3196 3395 4444 4021 4806 2963 2557 4094 2900 4779 4921 4966 3920 4867 4080 3798 3298 3097 4281 3775 4825 4161 2688 3992 2945 2669 4348 2779 4920 2944 4648 3727 3697 4045 4343 3880 4707 19 3863 3538 4512 3266 4329 4627 3374 3563 3158 4999 2704 3911 4728 4871 2899 2876 3445 4823 4280 2717 3977 4220 3552 4546 4946 4163 3917 4658 2550 4854 4277 4768 3608 4555 2628 2866 3057 4187 2508 2821 4509 4710 3763 3237 3369 4893 3761 3064 4137 3881 3177 3136 4151 3355 4245 3529 3774 4174 2960 3815 3785 4563 3048 4414 2767 4138 2569 4245 2667 3670 4638 4266 3364 3073 3021 3926 4204 2714 2537 3693 4563 3631 3368 3589 2655 3460 4687 4542 4511 4291 2968 3869 4396 4410 4898 4406 4302 3361 3835 4927 4918 4330 3658 4836 4455 4566 3023 2783 2908 4800 2810 4157 2812 2647 2582 3775 4752 3699 3265 4645 4315 3698 3194 3369 2503 4041 3925 3057 3127 4557 2641 3783 3766 2897 4721 3171 4054 3281 2597 4602 3546 3592 3148 3296 4535 4163 3587 4513 4574 3146 3240 3478 4292 3453 4627 4609 2943 4460 2697 3725 3299 3860 4581 3058 4057 4018 2665 4160 3868 4620 4590 4305 3667 3165 2603 3069 4802 2709
15 31 18 22 2 9 36 18 21 23 6 35 31 24 36 8 18 32 36 4 13 29 25 21 36 37 18 9 35 4 9 20 6 20 29 35 1 15 22 25 34 25 14 13 23 7 28 28 38 13 20 11 8 29 20 9 33 30 16 21 16 23 20 27 36 10 11 5 32 5 3 34 19 18 38 23 1 3 31 2 37 31 11 29 32 19 16 19 5 35 20 24 35 29 25 22 15 29 7 27 3 8 14 27 25 29 14 30 6 15 29 1 4 22 27 3 8 23 36 23 26 21 15 23 2 35 26 14 14 13 28 24 20 4 32 4 21 30 6 37 30 27 9 29 27 37 27 34 15 33 24 4 35 8 20 13 6 15 22 3 14 35 21 36 1 11 9 12 1 11 17 8 37 17 6 17 13 5 0 29 13 22 39 32 28 6 34 8 18 22 27 19 23 36 20 4 5 13 18 4 33 7 35 28 28 14 38 24 36 17 9 28 18 26 7 22 23 11 20 37 32 29 20 25 34 4745 3368 4002 3306 3346 4835 3076 3882 2849 4210 3501 4021 4851 3169 3845 3117 4894 4036 4917 3911 3684 3442 3888 3226 4718 4501 3455 4268 4314 2698 4012 3130 3023 3256 3400 2896 2739 2556 4154 3375 3106 2647 4671 2952 2809 2635 4520 4094 2736 3341 2948 3936 4540 3066 3463 4963 2605 2703 3500 2917 3021 3814 4508 3610 4672 3015 2895 2569 3506 4868 2650 3476 2672 4009 4782 3799 3157 3431 3975 4208 4174 4962 2669 3104 4800 3951 3115 4349 3046 3016 2669 4860 3425 2814 4731 3408 3299 3167 4067 4864 3035 3148 3491 3898 4150 3700 2787 4239 3693 2666 4250 3862 2959 4551 3073 4183 2509 4472 4385 3592 4172 3334 3636 3659 3051 2669 4555 4678 3988 2735 3719 2609 4275 3434 3293 4544 3783 4278 2777 4752 3748 4631 2671 3400 3258 3386 3903 2615 2871 2555 2902 4775 4867 4784 3192 4361 3816 4783 2673 3819 4603 3984 3430 2681 4751 4604 2915 4086 4941 4676 3011 4285 4038 3244 3991 3029 4748 4532 3459 4802 3227 3708 4211 2901 2999 4308 3372 4049 3484 3872 3554 4164 4528 4693 3134 2898 4278 3901 4195 3814 4407 3275 4410 3633 3880 3383 4374 3548 4797 3350 3491 4247 3101 2713 3514 4666 2799 4278 3941 3860 4570 3520 3648 4124 3703
22 12 36 13 36 35 18 24 29 37 38 23 7 37 6 5 36 16 1 5 2 25 24 14 39 1 12 13 2 28 28 12 1 21 25 37 9 23 21 19 25 23 9 34 20 34 36 25 39 11 33 1 8 15 24 17 6 6 23 6 34 36 29 25 1 22 5 13 26 4 1 6 1 37 12 12 10 6 29 13 17 17 5 33 24 4 32 36 20 33 34 13 23 18 31 23 14 32 22 31 9 38 39 21 21 39 13 6 14 36 8 21 34 13 28 23 29 36 4 22 17 1 30 18 17 29 18 9 38 18 26 35 29 18 36 5 27 5 35 38 16 2 4 34 38 14 5 23 10 11 20 21 39 14 33 37 6 16 5 14 25 35 6 24 34 20 10 16 11 16 38 9 39 4 26 26 3 12 7 0 31 33 21 1 25 17 20 13 26 36 28 16 29 20 29 10 25 37 30 35 24 31 23 39 17 1 2 5 3 35 13 11 21 22 7 18 13 12 8 23 7 21 23 10 17 4009 4863 3203 3960 4852 3483 3357 3227 4002 3329 3474 4629 4144 2950 4859 3312 4084 4762 3590 3812 3212 4653 3789 3623 3062 3985 3197 3481 2760 2620 3029 3468 4603 3714 3615 2939 4719 4043 2944 3988 3294 4114 2770 2931 4130 2937 3700 4441 3790 4133 3840 4232 3121 4997 4864 4102 3799 3430 4341 3750 3278 4555 2827 3238 3502 4776 3630 3207 4266 3176 4946 4703 3882 3500 3494 3442 3086 3454 3867 3616 3450 3655 3484 10 4165 4800 4248 3478 4316 3668 4306 3565 2583 4718 3816 3983 3199 3084 4644 3616 3744 3376 4372 2944 3518 4091 3477 4478 2975 3154 3850 4427 4808 3420 2775 3836 3521 2571 4999 2798 3736 4764 4715 4852 4111 3663 3485 2857 3767 4866 3337 4249 2509 3052 3486 3526 3795 3033 3899 4955 3841 4091 3404 3486 4853 3431 4138 3597 3415 2954 3141 4141 4615 3192 3250 2651 3303 3146 3870 4511 3466 3455 4343 4983 3807 4594 3983 3791 3714 4604 2717 4671 3049 3961 4573 3724 4216 4239 4195 3309 3798 4990 3250 4490 2644 2557 3157 2965 4092 4460 3505 2998 4669 4848 4488 3172 4184 3716 3052 2570 2747 3403 4692 3437 3596 4076 3832 4473 3036 3559 4759 4994 3887 3874 4333 3920 2846 3080 2725 4744 3043 3147 4685 2953 3358
2 13 24 35 6 13 36 34 21 34 2 11 31 22 26 10 28 21 25 26 18 30 1 5 19 37 13 37 25 14 28 37 14 31 27 31 14 17 25 36 14 1 10 39 1 38 1 7 13 21 38 20 21 11 28 8 15 12 23 24 29 3 39 5 33 27 35 30 7 26 31 33 24 38 26 12 10 7 12 35 33 3 29 17 37 12 9 11 22 16 29 37 21 18 35 39 7 11 21 6 17 33 4 29 16 39 18 10 24 27 29 14 23 11 7 24 12 20 13 6 1 27 17 19 14 6 39 30 39 3 25 29 32 4 9 8 35 10 21 23 10 3 37 5 25 27 34 16 4 39 1 33 7 2 14 14 12 32 32 7 34 15 2 27 13 9 16 14 3 12 33 32 9 15 21 6 5 26 37 33 0 17 8 22 39 29 30 33 29 33 22 28 27 19 26 39 24 25 10 21 28 3 10 15 32 31 28 29 3 37 20 19 34 29 29 3 35 36 39 12 18 25 38 8 36 4956 4620 3000 4689 3395 3905 4893 4072 4013 4519 2755 2976 2814 4206 3198 3519 4800 4925 2603 3420 3504 2792 2722 4696 3661 4710 3505 3667 3284 3882 2825 4627 3046 4002 3212 3083 3989 2889 4159 3023 4107 3593 3135 4047 3319 4063 4381 4417 3738 2919 2836 3509 4702 4897 3370 4163 4555 2696 3944 2712 4875 4301 3155 4356 4976 3701 4606 4898 3514 3627 3375 2992 3736 3788 3067 3075 4080 4918 4831 4977 2797 4930 3158 3886 4666 3198 2887 3005 3725 3235 2634 4934 4942 3336 2791 4245 4285 3861 4127 2535 3990 4758 3620 4026 2764 3873 2506 4029 4396 4159 3706 3497 2735 4641 3992 4314 3751 4939 2698 3005 4817 3126 2755 4700 2604 3696 4668 2905 2522 4766 4671 3186 3269 3879 3731 3675 2815 4091 3668 2761 4278 4596 3157 2697 4453 4287 4867 3671 3785 4670 4217 4084 2785 4006 4075 3055 4931 3919 2770 3337 4207 3359 3391 2623 3058 4272 3951 4991 3305 2804 2797 2758 4093 4040 4632 2631 3549 3819 4490 3839 2912 4042 3337 3483 4275 4580 4884 3272 3605 3257 4110 3778 3163 3000 4683 2940 4061 2828 3883 4558 4714 4015 3948 3760 4416 4413 4710 2716 3642 2632 2647 4271 3005 4039 2941 3573 4618 4961 3507 4280 4652 3418 4156 2509 3231
36 23 18 3 19 19 34 17 17 14 31 38 19 19 27 26 10 24 33 14 4 19 21 37 26 9 9 25 11 29 16 35 31 3 5 33 4 5 17 24 6 5 21 23 32 21 21 6 20 8 28 7 28 17 17 3 3 36 28 27 16 5 15 16 24 12 25 21 21 34 2 17 19 19 11 19 5 11 35 30 36 16 2 29 7 34 19 28 24 33 2 26 8 21 27 21 27 34 31 24 1 6 17 7 26 26 33 37 3 21 20 17 15 29 36 5 14 27 39 5 5 8 7 7 30 27 38 30 27 14 19 25 1 13 24 10 5 18 35 9 12 8 5 11 39 30 18 16 12 35 36 4 26 35 18 29 17 16 33 25 22 30 32 11 30 23 23 17 31 22 33 27 24 7 16 21 19 36 21 23 37 0 26 27 20 2 37 21 13 16 18 37 25 8 37 24 9 28 38 30 14 27 22 31 31 39 35 12 37 3 27 39 29 23 2 13 10 3 31 36 32 27 35 5 36 3231 3137 3507 3596 4218 2533 2699 2931 3794 2682 3159 2992 4751 2946 3440 3526 3217 3307 4594 3626 4883 4853 3535 4545 3073 2605 4921 3971 4413 3462 4790 2628 3753 4081 4407 2637 4906 4135 3309 2626 2734 2644 4104 2710 3106 4318 3042 2673 3361 3320 3805 4845 3422 2858 4159 2868 4648 3193 4766 2968 2997 2675 4072 4712 2800 4224 2509 4625 3965 3752 3178 3260 3116 4098 4142 4977 3219 3146 3106 3006 3157 3261 3485 3900 4936 2602 9 4647 4648 3238 4281 3706 3456 4989 3961 4294 4555 4251 3798 3382 8 3178 3923 2694 4750 4998 4851 4592 3313 3670 2700 3246 4859 3891 3486 4565 4537 4493 4106 3755 4864 4201 2790 4889 2764 3401 3812 3806 4044 3166 4064 2782 3269 3115 3832 4197 3734 4439 4905 2993 4836 4469 4468 4073 4711 2674 4290 4270 3046 3768 2776 2783 3164 2787 4294 4671 2561 4498 4363 3565 2561 3204 2834 4354 4511 4234 4638 3221 4636 4976 4801 4546 4311 4022 4960 2864 4144 2730 4159 2630 3395 4697 3546 3521 4035 4832 3867 2678 4968 3008 4193 3342 4749 3816 3882 4226 4138 3045 3330 4282 3698 3054 2827 3976 3154 3391 3186 4140 4325 4435 4252 4470 3045 4277 2757 3283 4426 3407 2729 4033 4496 3974 4638 4134 3812
19 5 16 13 19 14 14 21 6 25 29 37 1 36 23 36 23 10 33 5 11 32 32 33 14 1 8 39 24 1 27 15 11 9 28 17 20 6 4 16 17 24 19 26 14 35 35 5 19 17 38 17 7 29 12 28 36 25 35 36 8 37 28 31 5 13 16 3 16 12 29 1 9 2 15 18 23 18 31 33 23 34 24 39 34 33 20 33 19 27 1 22 37 5 38 33 25 7 19 39 27 13 17 9 32 32 27 12 32 27 2 1 2 8 36 18 24 36 38 24 14 15 9 12 23 5 3 14 5 2 6 39 23 39 25 11 36 37 22 26 14 8 7 3 33 1 3 26 4 14 34 10 38 7 26 27 27 34 30 11 28 24 33 26 7 10 12 25 38 34 13 1 31 7 23 9 7 38 11 3 17 31 0 25 2 2 1 29 12 39 36 31 15 27 7 35 9 24 33 13 4 36 13 22 25 8 24 33 6 4 39 28 14 27 5 28 14 7 23 19 30 30 7 10 16 3100 2849 4629 4098 2695 4897 3823 2807 2973 3568 2809 2702 4354 3182 2512 3015 3393 3222 4406 4571 3862 3188 2522 3050 4206 3018 3014 3984 4207 3073 4023 3905 3177 2839 4469 2570 2641 4412 3869 4787 3305 4547 2622 4353 3757 2668 4230 4552 2732 3132 4035 3054 3020 4489 3906 4497 2706 3778 3415 4563 2940 2617 2610 3419 2650 3655 2923 4344 4081 2557 2914 3213 4968 2854 3488 4273 4550 4208 3409 2886 3845 3502 3997 3036 4578 3670 4291 2968 3018 3796 4595 2540 3225 3569 4675 2697 4071 2867 4712 3731 4621 3648 3633 4960 4119 2845 2504 4479 3375 2729 3856 3904 3390 4237 3583 3051 3690 4500 4590 3267 3373 3890 2713 3736 3256 4653 4298 3730 2842 4038 3285 4499 2993 4769 3792 4184 4089 2573 4633 2922 4133 3909 4727 4550 2816 4301 4043 4925 3737 3730 3778 3941 3574 2916 3455 3588 3384 3782 4715 4755 2601 3804 2590 3433 3737 3395 3920 3595 3265 4090 2678 4032 4618 4743 3576 4489 3355 3963 2597 4762 3324 3204 4431 4123 3067 3325 3980 3923 4029 2708 3448 4958 3938 3631 3863 4574 2921 4905 4230 4373 3373 2994 2756 3633 3434 4078 2942 4880 4386 3172 2829 4158 4172 2578 4043 4235 2686 4614 4599 3529 3898 4550 3326 4043 3921
31 8 14 10 14 1 31 12 5 4 5 11 20 7 24 19 20 23 18 39 32 37 14 32 7 39 16 25 39 29 8 11 31 31 5 15 24 1 27 4 15 8 27 19 35 20 26 1 4 7 39 12 29 33 9 20 7 4 2 24 37 28 2 31 8 10 2 8 34 30 2 36 15 2 38 5 9 10 1 19 6 8 32 25 26 15 35 22 6 7 16 36 31 3 13 9 32 9 25 4 33 21 9 32 16 24 26 12 36 13 30 3 24 16 28 38 27 32 27 26 24 5 6 18 21 28 9 27 16 30 21 13 27 25 39 16 6 20 24 6 38 1 32 19 7 39 12 4 2 6 30 34 3 19 6 39 3 31 19 21 17 10 34 21 28 19 13 4 21 22 1 19 8 20 3 11 32 29 31 34 24 12 31 0 37 14 12 18 1 37 20 12 3 38 4 28 32 21 32 38 2 15 12 21 6 27 9 16 5 9 10 25 36 38 7 2 12 4 25 11 9 30 13 26 4 4072 4172 4297 3509 3164 4137 4935 3759 3241 4961 4089 3344 4740 4089 2912 4497 3782 4391 4526 4267 2930 2625 2971 3474 3072 3911 3057 3572 4609 3950 3551 4430 4401 3749 3405 3361 4601 4775 4579 3595 3155 3640 3706 4897 2649 3448 4109 3015 3539 2781 4539 3060 4907 3077 3657 3513 3146 2816 4038 3869 4369 4690 3645 3011 3097 4219 3645 4976 4138 4243 4089 3311 2912 2648 4195 4545 4418 4664 4326 3717 3064 2578 3595 3643 4291 4395 2769 3089 4469 3229 2571 3148 4779 4598 3372 4230 3867 3119 2859 4645 2684 3564 3182 3606 3698 4719 4780 3295 4341 3405 3211 3329 3009 4643 4545 3669 3147 4548 2592 4380 2819 2731 4669 4753 4462 3751 3963 3098 3555 2746 3363 3490 3236 4690 4597 4291 3206 2621 2986 2929 3001 3766 3099 3452 3198 4136 4205 2923 3430 4749 3220 2551 4978 3704 4639 3148 3898 3208 2556 4682 4064 4127 4216 3701 4375 4242 2744 4166 4512 4584 4688 2768 4409 3378 3825 2661 4302 4372 3652 4005 3620 4922 4889 4776 4788 4331 4006 2568 3713 4174 3040 4266 4057 2849 3682 4582 3545 4230 3358 4552 3723 2863 2751 4357 4467 4618 4908 4030 3573 3501 3602 3667 3993 2738 2712 2815 2920 3948 3453 3988 4452 4812 4991 3199 2863
12 1 24 38 26 18 2 21 3 30 1 10 12 20 13 33 29 26 22 7 13 6 12 27 15 14 8 37 18 23 18 39 38 13 23 19 23 27 4 6 26 39 24 19 17 7 34 17 8 14 30 36 12 4 26 24 5 1 37 17 2 37 17 10 26 22 16 14 25 4 22 2 39 36 15 18 34 3 15 13 7 32 11 12 38 36 10 38 27 22 29 11 20 28 13 15 17 27 8 5 10 35 32 9 22 18 11 6 38 19 7 25 1 13 7 10 20 33 8 15 27 30 12 9 38 5 13 6 18 32 6 16 23 37 10 30 22 38 30 25 19 20 23 5 26 19 35 27 19 21 6 38 27 21 36 3 30 2 22 32 17 12 24 10 31 34 16 19 23 26 17 34 24 17 14 29 18 1 12 8 27 12 32 15 0 27 9 20 1 20 13 14 24 7 27 30 19 9 2 23 35 37 33 16 22 16 32 10 19 16 38 12 27 28 33 27 32 33 28 33 37 18 26 37 11 4087 4327 2740 4816 3091 4006 3172 4436 4555 4240 3559 3457 4738 2516 3999 3716 2579 3869 4678 4073 4304 3033 3082 4929 3074 2888 2922 2515 4111 3064 4445 2694 4210 3981 2731 2703 3320 4423 4090 2991 4789 3817 4676 3230 3772 4889 3675 3115 3681 3566 2976 3556 4014 4424 2977 4039 3034 3359 3356 3422 2877 3632 3754 4199 2736 4966 4479 2804 4746 2888 4850 3204 2820 4598 3626 4650 3029 4129 2600 4417 2751 4442 4203 2752 3084 2750 2570 3324 2898 4607 2513 4525 4633 3158 2725 4801 4382 4335 3631 2505 4248 4601 3119 4300 2930 4143 2699 3575 4848 2925 3615 2754 4537 3261 4861 3799 3701 2910 3696 3367 3992 4328 2991 4191 4025 4411 3306 4626 3494 2625 2927 2656 4429 3374 4705 3171 4994 3575 4221 3540 3139 3923 2505 4302 3960 4229 4193 3309 3560 4332 3860 4857 3820 3987 4494 3964 3449 4347 4001 4524 4520 4743 3047 2534 3905 4132 4659 4429 2691 4565 2778 4906 3667 3169 3854 3428 4292 4393 4379 4551 3753 3936 3228 3575 4375 4637 3564 3243 3942 3536 4128 4550 3941 2907 3404 3384 4018 2595 3565 3196 3139 3007 4136 2801 2517 2903 4057 3176 4593 4945 2825 4379 2776 3423 3965 3515 4082 2846 2503 4810 3146 2655 4492 3969 2923
22 9 26 34 12 4 24 6 39 24 31 9 34 18 36 28 20 33 20 14 20 8 8 26 11 25 28 17 5 17 28 34 4 7 35 12 4 15 26 28 6 34 21 30 6 38 35 36 28 15 31 6 38 35 16 26 37 30 9 5 30 33 2 39 29 15 30 19 4 15 29 9 4 30 6 33 25 15 31 30 7 20 35 17 22 10 13 12 14 19 12 28 2 32 11 13 38 21 30 15 18 19 27 22 15 13 20 31 11 30 7 9 19 14 5 33 27 24 1 25 13 12 18 1 37 13 17 3 8 5 33 25 19 26 37 3 28 39 15 24 16 35 22 2 14 27 9 22 20 16 13 31 1 32 5 34 17 27 28 35 26 36 31 34 31 17 12 34 12 38 19 39 21 27 3 24 3 2 34 4 29 29 29 23 2 0 36 8 20 39 16 3 23 22 28 37 3 36 5 27 23 16 5 17 22 10 34 3 4 28 15 37 29 7 23 18 28 2 39 11 22 15 1 25 39 2609 3594 3862 3508 3870 3374 2561 4571 4773 3538 2873 3635 4300 4805 4307 4882 3418 2531 3385 4975 3926 4750 4637 3537 4242 4115 3548 4763 4382 4527 2858 3248 4841 3511 2947 4587 4622 2928 2661 15 2651 3684 3801 2651 2893 2805 4793 2713 3890 4820 4688 4615 3377 2737 3029 4218 4729 3243 2657 4169 3480 2596 4251 4189 2674 4666 4161 2780 4388 3029 4054 3704 2915 4578 3850 2923 3763 3386 4338 2815 4305 4286 2679 4103 3815 3054 3348 4981 3467 4699 4354 3247 2952 3047 3911 2829 2717 2717 4165 4587 4590 4383 3274 4265 4157 3561 2869 3237 3105 3853 2552 2776 3724 4028 3538 4205 3516 4475 2725 4748 4312 4088 3797 3649 3996 2802 2828 4975 4598 3562 4731 4365 4956 4722 2875 4988 4794 2743 3152 3577 4416 3135 4045 3179 4623 3838 3389 3937 4689 2735 2595 3565 4815 4973 4004 2841 3257 2986 3636 3002 3459 2982 3271 4556 3846 4376 4800 4574 4728 4560 2623 2800 4949 3548 4452 3237 2901 4193 4872 3216 3308 2835 3810 4794 2563 3893 4360 3797 4806 3500 4181 4160 4728 2992 3779 2581 4113 4017 3589 3408 4362 3434 3076 4359 2793 4350 4685 4119 4833 3902 4276 3424 4716 2659 3064 3316 3943 4521 3309 4089 3530 4742 3707 4486 4182
6 34 29 18 9 32 32 6 21 8 31 4 5 34 2 32 23 17 9 38 38 17 8 9 24 22 34 36 9 2 36 32 4 16 28 5 35 6 26 35 37 9 33 37 17 15 28 1 11 14 12 35 27 10 21 36 18 30 13 5 1 19 17 5 16 39 33 37 10 39 37 25 15 39 8 32 13 24 29 39 4 28 1 34 24 28 34 30 22 13 16 34 23 23 4 27 23 10 36 17 13 14 17 29 18 35 1 19 1 7 8 26 4 14 20 2 32 9 24 17 8 31 24 21 13 16 24 11 14 16 21 9 30 5 16 29 3 24 28 13 2 1 10 1 21 13 26 13 1 3 34 35 32 22 6 21 38 25 6 10 24 24 5 15 18 32 8 32 20 21 38 5 10 39 34 32 2 38 13 8 38 11 6 24 25 15 0 16 8 12 19 39 9 13 32 13 30 16 5 29 5 22 23 15 36 15 38 36 27 36 35 9 19 13 20 4 14 3 12 30 39 39 7 12 10 3640 4648 10 4729 3355 4631 4867 4043 2858 3872 4699 4863 3219 4953 4401 2823 4248 3651 4672 2905 4784 4818 2552 3112 3150 4740 4865 4479 2805 4808 4284 4765 3573 4478 3570 2629 3186 3034 4930 4158 3895 4215 2868 4094 2738 4571 3794 4362 4384 3538 3604 3852 3877 3187 3516 4545 4633 3374 4500 4855 2683 4870 4752 4037 3563 3179 2639 3655 4586 3892 4870 4478 3381 3908 4427 3797 4998 3440 3340 4866 2751 3510 4250 4512 4442 3778 4712 2937 2947 4106 2953 3508 3220 3710 4506 3135 4203 3177 4652 4913 3661 4877 3680 3255 4200 2958 3624 4951 2783 4830 2784 3454 17 2779 4617 4840 4780 2524 2679 3386 4041 3958 4881 4798 2576 3676 3264 4677 3085 3201 4685 4390 4698 3940 4479 3693 4242 4881 3027 2701 2778 3006 3365 3943 4336 3532 4219 2598 2656 2716 3383 3106 4939 3175 4488 4085 4876 4847 3778 2858 4748 2812 4815 4319 3298 4889 4210 3020 3751 4473 2931 3038 2734 4795 4260 3813 4463 4410 3300 3173 4676 3351 3912 3024 3021 3579 4717 3062 4746 2981 4463 6 3567 3282 3184 2772 2578 2700 3235 2562 4603 4654 4475 2587 4886 4352 4353 3197 3626 3710 4018 4680 3524 4148 4358 3597 2830 4363 2942 3799 2809 4373 4296 2606 3770
22 32 25 34 14 4 36 25 20 25 12 11 31 30 11 5 14 6 30 3 2 5 28 38 6 7 15 30 5 5 2 5 25 15 13 15 8 35 11 8 5 37 8 4 15 8 36 30 5 16 10 16 29 35 17 8 26 38 23 3 26 28 9 39 3 9 36 27 38 14 2 31 6 14 3 15 25 10 20 35 26 4 21 28 30 12 19 14 4 38 9 25 32 6 15 27 9 10 2 2 23 26 8 36 26 34 19 6 16 14 7 20 6 1 8 18 39 32 39 13 12 35 27 23 21 34 33 7 13 24 30 5 10 9 18 24 5 4 13 12 8 10 5 18 37 34 32 7 11 28 5 22 13 39 24 24 17 30 18 14 24 36 7 10 29 12 21 8 32 14 13 33 29 22 37 33 24 20 38 39 29 37 4 5 9 37 13 0 12 21 28 25 26 19 15 33 4 36 24 9 1 14 16 3 26 28 15 19 3 9 6 21 20 33 23 8 38 38 34 2 21 2 12 39 7 2847 4086 4696 2955 4069 6 3379 2897 3946 4732 3172 4795 3349 3178 4737 3635 3820 3315 4288 2517 4740 4887 3438 3815 3566 3659 2545 3492 3217 4420 4459 3938 2604 2982 3477 3050 3029 2613 4331 4702 3114 3911 4060 2682 4427 2722 2535 3325 4162 3770 3812 4632 3585 3817 2876 4745 3840 4277 4340 3447 4629 3095 3008 3524 2726 2751 4008 4830 4362 4017 3021 3254 3391 2894 3243 3920 4244 2743 3442 4399 2516 3059 4194 3513 4117 3170 3405 3416 4094 4588 3192 3748 2919 3706 4016 4087 3907 3306 3440 4506 3241 3256 3696 4542 3077 3522 4789 2888 4986 4396 3978 4042 2512 3123 2834 4571 2786 3958 3499 3931 4949 3828 4751 2886 2587 4865 2701 4661 4380 3765 2854 4139 3107 3151 3665 3688 17 3657 4546 3308 4995 4508 3960 3897 3740 4407 4493 3681 4467 3013 3622 2627 4993 3329 2530 4961 2737 4882 3476 4552 3023 4627 4746 4322 3097 4106 4528 2860 3953 2902 3409 4237 4069 4855 2659 2874 4716 4119 4855 4107 4962 4997 2714 4247 3556 3870 4767 3711 2715 3337 4762 3837 4104 4746 4405 3181 3616 3526 4272 3912 4979 3271 3507 4685 3162 3693 4037 2620 2973 3802 3180 2623 4425 4338 2662 2742 2853 4932 3276 4972 3749 3678 4670 2899 2897
37 1 3 16 35 19 12 8 35 23 29 17 13 28 34 17 16 5 21 8 6 8 20 14 34 31 33 23 15 17 8 33 37 5 37 28 5 17 22 10 24 7 38 34 4 30 7 35 17 22 11 38 38 21 22 19 3 19 2 29 3 28 24 13 22 26 31 36 13 35 36 37 12 32 36 14 18 22 9 9 17 23 13 33 15 28 25 34 19 7 4 18 13 22 14 12 26 22 37 12 38 37 8 24 27 8 25 3 9 24 35 23 8 12 11 6 23 4 24 30 10 13 21 29 14 5 24 14 13 9 28 19 26 1 11 36 8 31 18 4 20 18 35 37 25 11 16 29 8 20 16 12 12 22 24 24 15 8 23 21 30 23 20 5 37 22 19 18 18 15 39 4 13 38 3 15 11 28 33 9 22 38 36 30 12 5 23 5 0 25 35 3 22 34 18 26 12 28 23 10 21 16 26 33 39 9 32 33 3 16 1 37 36 19 18 25 25 1 37 2 35 31 38 23 1 3448 3096 4787 4712 3672 4471 3603 2559 2568 3905 3505 4497 3209 2509 2718 2503 4239 4424 4748 3234 4658 4643 3329 2571 2637 4098 3673 3734 4125 3374 3893 2605 2894 2503 4896 4953 3835 2513 2600 3851 4304 2867 3684 4694 4551 4426 2863 4820 4178 4426 3657 4420 4290 3057 3524 3243 4347 4583 2605 4799 3762 3102 4593 3409 4218 4860 4180 4166 2954 2500 2871 2724 4446 3207 4936 4017 2589 3159 3728 3986 2895 4839 3259 3121 3801 4757 3643 4596 3355 3405 3569 2902 4156 3285 2829 4069 3174 3777 2874 4848 4246 4148 4746 3688 3513 3049 4297 2975 3792 3085 3409 2912 3806 2500 3453 4021 4930 4090 4899 2560 4435 4538 4095 3058 2681 4528 4224 3366 4146 4757 3183 3164 3208 2945 3077 3378 4164 3785 3837 4395 2796 4223 4336 2700 4366 3033 2849 4755 4802 4534 4439 3142 4838 3405 3871 4640 3073 3900 4830 3246 3912 4374 3899 2569 2609 3251 3236 3231 4757 3198 4376 2563 2690 3566 4319 3346 4782 3603 3189 3599 2922 2619 2687 4400 4755 3792 2988 4985 3719 3575 4242 3540 4475 4009 3297 3731 4066 4832 4637 3517 3168 4665 3568 4284 4698 4138 4191 3964 3037 2707 3871 4687 2700 3480 4118 4997 3411 4145 4435 2815 4494 2832 3705 4593 4224
26 29 8 21 30 2 15 17 33 10 13 14 37 8 29 10 30 31 28 28 6 4 15 36 35 35 20 11 3 1 30 11 11 35 29 25 1 22 6 24 4 35 19 9 29 13 1 19 17 8 38 28 31 5 26 9 14 28 31 30 14 4 34 34 9 14 14 27 20 8 24 6 35 12 1 36 26 26 2 4 18 32 28 37 15 23 39 10 32 36 29 11 32 22 35 32 33 17 30 25 17 10 16 10 28 6 37 3 11 18 16 7 27 33 16 4 10 38 27 12 34 22 1 20 2 24 27 11 13 6 5 11 30 14 14 27 39 31 6 3 18 34 37 32 16 33 36 9 13 27 28 36 4 13 25 21 29 9 22 24 30 16 21 8 20 7 12 2 16 2 39 4 17 39 22 10 3 31 26 15 36 17 24 14 3 22 28 32 5 0 22 16 13 21 38 3 14 22 28 15 31 1 38 5 28 28 9 11 36 24 26 27 13 39 6 37 29 33 34 32 32 29 32 15 37 4267 3040 4453 4706 3138 4824 3701 2899 4792 4465 2576 4402 2983 2544 3337 2906 4501 4044 3970 3023 4168 2847 4909 4091 4355 4812 4250 3498 4043 2720 2610 3546 3212 3227 3879 3632 3025 4122 4776 2671 4265 3271 4712 3844 3426 2941 2661 3236 4124 2762 4354 4139 4427 3063 4036 4675 3209 2739 3755 3430 4309 4812 4458 3788 4265 3644 4492 3198 2502 3881 3829 4970 4686 3805 4032 4407 4931 4642 4263 3008 4904 3538 4051 2987 4102 4470 4988 4820 2758 4250 4016 4098 2953 4217 4796 2989 4604 2877 3148 3767 3221 4663 4410 2600 4797 3491 3545 3191 2956 2888 4431 3320 15 3378 4099 3950 4488 3258 3574 2698 2695 2979 2579 3197 3060 2673 4476 4443 2977 3786 4805 3430 4953 3913 4422 3734 3818 2803 4326 2962 2662 4686 3439 2532 2635 3836 2902 4324 3849 3266 4487 4807 4655 3614 3579 3771 4060 3019 2958 3411 2536 4340 3135 3441 4469 3760 2654 3394 3865 4725 2882 3473 3626 2643 3390 3936 3625 3503 3605 3460 2510 4768 3824 3140 4547 4498 4032 3297 3029 3021 2904 4130 4132 2739 3330 3653 3214 4985 4872 4742 3887 3198 3037 3608 4631 4089 3076 4951 3476 3175 3059 3085 3681 4153 4605 2767 3244 3281 4278 4008 3585 4420 4559 3277 4499
26 29 18 27 30 7 10 21 15 16 32 18 4 23 9 32 4 26 8 16 12 2 5 15 19 26 4 22 23 21 36 3 2 26 12 11 22 38 36 6 32 18 28 30 9 31 5 15 16 19 39 1 13 1 34 8 20 16 30 1 20 16 29 13 28 14 1 35 19 5 39 19 25 37 8 28 36 13 37 2 36 23 22 10 32 26 35 29 12 33 30 18 39 38 4 17 20 14 1 12 13 4 28 28 31 26 2 27 3 10 9 26 19 24 23 35 3 28 12 22 21 25 39 31 1 27 7 21 4 35 12 36 13 31 24 26 33 29 28 24 27 2 29 14 26 32 25 2 8 26 16 30 21 3 18 22 11 9 9 12 29 23 11 36 23 9 6 26 13 27 8 3 18 28 26 10 31 33 1 39 1 35 38 19 9 35 19 34 35 9 0 31 25 22 19 24 22 20 19 39 8 12 18 16 21 28 11 2 12 12 27 25 1 33 32 18 21 27 33 13 27 2 39 28 25 4662 4980 4604 3774 3880 4677 2892 2533 3170 3493 2931 3818 4854 3559 2537 3855 4391 4346 3140 2843 2730 2633 4001 2736 2674 3286 4918 3336 3857 3721 2935 4815 3490 4708 4998 4696 2519 4909 4077 4254 4076 3118 2948 2545 4239 3980 3336 4853 4782 3587 4607 4121 3103 4229 4188 3308 3198 3283 4598 2883 4687 3951 3981 2608 4876 2612 3676 3999 4922 4133 3986 3737 3358 4988 4599 3234 3405 3188 4193 3280 2562 4252 4030 4486 3182 3882 4852 3402 3122 4508 3216 2588 4426 2786 4503 2895 4542 4261 4436 3293 4041 3495 3171 3068 4945 2697 2562 3055 3584 3204 3570 3641 4796 2687 2757 3649 3723 3741 4923 3172 3040 2683 4647 4074 3492 4511 2719 3371 2729 3346 3319 3371 4371 2660 3368 4985 4158 2852 2675 4186 3735 3340 2772 4880 4356 2983 4689 3607 3670 3582 2986 4581 3029 3153 2937 3781 2619 3690 4411 4782 4718 4867 4573 2856 2718 2569 3276 3792 3369 2826 4288 3518 4004 4001 3170 4785 4319 4752 3988 3732 2788 3666 3891 3757 4501 3719 4779 3884 2521 4105 4612 3066 3615 4095 4037 4397 4678 3481 4516 2515 4301 4979 3448 3069 4050 3334 2534 2945 4928 3585 2802 4003 3097 4000 2560 3468 4089 4761 3032 2691 2929 3850 3609 3642 3255
10 26 23 8 27 35 1 31 33 22 25 16 36 26 16 25 10 25 9 13 12 37 4 24 22 26 14 32 29 5 15 33 8 32 2 11 4 27 9 38 5 10 24 4 32 22 32 2 31 30 5 29 37 27 22 16 23 16 6 36 1 17 5 5 30 8 15 8 22 31 14 18 18 2 9 24 5 36 4 13 38 4 36 11 16 15 16 6 2 1 34 21 12 29 7 37 28 23 8 9 28 16 27 23 1 19 29 29 37 36 22 39 15 37 21 7 3 23 26 13 36 28 8 16 33 29 22 24 39 12 7 30 24 16 25 32 34 16 22 36 26 21 25 25 20 18 3 5 36 13 31 2 18 39 22 6 5 13 30 5 38 12 8 5 7 2 3 32 27 26 35 14 5 29 33 5 17 35 10 7 11 35 15 38 30 31 21 14 16 15 16 0 18 36 30 19 29 22 10 9 33 21 15 8 13 4 12 23 36 37 3 4 15 27 34 28 13 35 39 22 21 39 27 13 23 4486 4156 3400 4296 4124 2839 4627 2658 2926 3007 3244 4686 3383 3068 3438 4588 4531 3627 2911 3261 2978 3889 3102 2601 4629 2659 3391 4326 3692 4916 2786 2981 4243 3119 4122 3301 3247 4021 4439 2990 3546 3437 4983 4945 2901 4057 3242 3072 4313 2936 2914 4919 2900 3365 2741 3455 3521 2644 3708 3878 4928 2916 3823 3951 4714 3550 2764 3176 3948 3598 2816 2660 3685 3043 4757 4076 4393 4509 3129 3818 4864 3313 4992 3596 3538 3299 4380 2565 3119 3151 4272 4537 3602 2715 3966 4690 4706 4801 3500 3485 3834 4389 3153 3298 3862 3637 3101 3606 3258 3518 3036 4193 4259 2909 4018 3281 3562 2776 3099 3199 4184 3802 4261 4328 4710 3975 4258 2923 4395 3139 4798 3767 4984 3979 2986 3850 2806 3527 4561 2979 2814 3966 3112 2740 4976 4864 3351 3022 2857 4756 3797 4113 3098 4090 4041 4475 3787 3025 2905 4441 4411 2730 4821 3794 3638 4837 3894 4690 4607 3152 4605 3173 3145 4113 4387 4231 4073 3580 2777 4315 2773 3425 4207 3632 4025 3619 4579 2905 2676 3070 3259 4985 3951 4128 4566 3644 4648 3065 3577 4464 3631 3515 3828 4802 3522 3977 4091 3560 4792 3219 4140 3378 3603 2656 3051 4818 3472 4931 4300 4173 4389 3649 3655 3446 4475
11 10 2 6 33 27 33 36 26 17 9 39 31 27 32 14 25 16 14 11 14 28 32 26 25 12 21 39 24 36 33 5 38 8 3 22 18 6 37 21 32 15 17 32 21 8 33 26 32 16 3 25 21 7 23 22 38 14 4 31 18 24 12 13 5 33 7 18 4 29 32 1 20 31 11 21 6 11 26 22 33 30 11 17 4 32 14 36 31 39 30 37 31 14 11 19 8 13 19 14 34 1 20 7 4 16 2 24 2 17 38 38 32 31 12 26 7 9 18 3 22 11 10 18 13 26 23 31 14 11 15 17 39 34 22 30 12 20 20 15 36 8 5 34 28 9 21 30 39 9 9 25 16 37 15 35 3 2 16 19 15 29 15 7 32 28 28 27 28 9 21 12 27 22 23 2 5 16 17 23 6 22 21 8 25 24 9 3 35 36 31 25 0 25 37 13 22 13 32 27 17 30 24 25 32 19 10 3 16 39 17 26 14 26 28 36 35 32 13 34 17 27 1 25 7 2779 4221 2758 2664 4364 3411 3054 4617 3330 4520 3251 2913 4872 2636 2930 3077 3681 3030 3597 2944 3702 4643 4164 3868 4969 3804 4894 3216 4601 4248 4402 2682 4952 3254 2808 3264 2884 3488 4349 2773 4475 4579 4617 3721 3470 2965 4520 4752 4309 2787 4737 3620 4337 2759 4858 3363 2711 4591 4210 3370 4825 3310 2552 2574 3853 4686 4069 4748 3571 3186 3792 3854 3865 3203 3242 3436 4376 4833 4247 3372 4193 3267 3366 4245 3338 3924 3126 3285 3613 2876 3663 4758 3697 4193 4387 3772 4893 4462 2943 3026 3298 4301 4113 4813 3404 3569 4936 3706 3142 4937 3270 4020 3013 2832 3563 3045 3975 2798 2766 4886 3823 4289 2902 4753 4453 4706 2967 4030 4136 4133 3425 3894 4065 3340 3767 3501 3307 3372 4184 4612 3658 2660 3296 3288 4005 4674 3915 4519 3147 4552 2505 4688 4912 2861 3219 2600 3566 4036 2563 4355 2660 3270 4406 3926 2678 3748 4420 4545 3190 3707 3686 4164 2780 4540 2522 4296 4809 4155 2525 3155 4163 2608 4119 4063 4032 3294 4924 4274 4817 4516 3127 3637 2860 4498 2692 3424 4424 4051 4879 3007 4367 4240 2754 4152 3615 3645 3903 4291 4493 3469 4750 3851 3435 4018 2924 4809 2822 2964 4571 4484 3174 4869 4742 4821 3207
39 24 4 12 6 37 9 19 11 8 24 3 24 36 19 25 30 26 15 39 36 1 38 4 10 38 17 39 14 2 9 19 25 11 25 16 35 35 33 29 31 20 14 22 22 4 37 23 13 2 35 25 23 38 5 17 7 5 2 12 36 39 17 28 18 5 1 32 16 20 20 16 31 1 9 29 14 7 24 6 35 21 33 19 25 19 33 8 7 21 5 27 30 9 25 25 34 22 2 31 37 14 4 6 6 31 2 14 19 9 19 32 39 12 1 14 1 31 3 11 4 23 11 30 8 15 18 5 9 35 16 37 17 12 6 39 38 24 31 17 13 23 7 29 22 18 9 22 24 22 4 39 14 39 11 18 10 26 8 26 17 39 16 13 30 11 32 23 19 36 21 11 20 24 39 7 13 22 24 35 6 14 9 1 38 29 22 31 11 31 38 24 8 0 8 13 37 20 32 8 8 9 32 25 31 19 28 2 35 16 24 39 31 7 24 1 33 35 27 3 12 35 15 1 18 2704 4311 3209 3684 2541 3455 2913 4497 3487 4094 3190 3901 4438 2747 2657 2879 4258 2917 3671 3393 3916 2888 4025 4588 3152 4300 4913 3840 2772 4409 4099 3487 3489 10 3264 3889 3783 4475 3641 3145 3122 4603 4762 4329 4116 4367 3383 2891 4721 3909 4867 4527 4756 4365 4195 3957 4567 4350 3497 4935 3831 4336 4213 4989 3389 3985 3220 4881 4276 4921 2540 3665 2792 3247 4574 4814 4175 4738 2904 3984 4312 4872 3204 4575 2969 3716 4636 2926 3448 3682 3859 2570 4079 4534 3305 2604 4203 4442 4266 3761 3640 3875 2924 3675 4217 3169 2642 3568 4842 3604 2937 4133 4979 2598 2940 2571 3400 4284 4057 2884 3177 4611 2974 4925 2609 3746 4254 4962 4461 3514 4390 4120 3355 4110 4797 4571 3609 3744 4278 4949 4276 4125 3352 3761 2584 4240 2702 4120 4518 4571 3912 3732 3181 4558 2852 4027 3390 3521 3410 4384 4871 2783 4414 3748 4824 3051 4175 3871 3705 3771 4606 4376 4585 3525 4199 4688 2855 4506 3328 3184 4952 2812 4984 3239 2504 3183 4698 4085 2638 4821 3105 4869 3627 3931 4807 4592 4281 4949 4524 2624 2807 4134 3429 4640 3470 4883 4559 3807 4725 2997 3985 4282 3387 4058 4925 3813 4106 4129 4472 4899 2574 2889 2579 3416 3688
29 14 34 8 22 9 22 39 10 2 36 28 24 14 28 24 11 14 14 21 31 39 22 29 38 32 14 24 11 14 9 17 1 19 14 34 14 9 6 5 35 25 22 35 27 14 3 17 33 20 18 19 39 27 10 6 9 18 26 22 38 20 20 39 32 4 27 9 16 1 36 38 10 23 25 12 22 12 28 26 9 25 12 38 10 5 30 26 6 8 7 13 17 9 22 23 32 29 37 28 3 38 21 30 16 10 35 22 26 24 20 14 9 1 22 38 34 4 32 5 33 24 21 8 39 30 23 34 37 21 5 37 35 7 18 16 38 26 16 24 38 11 29 34 11 26 2 25 9 6 34 37 36 13 20 31 21 17 15 6 2 28 4 3 39 6 17 18 32 2 12 27 20 20 22 19 1 11 1 1 37 23 24 3 18 16 32 34 20 29 39 4 22 28 0 28 36 12 29 18 34 11 20 22 20 38 38 24 9 3 24 17 33 11 8 25 31 37 15 2 21 26 36 13 17 3466 4676 3017 4233 3750 10 2798 3125 3980 2940 3610 3559 4768 2779 4170 3873 4235 3446 4807 3588 4642 3660 3702 3990 3740 3038 2525 4758 3147 3653 3287 4977 2898 2774 3613 3848 3754 2541 3980 2837 4355 4599 4108 4525 3159 4237 4958 4017 3196 3802 4112 2811 4418 2540 3250 2793 3043 2510 4417 3451 4614 3133 4006 3376 3331 2525 4756 2810 4169 3200 4357 3866 3695 2793 3883 3273 4841 4976 3913 3504 4713 2751 3183 2953 3834 2699 4828 2776 3910 2723 4176 3704 2859 2987 2656 2897 3753 2580 3747 4360 4763 4359 3688 4079 2835 3481 4025 2549 2850 2575 14 2503 2566 4700 3318 3775 3747 4154 3662 4092 4807 3236 3901 3118 4542 2819 3393 2859 4811 4619 3600 3276 4862 3719 4495 4455 2550 3324 2589 3491 4124 2528 3802 4763 2750 2548 4829 3912 2531 3266 4341 2899 2551 4890 2798 3054 2542 2901 2991 4767 4574 2572 4555 2974 4003 4877 3020 3261 4134 4723 2564 3785 2707 2988 2876 4897 2741 3353 3096 2721 4752 3544 4567 4201 3142 3863 2835 4022 3019 3078 4480 2858 2975 4215 2888 4330 3377 3964 2662 3203 4400 4707 4244 3070 4218 4693 3813 3249 2956 3929 3016 3647 4357 2942 3395 4244 4611 4851 4017 3224 3142 2572 3899 3179 4054
8 7 19 32 11 10 33 6 39 38 4 37 13 36 4 19 23 39 17 22 14 18 2 38 25 38 35 9 27 17 14 25 17 5 32 32 11 30 2 17 33 32 34 29 12 14 38 25 18 13 17 39 27 13 29 25 7 13 21 13 8 10 34 22 23 20 28 7 21 39 25 19 4 7 32 7 6 14 6 23 14 17 17 34 32 18 20 33 32 24 16 13 1 24 28 5 25 29 18 15 8 34 23 37 26 28 4 5 13 8 27 38 2 7 3 21 1 8 18 33 12 35 39 33 11 22 30 7 18 38 21 38 29 18 4 24 33 5 2 6 27 37 23 34 28 1 6 34 29 31 39 30 12 22 28 37 3 5 37 4 22 37 14 19 27 15 5 21 24 27 32 1 13 12 22 18 18 21 31 38 13 16 15 11 13 9 10 16 12 33 29 5 24 18 12 0 18 18 36 21 20 3 28 24 2 14 27 14 5 14 33 13 29 32 1 2 2 21 31 6 16 2 20 31 20 4854 3208 4263 3664 4474 3794 3310 2660 3656 4196 3531 3356 2818 4509 4487 3676 2810 4552 2975 3118 4850 4878 4947 3627 4439 2512 4029 3117 3137 4530 3135 3103 3318 3689 3179 2819 3186 2566 3293 4406 3835 3815 3230 4641 3949 3536 3541 3412 4897 3049 7 4246 2515 4564 3017 3140 4148 4806 2724 4314 4458 2507 3672 2718 3292 3529 3096 3382 4325 2832 4661 2783 3866 2731 2910 2743 2633 3182 2700 3917 4564 2512 3914 4926 2755 3337 3511 4421 2798 4585 4919 4199 3941 3918 4190 3710 4195 3128 4674 4490 4832 2666 4606 3263 2630 4303 2598 3237 4448 4536 4839 4342 3387 4105 3196 3581 2745 3562 2877 3951 2991 3954 4896 3689 3406 3155 2655 2524 3614 3934 3017 3826 3042 4286 3054 3179 3015 3861 4053 4697 3334 3848 4717 4110 3168 3220 3446 3578 4775 2582 3168 4686 4498 3833 3582 4802 3732 4712 4719 4310 4658 2624 16 3307 3300 4163 4046 3594 4909 4614 3745 3008 3525 4810 4491 2553 3295 4777 4420 4867 2586 4732 3247 3293 4590 4078 3976 2536 4658 3046 4337 2602 3083 3444 2799 2990 3712 4261 2858 4445 2569 4657 3846 4007 3666 4546 4894 4307 4904 4119 4215 2709 3982 4517 3630 4084 2653 3144 4456 3869 4267 9 2855 2552 2617
20 13 20 17 23 3 17 8 21 20 38 19 31 29 34 35 8 9 26 38 26 4 6 23 39 22 19 20 17 27 15 24 19 2 7 28 35 5 39 7 16 11 33 30 29 39 15 21 17 23 5 17 35 16 28 28 19 33 2 11 3 9 17 34 23 10 9 22 4 10 13 24 16 27 28 36 30 10 20 27 34 37 30 5 22 37 6 26 30 1 13 1 12 11 28 6 20 36 22 7 10 23 9 8 27 10 11 36 36 17 39 22 24 36 22 14 16 14 31 21 10 16 19 37 35 6 12 15 22 21 23 20 24 29 36 1 36 32 4 5 32 10 21 38 33 3 23 17 29 25 30 19 30 20 10 38 16 3 26 32 22 10 34 25 30 27 5 8 36 17 11 34 9 21 9 10 16 36 14 31 15 30 24 9 15 7 3 31 9 11 36 9 12 15 10 6 0 14 30 8 34 16 20 21 17 8 14 29 32 36 1 24 16 20 11 23 2 15 28 4 33 29 10 1 2 4831 2644 2639 2510 3248 3924 4459 3839 4145 4938 3736 3605 2598 3479 3856 2708 2656 4882 3074 3811 3236 4765 4915 4727 2522 4502 3886 4858 4817 3309 3875 3458 2556 4921 4766 2678 4951 4191 2809 4401 4953 3689 2592 2912 3395 4298 4702 3035 3199 4796 3160 2569 4292 3941 4543 4105 4098 4923 3232 2562 3683 3320 4785 3447 4638 4641 2775 3982 3282 3810 2834 2611 4513 2564 3430 3069 3726 4710 4977 4691 4460 4087 4757 4747 2665 4965 2842 3414 4016 4263 3686 3494 3317 2541 3447 4380 3884 3762 3885 3183 3639 4497 3495 4319 3441 4279 4130 4289 3809 2987 2925 3240 4707 4167 3788 4780 3028 4861 2510 4529 3728 4786 4366 4000 4973 4995 4474 4795 4110 4002 4878 3092 3832 4539 3397 4785 3474 4469 3109 3334 4171 2757 4944 4335 3747 3340 3736 3354 3914 2971 4460 3288 3984 2633 4955 3629 2566 3668 3024 4198 3125 4364 3649 3927 4090 3571 4391 3028 4723 2820 4002 4884 4019 4569 4879 3098 2854 4684 4041 3457 3388 4742 4788 4339 4764 4902 4391 3376 3428 3793 4810 3296 4351 2600 3714 2840 3607 3112 3114 2675 4169 4656 2758 2531 4987 2728 4848 4613 4685 2595 3639 4957 3201 4002 3307 4187 3510 3065 4720 3270 4734 4057 3745 3694 4128
4 30 16 22 21 39 9 19 31 12 9 33 28 21 22 16 36 32 5 23 15 35 20 31 39 24 36 36 25 1 38 14 22 5 37 37 2 19 14 15 7 39 26 10 24 2 18 4 5 23 5 17 35 28 21 30 18 22 33 31 8 2 37 35 26 18 11 17 11 36 10 9 33 15 24 15 35 12 1 22 11 28 16 11 28 35 9 7 14 18 36 12 3 35 18 24 5 9 30 17 34 39 5 32 6 3 20 29 10 15 11 14 31 24 19 37 39 24 4 16 26 12 16 28 10 27 8 10 24 1 3 11 37 24 32 37 29 35 9 24 23 16 31 11 30 19 39 14 19 32 32 8 8 37 27 7 29 17 32 32 10 30 36 17 24 7 11 10 37 2 10 34 27 32 28 7 10 2 3 11 16 14 32 34 3 14 28 35 15 10 22 19 29 37 36 27 30 0 22 35 11 2 1 1 1 14 8 31 14 18 22 19 21 2 5 38 17 27 29 26 3 33 7 19 3 3188 4903 4435 3332 4907 4476 2839 2604 3005 3283 4014 4792 3596 3711 2686 4227 2834 4695 3277 4342 4338 4012 3885 3795 3956 3543 3097 4785 2645 3824 4284 4068 2506 2710 2623 4809 4129 3978 3446 3927 3879 2756 3630 4914 3643 3169 3706 4182 4150 4223 3930 3052 2620 3955 3858 3691 2718 2780 2771 2986 4205 4915 3437 4572 2620 3356 4702 3448 3545 4796 4206 4408 3890 2666 3365 4489 3790 4203 4373 4681 2523 3547 4363 2667 3069 3719 4922 4632 3091 3627 4981 3303 4759 3312 4293 4231 2719 3091 2601 4612 4500 3727 2691 4580 3447 2946 2835 3867 4012 3929 4092 3277 4409 3095 4568 4953 3985 4567 2513 3711 4300 3191 3159 4850 4842 3192 2937 4228 4271 4373 15 4880 3111 3377 4995 3648 3847 3271 2654 4123 3176 4962 4094 3807 2576 4213 3871 2888 3261 4080 2926 4604 4008 4208 2514 4507 4484 4584 4269 3656 4925 4792 3583 2928 3634 4633 3661 3523 4563 4487 3296 3892 4472 2585 3956 4469 4866 3459 4742 2552 4431 3724 4494 4597 3285 2918 3979 4847 3379 2670 3625 2590 4695 4934 3872 3854 3046 3602 3450 2513 4997 4974 3656 2593 2672 3572 3066 3404 2903 4416 4849 3403 4704 4224 3085 2624 4280 4164 4545 3784 3402 2553 3929 4762 4815
13 36 27 6 29 28 3 11 26 20 10 33 31 21 24 32 36 36 9 35 38 35 17 9 39 32 33 1 31 35 3 15 39 39 10 10 23 14 23 24 20 29 29 2 38 35 24 32 20 19 34 38 6 7 9 4 31 32 23 9 12 36 15 19 31 11 32 14 16 24 23 1 1 35 14 26 33 31 16 29 39 20 7 34 4 18 21 21 27 12 26 37 1 28 13 39 21 20 31 25 10 27 3 7 16 28 14 12 19 24 35 9 5 22 16 8 16 33 33 14 7 5 30 34 17 28 24 30 33 13 39 8 19 21 29 23 32 2 21 31 18 22 6 20 10 3 17 22 5 10 3 3 19 27 36 36 28 1 4 38 11 12 4 7 31 11 24 11 9 21 15 16 4 9 21 23 27 15 31 5 20 8 2 2 20 7 6 25 36 22 5 27 8 1 34 9 23 23 0 8 15 9 32 13 26 29 18 26 32 24 31 25 14 14 30 25 35 1 14 31 38 18 13 13 34 3333 2512 2531 4990 4077 2502 4843 4414 4143 3792 4499 3882 3402 2596 3226 3905 3989 3929 3551 4541 2802 4612 4287 4222 4684 3575 4038 3414 4863 2509 3152 3841 4159 4490 2987 3462 3057 4316 4413 4895 3815 2784 3352 3670 4927 3646 4041 3242 4497 4218 4766 3198 2873 3332 4427 4661 4932 2543 4917 3814 2756 2763 3399 4708 3053 4101 4783 2978 2563 3296 2756 3321 2988 4850 4484 3671 4338 4570 4369 2760 4345 3490 3652 3991 3069 4276 2625 4207 4663 3582 2556 4451 3367 3767 4294 3567 2908 4872 4801 4217 3675 3437 3308 3601 2977 3730 4333 2772 2582 2943 4832 3887 4036 4420 2703 3285 4744 4480 4331 4447 3525 3627 3090 3316 4777 3334 4697 4833 4560 4702 3691 4786 3013 4344 4276 4193 4740 4265 3015 4393 3977 3875 4601 4761 3374 3618 3355 4249 3671 2521 3982 4280 3471 3559 3829 4798 4040 4410 4922 3137 3149 4273 3787 4852 3152 3685 3840 3743 2718 3263 2904 3172 3135 4856 3194 2547 3297 3513 3074 3148 3787 4182 2912 2801 4138 3057 3530 3976 2765 2974 4486 4721 3589 3371 3243 4188 3311 2884 2542 3167 2848 3396 3420 4051 2803 3056 3876 3784 3641 3065 4643 4567 4922 4442 3188 3955 3257 3893 4963 4712 4067 3753 2843 4381 2763
33 1 31 14 33 36 26 26 6 24 26 5 36 28 38 3 18 8 6 14 16 28 9 30 11 9 30 39 8 9 3 36 28 6 1 26 5 26 27 18 8 5 6 29 29 23 37 25 3 33 4 15 37 33 35 26 5 2 16 28 28 30 39 28 33 24 19 28 16 23 17 9 16 8 27 12 24 12 4 8 36 37 7 33 27 10 20 35 28 6 31 19 39 24 20 38 26 32 6 39 11 9 4 11 29 11 5 39 26 14 16 4 24 14 24 26 13 23 30 26 23 5 23 26 8 23 5 2 16 33 33 11 16 2 26 33 15 3 20 27 23 2 26 37 21 9 9 38 3 17 29 39 8 28 26 5 18 9 4 33 3 3 23 37 14 32 19 21 11 14 17 5 9 32 37 37 13 10 19 3 21 4 26 29 24 8 27 7 4 16 38 9 27 30 2 18 7 38 23 0 8 11 39 11 8 17 12 26 27 30 4 7 10 18 27 21 25 6 30 4 22 20 37 22 39 3065 4631 2636 3580 3753 3566 2795 3717 3196 3741 2557 2879 4093 3557 3745 4498 3824 3906 2721 3311 4318 4491 3244 4196 2635 2612 3941 3827 2975 3024 3236 4858 3828 3005 3275 3073 4627 4964 4792 2756 3275 4372 4315 4560 3526 4480 4721 4112 3389 3955 4273 3060 3565 4950 2939 2928 3932 4970 3442 2727 3893 3721 3789 2873 2536 4742 4314 9 3780 3294 4580 4404 4730 2777 3506 9 4853 3847 3824 2846 4776 3727 4681 4385 4941 4560 3088 4747 3322 3371 4041 4963 3159 3274 2697 3088 2952 2782 3654 4800 3500 4177 3928 4960 4025 3953 2625 4407 4377 4318 3797 4817 3370 2614 3008 4980 3725 4543 3312 3985 3850 4488 3880 3337 3057 3046 4363 3354 4438 4963 3372 3956 3269 3028 3662 2622 3306 4011 4572 4167 4410 3788 3079 3368 3679 2897 3342 3480 3789 4542 3340 3724 3520 4244 4457 3376 2654 3661 3931 4266 4585 2867 2996 3599 3758 3075 4446 2998 2989 17 2617 3910 3785 3534 4918 3409 3106 4638 3310 4206 3534 4057 2695 2558 3551 2593 3427 4210 4904 4345 4875 4345 3649 3856 4229 3120 4149 2680 3207 3000 3143 18 2655 4706 2837 2674 4823 4541 4961 4770 4995 4463 3603 3145 3623 3446 2861 3756 3115 3833 2891 3879 3575 4185 4794
8 28 6 6 34 17 21 24 13 15 18 33 14 32 19 28 34 15 20 24 7 12 25 4 27 31 9 28 36 31 15 18 38 2 15 18 20 29 38 3 31 29 22 18 24 31 27 18 17 5 8 27 16 11 3 23 1 29 10 20 5 23 1 12 28 34 29 5 39 6 15 6 15 23 36 31 6 38 21 5 6 4 6 11 20 31 6 33 21 2 25 27 26 9 6 36 14 25 31 19 10 6 8 32 3 38 18 14 11 34 4 9 34 6 23 33 24 5 9 37 2 20 11 22 22 39 18 20 32 21 1 6 17 31 35 14 6 2 19 27 27 9 14 32 19 11 28 15 39 37 2 10 13 33 39 17 18 12 36 12 29 15 33 6 30 26 22 37 16 32 18 6 32 20 38 2 2 14 36 12 4 16 2 23 2 22 14 16 30 25 7 37 22 30 16 12 3 29 20 25 0 28 31 13 10 37 36 24 15 28 38 9 37 11 12 15 31 34 14 20 32 5 19 12 27 3070 4049 4819 4424 4800 2566 3341 2535 4984 2734 4609 2759 2926 3630 3368 2871 4721 3843 3725 4668 4308 4077 3913 4893 2729 3780 3688 3019 4492 3179 3917 4257 4746 4512 2885 4588 4059 2712 2720 11 4817 3346 2949 4340 3377 3559 2732 2661 3699 4346 3192 3977 3204 4734 4708 3840 2840 3451 4033 4519 3583 3205 4099 2906 4851 4392 3487 5 4668 3312 3853 3528 3762 4270 4000 3768 4066 4004 3949 3394 3950 2748 3718 4015 3077 3424 4934 3180 4883 2621 3269 2941 4340 2504 8 4146 3886 4639 3724 3338 4658 3770 4585 2553 2785 2995 3486 4260 3638 3347 3079 4061 2902 3087 3459 3354 3985 3161 2667 3638 3740 3755 3564 2739 4536 3634 4091 4050 2626 4197 2672 2760 4798 2904 4101 3923 3297 3376 3646 3792 2680 2704 2643 3760 4991 3198 3097 3104 3984 3583 2625 4613 3694 4509 3724 2801 4194 4495 4534 4971 2881 2755 3298 2792 4319 3037 2673 2743 4458 4346 2866 3461 4474 2934 3150 4326 4461 3821 4209 2752 3886 4509 2503 4670 4814 4599 4548 4070 2868 4087 3850 4152 3240 3108 2704 2803 4699 2763 4103 2704 4742 2988 3869 2822 2903 4879 4306 3336 3495 4857 4950 3269 3939 4341 3301 4594 3344 3755 2863 4599 3640 2519 2791 4565 4066
12 19 15 21 7 8 36 28 39 4 21 37 33 7 14 19 22 19 17 10 36 34 16 28 1 18 11 9 12 1 11 36 38 21 12 23 16 12 3 25 20 11 11 18 15 39 23 38 17 36 29 24 5 28 24 28 25 32 17 12 12 20 36 25 26 23 21 35 12 12 24 11 30 30 27 14 12 14 12 21 2 5 19 11 6 20 15 17 25 22 34 24 9 28 36 14 28 31 31 7 19 13 22 34 19 20 39 35 3 20 12 26 25 14 16 35 26 33 24 33 8 20 1 33 1 1 6 8 9 26 20 39 6 28 12 17 37 26 20 23 5 13 6 3 16 9 31 33 38 20 34 11 26 20 7 27 37 23 23 13 7 36 28 1 34 5 34 21 33 7 24 4 39 7 22 39 2 34 33 29 38 24 29 7 31 27 15 31 6 26 11 23 36 1 2 29 12 14 27 29 11 0 39 35 23 36 25 12 15 23 3 22 15 26 15 1 8 31 22 10 15 13 32 31 19 3115 4164 3945 4292 2637 3060 4646 2584 3800 3119 2714 3739 3636 4730 3723 2889 2717 4068 2805 3265 2592 2660 4145 3783 4489 2823 4962 3171 4007 4999 3776 3804 2893 2792 3464 2997 4311 4959 4095 3078 3199 4318 3334 4866 4133 4047 2626 2509 3476 3134 3738 4827 4867 3692 2626 3554 3423 2820 4494 2595 2938 3692 3863 3154 4118 2761 4252 4738 4696 2992 4567 3329 3664 3349 4416 4331 3563 4219 3969 4619 3718 3882 4373 4851 3515 4826 2673 2857 4073 4452 2643 4428 4972 4549 4768 3707 4051 3540 3771 4234 2537 3041 4296 3671 3685 3788 4954 4297 2815 3222 3304 4332 2597 3799 4813 3867 3481 3520 4926 3585 3912 4804 4268 4314 4103 4717 4931 3639 3085 3453 4659 2892 3955 2640 3118 3378 4290 4833 3302 4212 4918 4193 2764 2625 4158 3824 4623 4814 4616 4792 3205 3988 4758 3906 3649 3761 3028 4393 4000 3194 3270 3587 2977 4561 3618 3475 3677 4902 4215 4280 5 3558 4937 4733 4725 2878 3200 4143 4873 3204 4597 4919 3073 4548 3715 3098 3314 4608 3877 4271 4690 3494 4155 4315 3789 4296 2518 2850 4737 3195 4304 4912 4333 3056 2537 4960 3357 3114 4152 2629 3464 4489 4244 3562 4538 4697 3458 3780 2574 3630 3773 3363 3135 2878 3063
1 3 6 36 18 25 11 1 28 4 39 2 17 27 20 26 25 13 24 21 26 25 22 6 15 19 20 21 5 23 30 26 4 37 14 31 18 29 13 12 18 37 25 29 26 6 8 33 11 32 26 27 30 17 33 39 23 35 29 37 24 33 27 1 1 32 14 7 12 5 20 22 29 2 21 12 17 35 32 32 29 18 34 24 21 9 9 12 19 10 14 38 27 26 25 3 28 26 2 8 11 37 1 16 1 11 30 38 10 39 18 17 25 18 23 27 18 33 9 37 33 11 24 12 22 19 2 35 24 36 34 25 10 4 27 7 32 7 34 25 2 17 31 3 27 30 15 2 15 23 3 19 33 29 32 33 6 23 26 32 23 8 17 37 15 32 32 38 3 14 21 24 36 2 22 31 3 12 5 33 36 19 31 30 31 17 2 34 18 8 30 32 27 14 3 36 2 11 23 18 37 23 0 20 35 38 30 19 25 32 6 23 35 26 14 16 9 4 23 3 10 25 34 28 39 3035 4463 2991 4125 4623 4023 4306 4429 3392 2741 2693 4875 4993 4688 2614 3687 4072 4624 4755 4586 2663 2702 3380 4795 4898 3898 4052 3846 4556 3107 2997 4594 2998 4663 3277 4661 2503 2505 3478 2830 3608 3683 2555 3833 3797 4004 3578 4881 3578 3475 4058 4284 4049 3420 3686 4788 4028 3097 3466 3198 4400 2756 3054 4661 4221 4870 3712 3841 3260 4326 3464 3011 4672 2726 4218 4531 2565 3020 3491 4964 3048 4063 4690 2638 3050 4636 3199 3778 3694 4974 4532 4817 4152 3050 4019 3624 3874 4764 3766 4449 4580 3996 2559 2656 3895 3782 4610 3748 4916 2746 3122 2972 3533 4921 3536 3206 2704 3829 3267 3716 4231 3246 2765 4953 2613 4088 2786 4225 2739 4006 4166 3025 2510 2753 4464 3594 4550 2535 2945 3329 3718 3471 4021 3892 3918 3015 2701 4677 2758 4521 4732 3794 3935 2880 2798 4413 3077 4410 2566 2894 4031 4868 4887 4097 4002 3699 2776 4771 2880 4160 4164 2747 3478 4730 3026 4441 4054 3358 3889 2700 4019 4519 4714 2927 3162 2801 3509 3677 3470 3651 4231 4386 4046 3034 4817 3683 3314 3464 4092 3807 4855 2703 4230 3744 4936 4776 3096 4697 3434 3440 4561 2738 2863 3364 3512 4103 4281 3958 3155 4448 3110 3914 3057 3360 2580
15 28 36 1 19 34 5 8 5 33 39 31 38 16 20 11 21 6 4 15 4 2 38 26 36 11 19 15 26 29 28 7 20 29 3 4 26 19 1 9 17 33 2 17 16 31 33 4 10 32 10 29 20 10 30 23 23 20 8 7 20 36 29 34 1 32 39 21 35 34 28 18 33 27 33 5 2 13 21 6 31 13 7 33 34 1 31 39 38 17 7 39 24 24 5 25 37 14 9 4 22 31 13 16 30 28 27 25 23 29 9 12 38 25 21 36 2 25 5 26 20 3 35 8 28 29 26 21 19 25 23 6 13 18 36 33 3 18 4 20 34 9 20 14 2 8 13 22 20 16 22 25 24 29 20 27 38 7 23 12 19 27 33 3 37 11 26 38 19 36 8 25 30 22 19 39 14 18 19 3 10 20 37 9 7 23 18 31 3 31 31 24 24 36 14 10 20 20 14 38 28 2 1 0 7 35 8 25 20 25 15 32 24 28 2 22 8 12 23 34 8 15 14 21 14 4322 2611 4657 3234 3360 4940 4663 3154 2682 4808 4821 3502 4879 4276 3331 2755 2601 4758 2692 3681 4654 4458 3284 3439 3679 3739 4090 4004 3664 2887 4432 2785 3686 4865 4367 3876 3777 4460 4492 3579 3936 3053 4149 3038 4122 4126 2521 3895 4824 3873 2882 4558 3418 3909 3403 2911 4246 2694 2602 3708 4040 4687 2937 3989 4209 4233 4545 3435 3606 4850 4235 3452 3735 4583 3441 2869 3596 3528 3827 4840 4614 2937 3553 4527 4609 2876 2955 4218 4508 2974 4897 3407 3037 4781 3889 2908 2611 4316 3048 4729 4498 4687 4348 3149 4720 4701 3474 3213 3974 3139 3502 4959 2991 4921 4892 4197 3509 3258 3856 3018 2532 4386 4784 3796 4515 4754 3113 3262 2902 4535 3685 2625 4660 3665 4017 4618 3704 2697 4978 4046 3937 3698 2623 4552 4214 3315 4243 3929 2540 4888 3184 4380 2936 3515 4382 2570 2875 3411 4117 4625 2612 2949 2601 2608 3403 4325 4535 3776 2604 2674 3217 3864 4950 2778 3483 4676 4012 3164 2764 3962 4068 3251 4528 3468 3924 4374 3824 2585 4824 2821 3864 3041 4789 4890 3946 2962 3624 4546 2800 4160 3861 3017 2903 3503 3177 3833 2568 4102 2948 3067 2809 3488 2964 3744 4033 3843 4096 2572 4813 2596 4866 4218 4857 4159 3125
26 30 5 22 37 29 15 32 25 21 17 34 36 21 26 20 20 16 3 16 38 24 21 30 10 19 2 33 37 30 16 31 23 31 3 17 10 32 21 33 15 22 39 1 1 31 6 34 17 21 21 23 31 10 1 21 30 20 28 20 19 9 26 31 37 25 33 8 22 22 13 29 12 25 3 11 23 27 22 31 37 39 12 22 20 36 21 7 12 11 9 30 2 2 30 4 8 38 9 4 11 23 4 7 32 34 14 29 16 7 11 23 19 16 8 32 2 35 5 4 1 7 25 9 30 19 38 28 34 34 16 2 3 27 21 7 32 17 30 13 33 35 22 3 4 15 22 11 7 31 36 27 6 19 31 22 30 24 13 9 10 18 34 4 35 29 26 10 24 3 25 24 39 3 37 15 19 27 7 28 31 2 3 37 7 19 13 31 21 35 35 24 34 12 32 21 30 4 39 7 24 38 16 28 0 35 20 35 39 6 16 29 35 2 7 33 36 2 36 16 10 29 32 21 39 3440 2792 3519 2953 4295 3375 3587 3978 4801 4494 3932 3849 2700 3077 4518 3111 2813 3939 3612 4933 3253 2909 4621 3844 3240 3766 2670 4658 2720 2972 4783 3473 3663 3146 4659 2527 3510 4408 3733 4960 3099 2662 4587 4864 3005 3886 4779 2632 3027 2578 3823 3923 4468 4232 4111 2541 4703 4450 3625 3156 4865 4400 3988 2778 3188 4859 3078 13 4758 3868 4442 4537 4207 4272 4441 2931 4466 4375 3055 3917 2959 4174 3140 4968 4502 4641 4825 4880 3715 2811 2971 4684 3777 4396 2935 3391 3444 3852 3726 3201 3424 4645 3206 4998 4649 4329 3663 3107 4905 4954 3823 4250 3586 4593 2943 3123 2523 4863 3040 2613 3052 2922 2539 3262 4546 3691 4423 4232 4985 3196 3979 3877 4292 3492 4378 4630 3346 4097 4788 4768 4367 4516 4266 4452 3104 3186 4238 2843 3800 4384 4455 4411 2886 4071 4692 2673 2784 3292 4718 2717 2752 3995 4998 3129 4749 3492 2611 4242 4028 4552 3754 3989 2955 4205 4112 4719 4156 4068 4082 3016 2626 3600 2505 4232 2558 2817 3954 4572 4099 2672 3512 4185 4380 2986 2991 4797 4189 3578 2706 4385 4091 4345 3744 2979 3752 3891 3573 3300 3069 3916 3256 3841 4551 4862 3626 2507 2574 3542 2624 3970 3339 4234 3957 4188 3448
29 10 26 19 6 7 13 22 31 9 34 35 28 31 34 17 25 29 29 27 35 4 1 2 20 24 35 32 18 5 14 36 9 8 28 4 32 38 34 15 39 21 26 15 12 29 26 26 38 30 8 13 11 13 26 39 24 18 9 13 25 33 26 9 5 13 5 23 5 12 31 3 14 14 36 33 2 36 16 9 27 31 13 22 28 29 36 34 24 12 26 20 27 31 4 11 20 31 11 21 36 6 32 32 4 10 17 9 18 14 20 17 20 26 6 29 10 9 3 10 26 27 25 38 32 11 21 38 1 24 21 24 21 21 11 19 27 18 37 31 18 13 25 8 35 18 20 29 33 4 28 18 36 37 34 2 26 24 8 20 23 19 17 19 15 18 14 38 13 33 17 25 35 36 32 36 16 9 7 16 9 19 31 11 28 25 30 26 6 34 35 22 34 14 2 39 5 36 32 27 26 30 11 4 21 0 4 11 9 4 2 11 14 39 22 27 7 36 33 15 30 17 36 14 16 4342 2956 4051 4819 4250 3376 4493 4635 4877 2657 4037 4045 2578 2733 2664 4028 2694 3817 2749 3244 13 2595 3579 2938 4235 2526 3987 2793 4481 4551 2826 4735 3681 2520 4530 4927 4602 3271 3057 4975 3521 4768 3902 4063 4740 4515 4947 4933 2972 4741 4529 3184 3316 3642 3708 3479 4745 3454 4255 2791 2511 4614 4657 2879 3680 2973 3596 4110 4833 2988 4915 2788 3663 3173 4182 4966 3820 4706 3307 4071 2952 3549 3000 4541 3978 4129 3405 3299 4696 3695 2773 4706 4336 4286 2599 2708 4660 4240 4646 2856 4230 3806 4368 3794 4409 2992 4122 2757 4502 2988 4131 4411 3490 3148 3280 4549 14 4278 3920 4156 4824 4217 4926 4316 4998 3213 3650 4033 2759 3557 4669 4329 3923 3115 3602 3542 2914 4797 4183 4164 3250 4440 3986 3548 4168 3573 3852 4379 3029 2794 3426 4912 4257 4208 3762 4478 4094 3255 3472 4098 3133 4176 2629 4255 3478 3168 3009 4824 3771 3133 3488 3373 3020 4708 2830 3454 4632 2835 3702 4516 4781 3964 3528 4854 3030 2770 3644 2664 3551 4892 2786 4712 4653 2623 3687 4679 4791 4506 3716 3594 2995 4250 3672 2657 4282 4278 4316 3971 3499 4588 3081 2680 2699 4033 2506 4232 2876 3231 3787 3349 2798 3066 2642 4021 3159
39 12 15 12 1 2 5 5 23 26 11 8 32 33 31 3 39 36 38 15 20 28 38 19 26 33 8 22 28 35 4 3 16 37 6 5 19 38 6 36 20 25 8 8 13 18 24 32 4 8 31 34 15 35 11 24 4 37 31 7 7 33 3 6 9 4 8 31 20 1 15 17 13 39 10 28 23 9 34 38 22 6 26 35 5 24 8 38 8 27 9 15 18 23 19 31 3 12 17 20 15 28 38 35 18 19 28 8 13 21 32 30 17 6 36 35 27 12 15 37 21 12 37 21 27 4 12 1 18 37 33 8 22 38 18 2 18 8 20 14 5 32 9 8 27 4 7 22 18 39 17 26 22 28 32 6 28 31 22 18 34 31 18 4 18 13 27 32 7 1 2 11 4 2 10 38 20 26 29 39 38 36 16 2 20 25 7 19 13 30 1 33 22 16 14 4 9 23 37 17 21 24 28 38 23 3 0 22 34 11 10 39 21 25 29 20 13 8 12 34 17 7 36 34 24 3699 4960 3710 2835 2834 3581 2543 3982 4144 4197 4060 4939 3385 3801 3030 4846 3156 4630 3767 4999 3627 4271 4835 2507 3048 3700 4724 3568 2734 4969 3425 3657 3937 3567 4262 2506 3601 4823 4758 4757 2682 3817 2809 4036 3352 3976 2845 2718 4195 4268 3058 3541 4340 17 3516 3612 4267 4905 4943 2653 3178 4526 3483 3728 3565 4294 2576 4892 2795 2549 4989 4414 2575 3815 3260 4492 2931 2714 3412 2699 3387 3443 4595 3195 2947 2886 4264 4506 3735 3663 2977 3601 4799 3291 3151 4416 4084 3153 3824 4582 4185 4180 4183 4451 3143 3701 2617 4866 4021 4332 3952 2625 3372 3734 4061 3512 3187 3841 3759 4940 3842 4983 4673 4095 4981 3306 3114 3883 4915 3209 4343 3837 3551 4197 4028 4780 2698 4195 4639 3089 2992 2538 4538 3154 4307 2545 3339 2578 2716 4795 3600 2502 3626 2991 3935 4615 3342 2988 3398 2751 4454 4964 4518 4210 3300 4408 4267 4917 3431 4093 3820 4939 4450 2727 3084 4541 4611 4447 4229 4726 4936 3485 4334 4776 2757 2645 4330 4895 4691 4750 3062 3223 4865 3024 4226 3261 2903 3864 3735 2679 2941 2816 4830 3627 2573 4450 4508 3004 4232 4214 4281 4924 4819 4425 3065 4740 3063 4685 3715 2761 3899 4896 4323 4591 4099
27 20 17 19 18 7 23 15 22 15 32 4 12 28 32 25 4 13 1 12 34 11 34 26 1 34 25 1 14 28 9 23 17 18 32 15 33 2 35 10 19 28 17 37 33 22 17 20 19 6 31 7 34 31 17 20 28 34 5 16 13 2 29 17 9 21 14 21 39 39 3 26 20 5 10 28 12 33 27 31 32 23 7 16 39 1 7 22 1 35 32 2 26 27 11 29 34 37 23 12 26 3 13 7 14 22 15 9 2 20 10 12 5 21 37 38 10 35 24 7 37 15 27 24 18 29 33 9 37 39 31 24 38 4 37 1 18 10 36 3 23 29 23 4 21 25 34 3 19 15 6 15 19 35 4 7 27 4 1 29 1 8 36 10 5 19 1 34 32 12 38 21 33 31 8 34 16 18 3 12 36 18 25 19 20 30 28 6 11 28 15 2 3 29 36 3 18 21 29 13 18 30 2 16 5 10 5 0 20 11 3 21 37 13 31 10 18 6 33 27 29 13 19 16 3 3171 4768 3238 4510 2886 3121 2754 3032 4442 3228 4981 4336 4719 4503 4693 3750 4956 3582 2574 3670 2722 4433 2742 4020 4109 4044 4468 3144 3832 3792 2928 4120 4327 4083 4987 3172 3860 4114 3698 4295 3830 3206 3634 2925 3820 3463 3255 3542 3345 3225 4280 4378 4430 2627 4653 4484 4882 4337 3154 3769 4559 4347 4211 3300 3744 3325 3884 3960 3342 3644 2759 3756 3975 3931 3088 4022 2871 3618 4967 4834 3671 2829 4132 4428 4512 2900 4472 4269 4653 4682 4771 2965 4809 3246 2889 2992 2922 3121 4314 2672 5 4116 4902 3487 3158 2576 2586 3005 3080 2571 4836 3388 3510 4865 4265 2866 2714 3038 3594 4881 4199 2761 4377 8 3462 3403 3000 3851 2947 3526 4501 3794 4033 3992 2731 4318 3415 3573 3407 4727 3713 4348 3357 3796 2557 4058 3581 4139 3119 2794 4092 3848 3530 3667 4639 3965 3234 4824 4458 4271 2675 4489 3076 2851 2623 3835 2902 3926 4185 4933 3215 4363 3764 3331 3732 3445 3076 3896 4879 4004 2671 3315 2903 3730 4199 3609 3639 2960 4796 3492 2893 3857 4353 3183 4365 3017 4060 3836 3857 3350 3100 4975 3724 3276 3199 3559 4449 4473 3523 4457 4584 4150 2760 3634 4787 3660 2965 3063 3515 4618 4461 3409 3496 4603 3468
6 30 20 9 8 1 15 27 31 32 38 28 8 24 7 31 23 25 1 4 18 3 7 28 32 4 35 39 5 9 15 33 10 30 39 26 2 21 31 12 3 9 22 18 4 5 20 10 7 29 5 20 37 7 34 32 13 13 28 26 13 21 10 22 17 5 35 6 16 1 39 6 35 18 28 31 23 1 10 15 9 35 38 31 24 38 12 3 29 1 35 12 6 15 9 20 7 39 20 35 29 8 10 29 2 38 25 6 17 33 17 11 9 26 5 35 1 12 8 14 2 21 24 31 11 39 28 12 27 39 18 22 31 14 15 7 6 13 20 34 28 3 12 34 29 32 13 23 28 26 16 7 20 25 26 4 30 7 19 5 32 34 16 33 13 26 39 22 26 14 6 8 30 6 19 18 24 35 16 11 30 13 4 3 13 3 36 39 27 27 27 28 29 17 2 23 36 37 34 38 38 2 33 31 28 22 31 19 0 27 30 9 10 36 23 29 33 35 15 36 23 20 27 15 15 2946 4541 3517 3783 2839 4572 2617 3387 3095 3251 4411 2770 4321 2772 3550 3934 2774 3227 3163 4735 2935 4229 4292 3926 2621 4071 3986 3435 2716 4744 4509 2855 3033 3660 4394 3579 3929 4398 3898 2830 3103 4546 4095 4476 4995 4472 3864 3931 3386 3982 3898 4654 3403 4789 3628 3248 3871 12 3040 4215 4679 3984 3335 4759 2522 3056 3079 3005 4449 3841 4783 3363 2629 3264 4452 2754 3042 3123 4908 3247 3694 4586 3373 3186 4031 4807 4409 4170 4702 3656 4775 2550 4721 3252 4357 2555 3856 3066 3549 4206 3550 3130 3552 4090 4624 2543 3265 4520 2633 4396 4054 2633 2750 3966 3895 2893 3666 4163 2965 4329 3064 4825 4401 4527 4774 3600 3712 3161 4927 4040 4142 2644 3442 4119 4620 3239 4697 2948 4488 4121 3800 2809 2600 2818 4785 3432 4470 3638 4800 2664 3759 4974 4176 3251 4608 3187 2510 4104 4658 4438 3895 3387 4457 3970 3158 3329 4583 4728 4914 4230 3038 2990 3721 3436 4722 3830 3071 2781 4644 4626 4706 2542 3409 4116 4957 3302 3856 2838 2730 3661 3119 2887 4669 2623 3569 4897 4845 4126 4748 3569 4977 4541 2719 3664 3843 2978 3506 3188 2751 4545 3286 3128 3002 4183 4722 2706 3822 4837 3075 2851 3440 3465 3324 4458 2988
31 35 15 12 2 10 11 15 20 29 21 36 31 29 16 15 34 23 25 24 35 12 32 5 19 30 20 17 10 33 3 22 31 17 5 13 38 32 5 11 37 28 37 34 8 13 32 26 34 24 14 28 17 38 14 16 22 29 24 26 10 10 25 5 9 22 32 14 35 27 1 24 32 36 30 28 18 34 30 19 36 3 33 14 17 25 35 25 34 13 8 20 8 4 8 13 20 37 10 19 36 32 13 4 19 39 14 38 34 34 13 11 6 10 7 4 39 4 25 30 5 10 35 32 32 1 15 8 1 1 2 11 30 8 11 8 39 14 11 4 30 25 34 23 21 19 32 11 37 18 24 15 23 16 25 33 11 35 5 13 23 3 6 35 6 34 3 5 27 13 4 25 30 24 33 26 35 23 2 35 37 31 4 15 31 11 23 9 10 9 33 14 38 19 15 21 22 26 33 14 20 21 17 2 2 32 8 18 39 0 3 30 17 7 37 39 28 13 37 25 9 12 29 14 39 8 2896 3182 3828 4433 2620 4593 3803 2933 3220 4979 3067 4470 3721 3533 2962 3638 3830 4620 4584 3201 3640 4856 3338 4736 3762 4853 3589 4555 3439 4043 2942 4460 4408 3716 4840 4643 4921 4031 3085 3221 4838 3148 2985 4072 4288 4878 4253 3750 2534 4880 3152 3043 4590 2959 3510 2566 4471 2626 3977 4297 2706 2877 4903 3612 4556 2696 2694 3353 3421 3020 4654 2501 2972 3280 2621 3672 4442 3588 2680 4447 3934 3703 4134 4296 3144 3886 3442 2548 3106 3605 3909 4323 4384 4166 3719 4524 4024 3101 4469 2741 2557 3686 3934 4501 4486 3876 2838 2578 3348 4496 3451 3226 3216 4114 3476 2580 3801 2891 3579 3665 2644 4917 2933 4973 3402 4589 3393 4234 3448 4681 2514 3352 4880 2699 3835 4888 4450 4819 2870 3299 3718 4102 2677 4169 2900 4996 3747 4811 2610 4292 3228 4348 3743 4950 4592 4117 2675 3240 4141 3125 3601 2825 3545 4110 4598 3689 2530 4881 4933 4730 4879 3195 3505 3048 4327 4282 4342 4481 4360 4834 4407 2546 3053 4597 3461 4918 4736 3974 3101 3984 3475 2556 3467 2906 3087 3437 3771 3496 3200 4135 3931 3403 3320 2567 4670 3420 4691 2556 3920 3347 3009 2589 3748 4535 3597 3677 3386 3415 2688 4502 4541 3520 4525 4738
11 13 24 6 12 12 2 35 30 21 5 10 29 14 2 11 21 37 8 21 20 13 8 34 10 1 31 34 13 35 11 9 31 31 33 17 38 38 19 34 13 24 19 22 27 32 8 26 17 2 20 20 36 8 28 36 22 26 35 37 18 35 39 23 12 26 30 9 28 1 17 6 22 25 26 39 18 38 16 28 21 27 13 31 9 37 34 14 15 39 4 34 24 37 22 13 3 22 27 19 7 8 20 32 29 7 24 12 21 7 2 32 20 13 13 12 38 27 4 10 38 38 26 15 14 10 13 16 11 39 17 11 12 15 20 24 17 33 22 39 6 30 37 12 2 13 27 19 37 17 17 14 33 23 37 29 3 31 23 20 36 22 27 34 5 22 18 16 25 33 2 11 3 17 32 2 15 16 13 29 12 36 27 23 24 30 26 39 38 25 30 10 26 12 37 5 18 7 12 38 21 21 7 33 34 6 24 29 27 6 0 4 33 18 6 7 11 14 17 38 16 7 16 39 1 4383 3415 3643 3797 3120 4631 4487 3915 3349 4639 4388 3092 4761 3748 3451 4282 4688 2633 4372 4600 3044 3544 2505 4865 3647 3956 4631 4191 2990 3441 4645 3684 4876 3183 4524 2831 3610 4327 3028 3307 3942 4082 3451 4857 2914 3895 2506 3327 4443 4393 4250 4789 2832 4792 4817 4617 4290 4742 3147 3691 3562 2736 3725 3873 3450 3596 3280 3450 3467 2554 4059 3560 4270 3241 4206 2981 4438 4094 3726 3236 2908 4263 2894 4771 3647 3295 2991 3401 3667 3478 4751 4917 2868 4440 4564 2501 2650 3869 4003 2977 2566 4794 2621 3338 3448 2724 2927 4553 3536 2894 2924 4071 4992 2874 3828 4732 3801 3992 2639 3592 3162 3456 4933 3772 3138 3958 3684 3469 4906 3766 4369 4722 3805 4895 2851 2740 4605 4479 4656 3550 4706 2856 4422 4670 3922 3768 3484 2690 3865 4636 3898 4677 4374 4233 2598 4962 3839 3415 4573 3322 2727 4158 3621 3169 3734 2816 4441 3500 2595 2660 3539 2568 4516 2675 4753 2955 3507 3122 3250 3309 2638 2843 2638 3042 2555 3499 3991 4186 2925 4814 3693 3869 4649 4817 3814 3808 3372 3951 3780 3268 3309 3040 3337 3327 2838 2915 2897 4345 4971 3342 4816 4661 2540 4871 3221 3466 3729 4111 2553 4649 4243 3485 3868 2574 3446
33 6 7 25 26 36 13 11 2 16 39 11 18 1 25 39 20 36 23 7 34 10 39 11 27 14 31 14 26 35 35 7 29 10 4 26 28 4 15 10 18 10 1 22 25 22 1 29 30 14 35 39 24 27 34 14 4 15 30 6 28 8 21 35 19 12 3 38 2 24 34 20 3 9 11 21 23 5 12 9 3 28 23 17 32 15 31 38 11 10 1 26 33 30 32 37 30 33 21 6 13 28 32 2 25 34 36 5 6 19 28 28 38 14 36 20 20 32 28 38 32 25 5 2 6 39 2 31 11 34 30 12 9 8 8 23 34 19 34 34 4 13 30 33 37 17 3 21 28 13 39 36 38 2 6 19 39 36 12 21 30 2 7 31 12 2 4 29 25 3 9 7 2 7 19 11 2 32 17 24 6 12 2 13 4 31 36 11 35 21 14 15 11 1 39 20 8 7 24 20 11 2 6 15 13 31 29 35 36 39 21 0 14 38 20 2 29 38 22 10 22 27 31 5 1 4835 2975 3668 2850 3312 3344 4427 3741 4692 4941 3679 4566 4792 2547 3199 4385 2582 3856 4370 3567 3455 4906 2953 4140 3063 2951 3383 4361 4846 4197 4147 4230 3154 3937 2564 4794 4849 3197 4957 4746 4206 4054 4080 4622 3100 3541 4292 6 3253 3001 4743 4757 2703 3325 2788 2752 4529 2810 4738 3114 3112 3487 3837 3812 3677 3162 4968 4975 3883 4368 4125 3919 3408 2651 3415 3399 3730 3805 3071 4890 4375 2548 3723 4128 4147 4579 3488 4364 4147 2981 2535 2900 4439 4453 4806 3021 2805 4449 4272 3692 3664 4859 3880 3529 3689 2549 4055 4740 4068 2984 4558 4158 4726 4842 3983 4366 4449 3400 4306 3693 3595 4979 3831 3120 2832 4580 2745 4264 3646 4757 3550 4041 3666 4066 3632 3527 3717 4580 3929 4043 2882 4618 2969 4161 4586 4295 4900 2648 2903 3348 4045 2658 3592 2697 4768 4824 3352 2815 2707 3490 2959 4426 4104 3487 3325 4533 4725 4226 2740 4007 4164 3380 4171 4897 4521 4374 4904 4064 2525 4316 3806 3698 3060 4678 3718 2532 2986 3565 2666 3792 3384 4507 4333 3351 3436 4623 3862 3941 4134 2991 2747 3998 4281 3552 4196 4515 3695 3104 4802 3931 4800 4008 4493 3856 3550 3550 4641 3516 4104 4598 3797 3416 4636 3987 4739
22 25 31 30 21 17 1 8 38 26 16 39 25 37 38 23 1 26 11 5 5 19 16 24 39 27 36 18 13 8 15 23 10 24 21 31 11 24 24 36 32 3 8 22 29 14 7 30 23 15 11 2 4 16 34 38 24 31 28 22 16 22 17 15 3 15 10 22 23 25 16 21 35 23 27 22 39 2 22 30 8 39 4 17 1 32 35 26 12 14 2 30 25 33 38 4 20 10 39 9 14 6 34 29 11 36 12 23 8 23 39 35 22 20 33 18 27 3 3 23 2 32 20 9 5 17 5 13 1 28 21 21 14 31 39 1 15 22 29 28 39 12 2 24 19 3 21 23 17 19 5 29 6 28 21 7 28 4 28 3 3 36 6 29 21 12 5 6 26 7 34 35 18 20 18 30 12 35 26 38 1 8 22 8 30 33 8 13 37 21 20 2 12 15 5 21 12 1 32 17 35 19 36 35 13 16 10 22 16 27 32 37 0 16 7 37 3 14 32 21 35 26 26 31 2 3547 3793 2967 3410 4894 2973 4109 3058 4439 3829 3961 4619 3519 4525 3598 4928 3768 4552 2791 4697 4953 2751 4453 4490 4055 4742 2928 2757 3846 4949 4879 3165 3260 3686 4996 4268 4244 3395 4654 3390 4591 4442 2705 3797 2605 3188 4082 3007 4008 4326 3831 3800 3709 3903 3083 3762 3582 2927 4995 2806 3085 4610 4517 4396 3651 3419 2701 3431 3954 3071 3984 3148 4043 4706 3995 3408 4883 4982 4876 4796 3968 2596 3649 3890 3658 4568 4968 3105 2759 3149 3271 3208 3665 3867 3929 4673 4901 2825 4630 4092 3527 3616 4640 4188 2913 3686 3486 4555 2912 2549 3909 2511 4515 3668 4392 2927 2517 4872 3636 4179 3017 3375 4225 3218 3336 3200 4474 4950 3858 2550 4273 4141 4922 3040 4889 3763 3761 3710 4916 4209 3844 2510 3232 3557 4250 3980 4557 2579 2946 3147 4772 4198 2850 3585 4128 4267 2581 3721 4020 2601 3115 4844 4809 3612 2722 2512 3131 4563 4789 3492 4154 15 2883 4938 3364 2604 2597 3529 3656 4655 3277 3883 3513 4065 2753 2648 4796 3932 2737 2825 3699 4717 4665 3282 4615 3356 3759 4413 2671 3693 3912 4099 2790 2751 3549 3918 3100 4338 4845 3867 2795 3242 4517 3703 3382 4926 3638 2991 3376 4972 3988 4141 2752 4570 4952
25 19 26 4 38 8 39 37 11 19 26 38 30 29 33 39 2 15 5 6 32 32 9 37 10 7 3 29 35 26 32 20 3 36 32 18 20 38 23 16 25 35 2 36 24 10 39 3 25 2 26 13 38 36 7 9 28 15 17 26 11 39 6 39 30 25 31 2 26 1 27 1 29 35 20 31 6 34 11 20 39 14 16 17 11 5 18 19 16 22 33 29 18 12 17 7 1 21 9 34 12 9 2 37 13 18 29 8 34 5 26 37 3 15 16 20 7 20 6 26 16 15 31 5 23 9 12 20 13 29 37 36 18 5 28 21 1 11 2 38 29 35 29 1 13 37 35 22 8 3 2 7 11 26 17 12 6 32 7 28 19 33 25 7 1 3 19 17 38 31 9 2 18 38 11 34 30 34 17 14 27 9 18 10 31 23 32 19 13 10 39 8 27 27 17 12 17 34 34 36 28 25 36 30 38 26 20 3 1 14 9 27 18 0 27 27 4 24 38 6 32 37 39 15 27 4210 3662 3629 2786 2596 4415 3186 4744 2831 3461 4577 4428 2974 4488 4964 3303 3187 4581 2565 2616 4934 4384 4686 4204 4661 4710 3966 2529 3037 3268 3611 4155 2761 4719 3271 3758 3575 2594 3768 4733 2545 3320 3404 4053 3133 4274 3003 4603 2923 2834 4525 3197 3988 3728 2833 2934 4448 4104 3306 3401 3030 4167 4512 4317 2618 4122 3291 3930 4628 4005 4397 4719 4977 3351 3498 4258 4779 4658 3410 3373 4012 3261 3444 4714 4274 4194 3400 3099 2607 4830 4258 4323 3660 4363 4087 4671 2681 4564 4408 4970 2759 4537 4589 3637 2908 4765 4059 4997 3741 4690 3420 3406 3201 2646 2933 3103 3982 3124 3373 4607 2511 4842 3361 3592 4476 3522 3323 3462 2698 4282 2654 4581 4254 4638 4323 3261 2639 3941 4255 2724 3244 4992 3912 4802 2890 4120 4999 4078 4001 4262 4975 4009 3866 3074 3655 2507 4467 3751 4541 3295 2527 2857 3734 4741 3120 2888 4589 3182 2875 3908 4379 3764 4632 3926 4854 3337 2662 4290 3465 4254 3326 4748 3177 3472 3101 3654 3883 3432 4258 2679 3736 3030 2509 2794 2755 2558 3656 2705 4386 2988 3277 3091 3963 4924 3574 4670 4798 4491 2528 3733 2909 3420 2877 4518 3298 3768 3444 2840 3039 3663 3304 4105 4592 3580 4567
16 5 17 14 11 31 31 29 25 30 15 16 32 13 29 3 19 18 24 17 34 6 39 39 6 1 10 29 15 28 9 33 10 9 17 29 18 9 31 33 1 26 28 15 20 34 8 23 20 7 27 26 38 13 9 9 34 13 12 20 9 28 29 1 20 12 8 4 8 30 29 2 19 32 5 13 26 28 33 4 3 11 28 23 14 38 8 33 33 31 33 27 27 13 39 26 9 3 19 21 38 6 22 27 28 5 8 20 29 26 8 7 15 6 1 28 10 19 6 31 5 17 6 15 1 24 10 22 3 31 31 18 4 6 28 13 23 10 23 32 12 15 3 22 27 18 3 5 15 32 26 17 33 24 37 22 14 27 29 29 12 36 7 5 19 19 7 7 27 2 23 31 12 12 23 27 32 16 31 21 28 16 17 8 13 29 22 13 19 36 6 24 28 3 39 6 33 2 22 22 21 15 36 1 27 34 22 11 33 5 27 34 30 30 0 38 33 38 36 8 2 25 12 22 18 2775 4536 3525 3663 3896 3166 3445 4891 3078 3259 2924 2896 3604 2656 2670 3453 2991 4271 3899 4719 4128 3995 3651 2811 4001 3745 4612 2932 3908 4586 2672 3113 4337 3254 4650 3509 2564 4288 2670 3514 4006 3508 3758 3948 3657 2784 4533 2667 2787 3914 4253 3335 4577 3476 2548 2521 3262 3372 3299 3322 4899 3781 4741 4773 3875 4928 2772 3201 3544 4840 3597 3878 4219 4919 4890 2689 3236 4401 2786 3004 4570 4602 4565 2502 3357 2911 2919 2652 3924 2831 4823 3353 2710 4506 4786 3183 4311 3531 3710 3707 4698 4020 2703 2613 4491 3052 3987 4612 3697 4894 4347 2600 2747 4622 4558 3608 4988 3865 3644 2830 2621 4446 4179 3502 3794 4970 3179 3756 4889 3464 3243 4291 4639 3958 3034 3843 4330 3465 2733 3603 3854 2566 2775 4127 3779 2963 3635 4553 4556 3372 4721 4852 2816 4541 3958 2821 4580 3290 3661 4822 4195 3039 4746 3546 4926 3226 4310 3245 4346 4150 4423 2929 2505 3198 4168 4173 4690 2951 3910 2531 4399 4274 4999 3530 3002 4608 4089 4677 4725 4890 3039 2852 4618 4661 3077 4661 3515 3649 2945 4452 3897 2908 4872 4790 3381 2656 2784 3889 3511 3724 2790 3319 3763 4634 4060 4488 2765 4478 2548 3571 3897 4084 2726 3237 3317
19 24 21 12 23 35 17 31 23 2 28 37 31 19 36 24 33 1 28 25 34 5 29 15 17 32 34 26 37 25 36 35 4 16 9 28 11 10 8 2 25 5 10 31 33 22 13 18 17 1 32 9 7 37 5 25 15 35 12 11 37 9 20 2 23 28 36 4 4 7 17 19 14 9 30 31 23 4 32 37 32 37 1 31 27 1 39 5 21 35 6 28 30 1 30 7 27 7 4 32 21 20 32 7 30 10 9 18 28 30 33 5 10 30 36 12 18 36 19 25 38 34 21 25 17 17 33 20 30 31 38 6 2 36 36 3 20 38 13 23 20 12 33 24 36 18 25 19 21 20 9 32 36 37 20 11 18 32 24 30 29 30 10 33 23 26 8 7 37 10 9 37 32 5 13 24 18 33 17 14 33 24 19 30 39 9 21 39 9 7 4 10 32 10 8 8 23 14 25 22 12 39 11 12 14 15 10 6 14 34 14 25 3 3 5 0 10 4 22 24 8 33 13 20 2 4639 4966 3357 4824 2625 2931 2975 4919 4628 4111 3935 4756 3699 4072 3468 2905 3313 4216 4535 4794 3526 2856 4773 4252 4384 3770 3368 4233 3837 2617 3115 3946 3315 3443 2832 3709 4016 4492 3225 2641 3505 3023 4722 3721 4729 2829 3675 3607 2671 4323 3263 4211 2567 4081 3826 3665 2514 4925 4868 2960 3831 3166 2677 4011 2733 4543 4837 2986 4902 2752 4403 3183 3341 4332 3946 2955 4871 3160 3135 4118 4275 3264 3906 3921 4305 3267 4086 4831 4177 4435 2866 3092 3307 4984 4957 3279 4662 4035 4310 3222 4105 4472 3710 3996 3393 4484 4156 2994 2785 4769 3330 4828 3880 4774 4127 3716 3798 3943 3195 2654 3691 2706 3782 3275 2916 3138 3218 2651 4434 2716 3206 4853 3071 3972 4022 3137 3176 3569 3169 2647 4188 3348 4408 2663 2621 3975 3937 4059 3678 3128 4855 3793 4925 3850 2731 3107 4027 3711 4709 3617 3254 2881 3959 4325 2850 4814 2829 3304 4910 4396 4881 4163 4996 2733 4129 3341 2805 4166 2954 3185 3664 3966 3051 4490 4340 3987 2539 3923 4398 2646 2760 3931 3348 3225 3886 4315 4344 4050 4989 2802 2896 5 3166 3837 2529 4643 2741 2824 4872 3746 3748 2758 2836 3035 3241 4303 3386 3882 2645 4077 3298 2913 3760 3886 3722
9 23 22 11 38 30 7 35 2 11 5 33 20 3 22 13 37 38 26 29 25 14 14 27 22 25 2 11 24 17 14 33 18 9 5 18 38 32 16 33 31 2 6 18 30 6 20 31 6 34 20 30 9 16 38 35 5 25 36 29 22 39 21 18 14 25 18 2 32 28 19 34 22 29 10 27 28 18 7 17 30 6 9 36 19 34 39 16 31 28 35 26 2 16 18 25 22 22 16 29 20 10 15 16 38 38 17 31 34 3 2 20 1 2 32 18 21 15 7 4 20 32 21 25 26 11 9 14 39 22 35 37 32 7 28 11 21 22 3 37 17 10 4 26 24 9 18 39 12 28 26 28 6 35 39 35 28 2 27 15 33 1 3 20 14 31 7 5 24 37 14 29 8 27 23 19 5 5 27 22 31 26 26 25 14 13 31 16 11 17 3 1 13 11 12 8 20 5 35 2 30 13 38 9 5 12 29 9 4 10 32 2 10 4 16 27 0 7 18 36 37 22 13 8 38 3843 3344 3704 4522 3547 3118 4300 3677 2649 4179 2782 2678 4518 4790 4211 4220 4982 4132 2542 3880 3154 9 4105 3078 3736 3285 3812 2719 4403 3417 3114 4018 3247 3847 4830 4391 4626 2758 4811 4256 4628 4999 4493 4817 3564 2639 4049 4262 4847 4043 3376 4524 3126 4941 3041 4859 4519 2865 3210 3085 3627 3041 2794 3584 3442 4269 3274 3443 3631 2632 3607 4262 4323 2818 4891 4712 2760 3414 3135 2557 4024 4603 2737 3649 4209 4219 3170 3220 2899 4834 3259 3345 4818 3899 3497 4757 2564 3040 3773 4210 3996 4870 4799 4636 2901 4097 4649 4249 4475 2769 4596 3490 4482 3994 4078 3843 4421 2750 4628 4768 3471 4461 4737 3221 3035 2804 4581 4846 4726 4045 3454 4289 4609 2726 4549 3924 3304 3976 4147 3471 3373 3330 4831 2549 4574 4934 4091 2545 4503 4674 3806 4991 4109 3722 4402 2627 2963 2522 4324 2665 3325 2660 2847 4458 3359 3049 4872 2792 2904 3039 3159 4833 4940 2757 3824 4736 3666 4855 2919 3497 4356 4455 3095 3474 3433 3756 3146 4711 3037 3030 3817 3034 4652 4121 3053 2642 3256 4488 4529 4548 2692 3223 2749 3651 3205 3576 4915 3232 4655 4258 2766 4112 4933 3076 5 3121 4373 2624 2826 2940 3461 3403 3380 3876 4356
6 25 7 10 11 29 23 34 30 32 37 20 4 17 9 29 2 38 23 29 4 20 11 20 6 1 3 38 4 26 8 13 25 12 4 13 36 1 18 3 15 33 26 13 6 23 35 8 32 14 20 19 1 24 6 6 22 16 7 35 20 32 12 30 2 34 25 29 6 30 33 9 25 39 24 25 26 24 19 20 30 30 18 7 37 9 20 9 17 32 21 18 10 34 34 12 5 1 21 16 35 23 20 30 11 26 32 31 29 12 19 11 2 17 35 36 29 35 19 21 27 27 10 18 36 14 35 8 29 5 21 9 21 33 19 14 35 2 39 8 24 33 32 30 7 8 32 9 38 23 16 19 5 11 20 6 36 28 31 12 34 8 19 33 18 10 4 2 11 3 19 34 39 30 33 28 3 4 27 30 19 17 9 15 35 2 34 27 8 16 3 34 6 20 37 30 16 28 18 3 9 25 30 30 25 27 7 5 6 33 8 4 38 22 18 9 28 0 22 21 15 12 32 37 17 3598 3882 3842 3762 4388 2913 3448 4347 3260 2668 4705 3887 3522 4628 4508 3969 3292 4598 3075 4416 3467 3141 2636 2743 3292 4847 4214 2691 3619 4460 3015 3074 4799 4852 2586 4240 2618 4198 3982 2716 4712 3546 3049 3588 3926 3776 4632 4951 3604 2810 3330 3603 3651 4849 4945 4987 3980 4600 4133 4868 4921 4653 4029 2864 3106 4497 3132 3002 3116 3460 2522 4149 3932 4358 3476 3985 4317 4219 3638 3880 4327 4859 4270 3348 2889 4711 2683 3646 4298 2659 3905 4374 4838 3286 3571 2733 2654 3238 4435 4811 4686 3631 4626 4662 3747 4069 3800 2770 4272 3909 3257 3302 4894 3388 3666 2971 4173 3506 2615 4845 3880 3540 4272 3915 4964 3192 3504 2664 2677 4325 3058 4913 3648 4606 4837 2751 4688 3128 3630 3669 3649 3727 3304 4032 4027 3925 3419 3119 3209 2981 3785 4373 2662 3202 4835 3169 4057 2900 3266 4536 2756 4772 3587 4713 4946 2586 3200 3491 4058 4945 2859 2908 4387 3615 2747 3657 4339 2786 3632 2548 2846 3472 2816 2603 2970 3470 4518 3613 2822 2829 2678 4360 3382 4356 3830 2649 4976 3798 2725 3209 3424 3397 3862 3355 3114 3415 4232 4338 3958 4906 4032 4687 3288 3633 3250 4988 4617 4761 3125 3952 4110 2935 4641 4173 2590
18 2 23 19 27 26 5 21 4 25 14 38 12 29 9 33 27 7 20 26 8 37 7 21 28 34 38 13 23 16 5 37 27 4 3 14 7 16 26 18 11 5 37 29 22 19 39 35 7 25 33 27 31 34 1 9 35 2 25 39 39 31 3 18 31 35 10 30 17 25 4 3 13 4 2 36 22 4 10 27 2 11 27 26 2 29 23 21 25 4 4 25 36 20 16 2 30 35 17 7 11 32 27 7 38 26 15 25 22 14 25 25 11 33 35 35 32 22 23 4 7 10 17 14 3 14 16 38 17 23 30 17 23 18 4 34 31 29 34 20 25 36 26 11 32 5 17 18 39 32 6 25 8 13 7 21 5 17 28 16 31 32 39 24 23 4 37 22 5 2 33 32 39 32 8 21 9 35 9 27 33 11 15 28 7 8 31 28 19 25 27 2 4 29 15 39 22 30 38 11 16 4 13 7 19 10 9 15 38 7 35 5 9 26 14 1 34 3 0 9 12 38 11 33 6 4424 4032 3596 3010 4576 3230 4760 3640 3977 2856 4252 3586 2865 4815 4503 2769 4717 4559 3331 3788 3379 2665 3447 4577 4843 4551 3113 3700 4601 4193 3522 4812 2636 4723 3871 4313 3314 4381 4382 4956 2692 4672 2761 3095 2532 4603 2646 4674 2625 3455 6 4579 4122 3694 2663 3769 3487 2754 4374 3751 3424 2714 3868 4839 3737 4477 4955 2792 3247 3929 2798 4681 4607 4755 2984 4249 2861 3421 3345 4955 3126 2895 3172 4995 3241 3536 2760 4108 3049 3158 3436 4808 2804 4689 4823 4637 4771 2633 4545 4972 4173 3745 3060 4934 2788 2683 2731 3911 3349 3022 4704 4637 4223 3430 3100 4655 3018 3211 4817 3719 3943 4912 4975 3103 4679 3165 2751 3815 4075 4417 2879 3363 3970 3830 2913 3698 4770 4547 2716 3626 3887 4967 3821 3884 3558 3417 3358 4558 4065 4701 3911 3648 2974 3838 3152 3867 3154 2746 4505 3229 2739 2975 4033 3580 4768 4429 4799 4475 4125 4725 3937 2722 3689 2860 3442 4724 3815 4541 2665 3408 4181 4079 4899 3650 4427 2904 4713 3537 3020 4775 3189 2841 3321 2655 3905 4879 4396 4133 4523 4294 3345 4200 4293 4645 2522 4278 4556 3621 3915 3738 2616 3845 3624 3821 4598 4905 4525 2789 3276 3937 4622 2838 3018 3193 3560
13 1 4 11 34 5 34 32 23 26 3 33 19 33 36 35 5 8 12 33 17 25 27 6 3 6 24 21 25 19 26 39 8 11 28 35 38 28 12 23 20 10 37 26 32 19 39 38 39 17 6 25 33 8 29 6 28 28 38 33 1 31 16 18 12 8 9 11 8 17 16 2 16 15 32 14 31 3 3 30 20 26 28 1 12 37 29 21 28 20 18 30 13 38 31 33 22 30 17 39 24 37 34 8 7 12 37 36 21 10 38 1 21 6 11 15 11 3 25 19 1 35 27 24 37 6 29 13 27 14 27 6 27 6 5 37 20 30 4 24 2 19 22 39 30 21 12 10 4 39 34 36 4 29 13 6 36 31 22 20 23 18 2 8 33 17 25 18 36 1 1 33 39 5 24 26 28 35 23 27 7 13 26 38 28 17 34 22 8 16 11 17 25 22 3 3 1 34 3 24 7 5 33 24 10 28 2 16 23 33 37 18 19 8 3 8 34 36 25 0 15 4 1 31 35 4487 3623 3440 3699 2918 2816 2882 3467 3513 3563 4409 4838 2830 3638 3122 3945 4323 4073 3475 2965 3939 4419 2780 3279 3164 4846 4831 2817 4624 3715 3125 3331 3693 3522 3365 4544 4446 4303 2546 3319 2738 4800 3815 3019 4889 4008 4735 3058 3533 3262 3681 3660 3106 3746 4110 4327 3927 2846 3581 4662 3378 2727 4028 4727 2668 3705 3477 12 4211 3282 3466 4816 4240 4729 4061 4332 4268 4989 3549 4647 3328 2848 4280 3493 3341 4742 4477 2678 4989 3373 3763 2945 3894 3728 2623 3432 2675 3349 4578 3062 4379 2679 4442 3146 3626 2765 3426 4079 4376 3172 2700 4211 3179 3506 4312 3822 3882 4496 2617 2995 2668 3679 4206 4105 3393 3183 4725 3108 4793 4049 2963 2877 2749 3875 4844 2714 4977 3736 4071 2519 4775 3893 3034 4153 3889 3458 2949 4115 4004 3389 3154 3303 4268 4622 3175 4529 3706 4604 4447 2613 3052 3204 3836 4795 2681 2515 3057 2639 2532 3205 4409 4511 2780 2552 3833 4880 4438 3021 2643 4150 2741 3752 4082 4736 2827 3687 3017 2788 3683 3469 4579 2741 4263 4439 2815 2504 4995 4315 4404 4469 3048 2674 4334 2990 2526 4631 3071 3101 4745 4590 3740 3038 3361 4785 3730 3896 4176 2892 4524 4161 2638 2861 4300 4480 3960
22 28 20 22 26 21 25 5 39 13 32 2 2 12 36 26 18 28 13 32 2 33 27 28 30 5 13 21 25 37 11 27 35 23 24 37 16 39 9 18 16 36 15 21 20 32 16 2 10 20 38 32 3 5 28 21 33 32 19 34 25 24 5 4 28 16 21 37 22 28 23 22 32 24 32 4 2 11 27 8 4 29 18 6 7 11 23 14 37 37 20 33 14 9 34 37 5 27 28 14 38 2 39 26 9 12 7 38 6 32 14 11 8 39 16 22 14 14 16 5 19 13 15 37 12 14 4 15 6 12 34 26 25 20 16 34 12 1 31 22 8 11 34 3 8 13 25 22 8 10 11 26 39 20 38 7 28 19 20 27 4 27 15 19 39 7 21 21 16 7 11 26 34 27 8 19 5 13 36 4 25 3 10 20 8 35 8 25 7 6 16 14 3 15 1 7 34 18 17 3 31 9 1 14 19 18 34 30 25 8 31 18 4 30 13 24 5 12 20 17 0 9 7 16 10 3089 3110 3567 3565 3286 3191 2722 3137 3562 4535 3344 3864 3218 4827 4818 3546 2602 2843 3366 3776 4238 4771 3599 3170 3057 3828 2978 2563 4410 2656 3518 2683 4670 2746 3926 4700 3699 4914 3620 4664 3683 3249 4973 4325 7 2821 4960 2834 3363 4512 3499 2882 3047 2616 4083 3046 9 2703 2733 3675 4893 2506 3419 3692 4562 4145 3297 4375 4852 2613 2611 3936 3464 2581 4603 2663 4661 2887 4401 2823 4960 2913 3110 4428 3834 2876 4043 4313 2691 3317 2781 3151 3004 2577 3779 4697 4109 4246 3621 2654 2996 3446 2861 3594 2828 4968 4129 4814 2837 3866 2947 4983 3146 3840 3675 4881 3317 3254 4980 3132 2715 2509 2796 3800 3392 3032 3296 4330 3285 4417 3003 2975 2589 3393 3427 4558 4460 4181 4964 4019 3728 4353 4513 3586 2566 4657 4258 2891 4472 3078 4122 3610 3204 3290 4400 2936 4903 3059 3063 3959 4334 2792 2968 19 2631 2639 3144 3221 4122 3594 2730 3243 3307 4448 3946 4494 3238 4946 3593 2895 4468 4395 4405 3929 3386 2542 2794 3338 4480 4675 3240 3843 3244 3201 4165 4961 4406 4665 4845 2703 2867 2792 2854 4987 3446 3429 3427 4381 4525 2540 3073 2918 3447 3885 3783 4209 4941 2501 2660 4927 4737 4779 4387 2929 2543
34 30 14 31 34 13 11 20 9 33 24 34 2 16 16 30 32 17 36 10 21 39 27 36 3 24 20 27 23 8 36 39 15 32 27 23 7 6 2 21 36 2 13 15 18 26 15 32 9 1 18 8 32 30 26 38 1 17 6 2 11 11 28 16 3 20 27 35 10 1 19 19 26 34 17 29 31 24 32 23 19 29 15 22 27 13 35 36 23 17 14 4 32 37 32 21 5 16 6 39 29 16 20 29 31 15 15 29 20 3 12 13 18 10 15 28 34 5 24 14 21 20 12 18 10 23 2 16 23 12 24 18 1 18 29 26 30 39 37 30 27 32 5 4 4 32 38 13 2 17 20 39 13 3 3 23 15 13 1 2 10 32 28 14 15 1 30 14 14 24 2 3 17 39 9 25 38 15 9 28 7 7 10 1 39 38 2 26 16 14 38 24 34 25 3 22 37 17 23 39 35 14 36 32 33 37 10 5 24 37 27 38 3 4 38 22 28 34 9 4 27 0 12 18 18 4703 4804 3340 2807 3669 4458 2716 4586 3942 3193 4879 3864 4262 3407 4941 4900 2825 3230 4012 4126 4838 3391 3179 3014 2695 3349 3872 4799 3612 4381 2888 4828 4168 2521 4690 2546 4471 4804 4752 3733 3633 2845 4719 3495 2846 2568 4483 3634 4279 2729 2709 3533 4070 3757 17 3248 3692 3371 3858 4485 4979 2867 3653 4156 2505 4736 4182 2637 3623 4868 2932 2911 3683 3757 2545 4377 4907 4949 4862 3430 3027 4800 3871 4267 3167 2845 2986 2701 2613 2646 2780 3987 2693 3537 4306 4971 3896 3540 3184 4185 4593 4497 4421 4960 4180 3990 3870 2628 3462 4703 3714 2959 4824 4161 4475 4287 3390 3951 3494 3903 2529 3753 3292 3516 3207 4062 2949 4537 3028 4089 2507 2824 3318 3812 3353 4322 3089 3774 3553 3977 3715 3615 3843 3460 3209 4819 4453 3845 4700 4820 3051 4473 4363 4636 4193 2913 3850 2720 3261 4340 4898 3117 4528 2582 4921 2804 4787 4972 3333 3523 3043 4588 2882 4262 2718 2661 3541 4486 4691 4794 4898 2947 3577 4632 3034 3851 3663 4721 3555 2918 4371 2643 3740 2844 4445 3010 4503 3724 3720 3489 4001 2830 3769 3529 3372 4433 2506 2727 3492 4242 2844 3649 3272 4584 2843 3671 4034 3638 4641 4027 3591 4256 4820 3541 4295
34 37 25 3 7 21 12 9 29 26 1 38 4 1 20 39 23 2 18 38 6 21 11 14 34 10 3 13 26 13 19 30 34 31 7 24 35 15 28 9 26 30 12 7 5 37 1 5 15 34 38 25 1 31 31 3 29 14 38 4 5 38 11 5 26 18 5 14 23 6 22 15 21 12 5 38 27 32 34 39 39 6 27 35 14 3 38 21 29 34 21 35 3 36 22 27 3 27 17 35 8 6 10 14 39 6 20 24 3 10 22 2 8 8 37 9 20 37 16 26 3 20 38 26 25 30 1 21 2 37 8 6 14 18 19 2 28 21 13 29 25 15 35 2 8 37 27 4 38 14 39 17 14 21 36 2 24 22 5 28 25 1 29 17 24 13 24 20 10 34 22 30 19 13 20 31 23 3 36 27 24 37 27 10 4 5 30 13 10 26 31 1 20 39 8 21 5 6 26 23 18 23 39 4 22 30 28 26 16 14 32 11 12 22 36 36 39 39 2 26 32 9 0 4 3 4575 3202 3239 4216 4417 2860 3966 3471 3762 2535 4226 4900 2629 2961 3527 4486 3871 4974 3884 2610 2936 3832 4356 2992 3989 2708 4216 3337 4245 3436 4322 3472 4567 3665 4773 2967 3473 3674 3231 4087 3070 4041 4219 3580 4925 4573 3892 4524 3543 3203 2821 2855 4340 4563 3688 2638 4718 4644 4576 4040 2876 4648 4014 4209 4177 2709 3497 2750 4841 3062 3728 4130 2903 2649 3280 3641 2936 3328 4018 2898 4348 3245 3094 4300 4395 3571 4387 4781 2505 3070 3782 3122 4688 3550 2529 4027 3573 3353 4786 3757 4383 3807 2749 4783 3447 4087 4046 3081 3917 2644 2904 3352 4649 4610 3979 4690 4899 3005 4068 3143 2746 4249 2773 4742 3298 2955 3645 2516 2895 4839 2713 3343 3783 3336 4838 3717 3999 3230 4896 3687 2878 3111 4594 4549 3142 4373 4929 4087 2581 4521 2662 3588 2867 2566 2761 4116 2868 4543 2568 3638 3897 3258 4453 4054 4921 2835 3619 4494 3406 4683 3277 4992 3471 3694 3799 4323 4817 4466 4511 2751 3122 4638 4440 4836 3055 4700 3589 3891 3423 4131 4745 3206 4014 4914 4513 4699 4372 4279 3579 3274 2681 3854 3293 2771 2872 3107 2964 3658 2981 3022 2685 3579 3917 4143 4620 4324 4910 2862 4883 3877 4496 2941 4715 3487 2603
37 20 23 14 14 27 18 15 17 14 10 29 33 13 16 6 31 23 19 11 19 1 14 36 20 22 8 28 17 3 28 25 31 9 22 7 9 37 14 33 39 34 10 38 13 24 17 15 33 24 17 36 39 15 26 5 20 8 4 11 24 32 29 35 15 7 3 17 39 20 24 22 13 33 30 29 27 15 10 5 39 34 27 20 32 34 27 6 36 3 3 2 13 11 28 37 33 19 14 8 16 32 9 4 32 22 11 4 11 19 28 22 26 24 29 31 33 32 3 20 37 2 22 17 31 4 31 33 32 3 17 23 18 22 37 21 19 26 22 9 15 10 39 4 35 19 39 15 24 20 22 20 39 9 39 23 16 22 33 27 11 4 5 18 18 23 35 20 38 11 31 32 11 15 3 36 13 30 11 34 21 11 36 3 12 21 7 34 28 28 2 35 23 39 20 31 25 22 3 36 3 19 14 25 18 25 12 5 16 10 1 32 27 39 38 15 4 36 37 23 39 2 34 0 23 6 2992 4680 4982 4733 2788 3612 4338 2807 3565 3220 3770 2926 3690 4995 4268 4913 2915 4835 4372 2608 4388 2773 4372 4805 3412 4408 4893 3411 3427 3543 3071 4793 3570 3171 4942 2709 4712 3322 4711 4070 3724 3023 4949 2742 2901 4179 2689 4902 3319 6 4193 2536 3371 4871 3673 3396 4851 3470 3346 3724 4820 2689 2988 3763 2549 4923 2753 4733 4792 4083 3726 3036 3036 3825 3764 4642 3918 3427 2714 4794 4123 2560 18 2533 4196 3769 4673 3748 3699 2650 3893 4852 4821 3837 4070 3257 3347 3415 3841 3125 4536 3386 4418 4544 3619 2839 4501 4460 4578 4808 4957 3991 4244 4029 3465 3154 2712 4922 4038 4493 3622 4335 3254 3486 4154 3328 4411 4437 3068 4987 4614 2891 3149 3745 3356 4428 2930 4391 2708 3215 3963 3074 4158 3220 2772 2965 3010 2650 2760 4067 2866 3391 2990 4307 4590 2639 3306 4713 3292 2741 3139 3455 2758 2714 4762 4097 3125 3588 3304 2853 3691 2686 2659 3786 4158 2561 4144 4870 4030 2830 3994 4095 3112 3269 3860 4341 4103 4966 2782 3738 2789 3037 4975 4672 4762 3764 2878 2992 2603 4319 4815 4944 3465 2874 4857 2587 3396 4146 3090 2746 3471 3637 3556 4320 3817 4405 3567 2751 2803 4406 4399 11 4389 4753
18 18 14 23 17 17 32 16 17 25 6 35 30 21 36 38 6 10 14 24 3 16 4 29 31 13 25 25 27 23 1 25 25 30 20 17 4 27 1 32 37 23 13 5 6 9 25 16 25 15 12 14 5 8 12 2 20 22 26 38 21 12 15 14 35 26 10 4 31 30 34 39 7 35 6 6 26 11 20 28 1 6 7 31 1 12 5 21 16 6 37 11 16 26 35 10 8 23 32 22 10 33 10 35 15 25 2 7 37 17 37 33 35 32 17 2 12 18 16 26 21 27 17 21 31 12 21 21 33 6 18 25 19 4 30 14 36 8 33 13 5 9 7 4 27 24 33 21 21 2 16 26 4 23 31 30 18 30 27 22 20 13 14 37 3 19 29 30 10 6 37 35 7 2 11 22 14 19 24 34 9 2 4 6 5 36 17 19 12 36 29 12 30 34 4 4 9 29 34 27 3 33 34 7 22 17 8 4 34 3 32 15 7 7 9 36 25 28 10 26 9 29 33 26 0 4194 3573 4527 3669 2873 4288 4007 4531 3442 4384 3800 4287 4178 4220 2549 4632 4271 4418 4017 4485 2823 3230 4454 2981 4649 3827 4526 4466 3961 4080 3368 4629 4121 3870 4203 3104 3557 2934 3613 4466 3829 4179 4864 4262 3460 3319 3459 3780 3721 4359 2846 4522 4774 2615 2592 3822 3175 2660 3322 3969 4312 2643 3178 3337 3185 4873 2922 2977 2904 4992 3788 3582 3886 3880 3520 3199 4679 3644 3729 4135 2772 4140 4958 3942 2930 4452 3733 4370 3687 3870 4440 3395 2689 4479 4713 3490 2509 4080 3674 3614 4622 4544 3183 3107 2769 3864 2719 3929 4281 2637 4674 4052 4108 3443 4238 4178 4374 3549 4092 3024 3632 4589 3687 4926 3247 3543 4329 4340 2691 4109 4075 2953 3274 3246 4420 4876 3818 2555 3132 2815 4249 4156 4023 4354 3290 3479 3013 3352 4459 2846 2996 4195 3761 3911 3778 4563 3481 2664 4138 4381 2878 2730 2689 4599 2586 3313 2651 3113 4559 3916 4373 4153 4066 3435 2762 2930 2867 4410 3629 3832 4155 3882 3623 3054 3152 4853 3142 4890 2818 3025 3026 3439 3436 2767 4935 4917 4136 3916 4236 3980 4945 3881 2720 2776 4106 4890 4531 3176 2566 2627 4843 4269 4769 3481 4573 4174 3144 4670 4981 4082 4487 4376 3844 3528 3095
3558 3667 3953 3874 4063 3799 3867 3258 4653 3521 4285 2568 4320 4606 3562 3117 2707 4195 4094 4343 3028 3342 4905 2544 4407 4134 3702 2638 4249 2740 3759 3613 4280 4632 3339 3969 2542 2523 4733 3849 2652 2910 3678 3769 3651 4874 3089 2988 4742 4215 2592 4947 4958 2507 4348 3257 4191 3943 3251 3606 3788 2811 4269 2617 2927 4766 4301 3244 4817 4924 3300 3991 4672 3156 4288 3893 3215 4625 3587 4570 3831 4363 3509 3552 4595 2792 3038 4511 4013 2785 3033 2920 4768 3378 2683 2683 3353 2678 4453 3769 3824 4425 2741 3042 4293 3505 2541 3112 4553 3240 3656 4008 4153 3586 2843 4683 4025 3604 4394 4247 3358 2766 3073 2746 3925 3028 3280 3295 3593 2961 4753 3334 4571 4331 3133 3079 3777 4286 4878 4756 3539 4714 4744 2823 3338 3132 2998 2651 3603 4509 4035 4379 3058 3098 4157 3381 4806 4182 4927 4114 2665 2573 4343 4208 2908 4705 2782 3402 2555 2965 3857 3864 3562 4151 2679 3992 2702 4075 4745 4009 4956 3231 3100 4072 4087 2609 3640 2847 3448 4267 4662 4486 2779 2704 3466 4854 4831 3188 3333 3065 3070 3115 3035 4322 3440 4342 3699 3171 2946 8 4383 4835 3547 4210 2775 4639 3843 3598 4424 4487 3089 4703 4575 6 4194 0 30 31 24 22 21 35 21 10 27 21 28 3 22 13 22 36 18 28 13 1 7 14 16 17 29 39 15 31 22 10 24 25 5 21 32 26 5 1 28 19 9 15 20 27 31 7 27 26 13 6 39 3 18 10 17 10 2 3 39 25 4 38 26 6 26 24 16 36 2 12 31 35 9 7 29 12 13 39 39 32 24 28 29 11 15 22 19 6 11 15 5 37 12 36 2 35 33 31 39 33 21 39 34 35 6 28 30 33 18 7 22 25 37 22 39 39 23 31 17 33 6 38 2 37 20 20 23 25 12 22 2 21 26 14 17 34 11 1 30 34 16 22 29 31 21 39 29 15 32 13 27 12 12 2 27 19 11 2 15 4 14 11 13 5 6 31 1 38 7 22 8 29 31 3 25 38 36 34 7 36 38 25 31 12 3 11 19 29 28 36 11 20 21 3 3 9 9 19 24 12 23 17 34 2 22 9 35 6 5 11 3 38 32 19 2 8 34 26 21 11 28 31 32 14
4315 4576 3984 4104 2786 4128 2731 4931 4510 2662 4754 2741 2576 2549 2629 2679 3266 4303 4360 3263 3364 4272 3751 3267 4735 4495 4599 2633 2955 3132 3424 3315 3716 3625 4111 3129 3478 3491 2860 2731 3016 4706 4981 2760 3670 3866 4992 4130 3017 3361 4950 3784 4174 4047 4484 3362 3212 3884 4447 3952 3252 2754 4929 3336 3209 4049 3322 3633 3870 3120 3461 4521 2649 3601 3743 3285 3544 4275 4959 4000 2891 3417 4473 3211 4388 4413 3970 4558 3097 4562 2620 2860 3867 2681 4978 4478 3598 3206 4489 3307 4945 3092 4273 3496 3495 4273 4817 2758 4096 3472 4410 3465 3612 4549 3028 3750 3630 4027 2613 4128 3267 4099 3823 2781 2783 4736 3773 3651 3679 2807 4417 4636 4885 3923 3734 3473 4819 3524 4954 4164 4591 3638 2854 2986 3831 4227 4455 2854 4021 4401 4008 4561 4472 4580 4982 2886 4554 3611 3580 3437 4634 4968 4169 3928 2566 3269 2938 4323 3950 3016 4518 2852 4169 4624 4662 2699 2742 3237 3368 4863 4620 3137 2849 4172 4327 3594 4648 4086 3096 3040 4980 4156 4221 4311 4676 3208 2644 4903 2512 4631 4049 4164 4463 2611 2792 2956 4960 4768 4541 2896 3415 2975 3793 3662 4536 4966 3344 3882 4032 3623 3110 4804 3202 2992 3573 23 0 4 10 18 7 15 7 19 12 24 16 8 12 1 27 7 28 17 18 30 17 39 37 17 8 5 39 23 8 20 34 33 23 7 15 36 19 28 20 34 8 7 3 4 19 32 29 9 35 23 15 21 6 7 39 12 19 30 34 12 34 1 10 37 15 14 2 18 5 25 8 36 14 10 3 31 18 34 11 34 9 2 9 11 17 6 38 1 2 7 29 24 2 18 20 9 14 16 29 34 28 28 28 3 5 17 34 6 24 37 21 32 8 29 39 9 22 16 19 13 15 1 28 10 3 24 38 39 36 19 5 33 32 8 23 13 18 8 4 14 33 14 20 22 32 20 18 24 1 3 15 34 26 24 15 17 33 20 37 16 29 28 3 37 5 37 27 28 23 9 3 1 11 16 18 11 23 32 33 1 27 23 20 38 12 37 26 27 16 32 4 35 29 21 25 11 36 4 8 33 1 26 21 24 15 5 22 18 34 20 26 33 19 23 5 38 30 10 24 35 19 21 35 4
3997 4559 4955 4428 4910 3967 3633 3273 3343 3468 4859 3364 2854 4204 3657 3327 2677 3634 3496 3565 4828 3769 2798 3880 3144 3297 3712 4511 4266 3202 2795 2892 3463 2908 2729 3263 2667 2855 2560 3074 4865 4167 3654 2937 3471 4320 2866 2602 4335 3928 3484 2579 2550 4692 4009 4609 4149 2947 4409 4832 3712 3215 4198 2738 2907 3328 4889 4791 4958 4711 3166 4273 4725 4730 4146 2809 3792 4243 2587 3631 3139 3342 3566 4366 3653 3555 4682 3222 3908 3615 2960 4335 3564 3670 3819 2813 4318 4973 4783 3625 2893 3119 2553 3318 3127 3911 2594 3385 3799 3819 3768 4765 3465 4156 3657 4160 2662 3224 3061 13 2900 4029 3885 4997 3173 4026 2927 3837 4586 3330 4116 3141 3558 4122 3317 3491 3172 2711 2855 3914 2844 3093 4086 4431 3991 4904 4727 3339 4596 2621 4048 4715 2830 3309 4008 3492 2914 4285 3681 13 4856 3375 4451 4062 4968 2815 4903 3522 3368 4307 4988 3243 3090 3413 2932 4553 3315 3732 4002 3203 3000 3507 4629 4297 2740 3862 10 4696 4787 4453 4604 3400 2758 3209 3017 4263 2639 4435 2531 2636 4819 3945 2991 4657 3519 4051 3710 3238 3517 3182 3643 3668 2967 3629 3525 3357 3704 3842 3596 3440 3567 3340 3239 4680 4527 36 30 0 19 11 13 39 31 25 38 27 6 3 12 12 3 35 9 5 13 5 14 8 38 15 19 21 4 30 35 7 35 10 22 39 12 22 26 8 29 34 38 39 9 6 17 26 22 34 8 37 18 18 31 10 36 20 31 4 34 1 15 37 22 34 6 33 1 7 11 22 7 27 37 4 20 1 10 2 6 22 13 24 16 8 35 15 15 7 37 10 28 32 1 11 31 19 26 30 4 19 13 39 7 37 5 5 13 22 10 34 33 29 22 38 6 20 11 21 1 3 34 1 36 16 12 28 24 2 7 13 39 16 17 3 29 3 33 13 28 25 13 32 21 21 32 13 4 24 39 36 3 27 34 12 5 11 27 6 7 15 10 25 37 38 29 30 1 9 12 13 38 32 20 25 23 24 26 35 18 38 18 12 21 12 1 35 1 12 7 9 34 11 30 27 26 3 17 4 9 21 38 10 5 36 36 27 29 26 24 26 34 30 4 26 36 25 5 39 27 27 24 10 3 20
3316 2974 4636 3107 4407 4123 4471 2725 2507 2628 4151 2675 2532 4494 13 3671 3863 3622 3229 4207 3616 4001 3755 3022 3384 3530 4119 4924 3281 2893 2822 4918 2824 3745 3254 2709 4290 3136 4091 3410 3612 3284 2933 4341 3988 3899 3115 4952 4437 3910 3831 2636 4076 4772 3086 2815 4167 4599 4537 2543 4556 3298 4969 3865 3815 3502 3819 3230 4922 3968 3460 3046 4158 4387 3491 2920 4421 3962 3759 3293 3619 2918 3558 2745 2634 3966 3842 4710 4107 2709 2820 4612 3280 4591 3549 4488 3156 3047 3622 3128 3108 4945 3448 4040 2652 3654 3688 4300 3019 3068 2941 3530 3528 2895 4524 2913 4695 3220 2783 4449 3274 2568 2572 2667 3300 4444 4321 4197 3826 3873 2862 4872 3754 4183 3785 3117 4662 4755 4871 3297 4309 2925 4434 2767 2637 3632 2620 2965 2606 4266 2612 2925 2997 2677 2641 2636 2813 3324 4355 3079 4283 3812 3192 4652 4641 3700 3636 4522 4007 3823 2671 4792 4304 3815 3487 4140 4221 3193 3306 3960 4689 3596 4098 3509 4816 3508 4729 2955 4712 4706 3774 4296 2664 3684 4233 3664 2510 3332 4990 3580 4424 4292 4125 3234 2953 4819 2835 4510 3783 3828 3797 2850 3410 2786 3663 4824 4522 3762 3010 3699 3565 2807 4216 4982 3669 31 13 21 0 2 13 32 24 33 9 21 17 15 7 5 36 1 26 33 2 14 8 27 34 26 31 34 26 7 9 4 27 8 37 9 24 36 16 28 11 25 14 39 2 7 38 2 36 3 6 30 13 20 27 7 4 7 2 20 1 39 14 38 31 5 9 19 16 9 14 26 10 37 29 9 15 34 6 15 28 36 16 7 6 5 8 30 11 38 16 22 31 28 13 37 39 30 24 21 28 9 38 33 10 20 32 33 32 26 18 6 10 14 9 11 9 6 6 17 12 5 7 19 34 31 13 27 24 18 28 17 8 39 21 6 16 2 3 28 35 18 38 29 14 30 34 16 10 8 35 2 20 8 1 23 39 14 35 36 18 16 2 36 13 31 31 27 9 37 36 9 32 11 5 6 14 11 9 22 39 16 37 12 19 32 28 30 19 6 32 14 34 2 4 4 7 9 4 15 39 2 30 22 2 20 36 21 23 21 12 20 28 6 12 26 31 33 21 28 32 30 35 2 29 17
4151 3122 4044 2825 2524 2693 3886 3921 4018 4198 4580 4042 3368 3355 3829 4552 4606 4767 4872 4586 2597 4801 4503 3047 4003 4369 3942 2500 4221 4792 3742 2958 4138 4991 3876 2921 2588 2727 3011 4605 3409 4974 3294 2775 4353 3940 3479 3227 3819 2640 2816 3041 2719 4324 3811 3082 2505 3351 2832 3976 4996 3833 3705 4772 3407 3231 3789 2740 4691 2802 4369 4746 3953 2551 3601 3747 3017 3216 3310 2979 4928 2780 3150 3915 2734 3080 3945 3232 3083 2972 3705 4683 3332 3141 3606 2545 4058 3581 2640 3129 4094 2723 3410 3353 4204 4750 3124 3080 3364 3978 3519 4733 8 3054 2899 3206 2747 3374 2763 3118 3326 4433 3307 4102 2777 4741 4168 3490 4635 3429 3470 3529 2842 3178 4329 2620 4171 2697 4375 3825 4350 3023 4137 2518 4142 2652 3217 4874 3817 4622 2896 2853 2565 4952 2539 3853 4662 4996 4704 4739 3738 4792 4863 3814 4714 3102 3443 2516 4198 3765 4240 2749 4496 4665 4313 2828 3206 3601 3346 4852 3395 4218 2695 3164 3091 3870 3355 4069 3672 3138 3880 4124 4364 2541 3750 4474 3248 4907 4077 3753 4800 2637 4623 3360 4295 4250 2834 2886 2839 4433 3120 3312 4894 2596 3896 2625 3547 4388 4576 2918 3286 3669 4417 4733 2873 24 11 10 34 0 2 21 7 14 13 36 2 35 32 28 27 20 14 14 31 26 10 4 32 16 19 1 37 17 30 23 25 34 37 8 25 23 13 37 9 20 27 11 20 33 29 13 38 38 37 7 27 20 32 20 37 38 28 33 23 21 20 22 7 19 23 9 28 20 19 25 34 34 9 32 38 24 23 24 2 31 37 39 24 1 33 13 27 10 22 4 14 29 11 3 14 29 11 30 5 24 39 21 36 7 2 23 24 9 22 34 28 36 14 13 16 21 32 24 23 24 37 27 4 20 6 29 34 39 21 5 26 21 28 31 13 15 11 28 26 7 26 26 31 32 28 13 17 5 8 29 14 3 25 16 31 24 34 9 11 16 5 23 32 26 10 30 13 7 3 37 30 19 8 16 5 2 20 10 13 16 19 20 17 1 16 25 9 34 25 21 19 36 22 23 38 28 12 18 18 1 9 4 37 37 30 30 36 1 24 2 11 39 27 16 36 31 16 23 12 20 34 28 13 8
2737 2796 3145 3639 3989 4661 2690 3661 3844 3359 4829 4571 4318 4902 4935 4949 4312 3147 4849 3259 4822 2807 3777 2882 3127 4198 3539 4816 3469 4432 4667 3405 2658 3483 3684 4766 4861 3932 2575 4704 3081 3310 4293 3445 3237 4324 3056 3582 3504 3503 3835 3831 4658 4888 2998 3186 3394 4781 2951 3143 2536 3883 4771 4991 3768 3233 3435 2631 2568 2980 3230 2537 3901 4947 4068 3460 4647 4715 4227 4173 2610 4289 4560 4723 3630 4510 4906 3425 2506 3372 3305 3591 3764 4655 4774 3425 4097 2592 4496 3456 4132 4986 4579 4125 4698 3629 4216 3605 4853 2850 4194 2782 3274 2996 3434 3658 3237 3451 3772 3370 3774 4396 3727 4674 4222 2849 3781 2532 4751 4256 3883 4652 4745 3944 3768 4192 4848 4372 3844 3867 2641 4114 3635 3027 4281 4790 2971 4815 2928 4357 4710 2896 4030 3542 2660 2805 2645 3221 3146 4735 2603 2663 3668 3737 2755 4038 4274 4764 4633 3109 4780 3079 3772 2824 3548 4300 3725 3732 4835 3483 3905 2533 4897 4137 4006 3374 4631 6 4471 4824 4677 2839 3411 3455 10 3794 3924 4476 2502 3566 2566 3060 4023 4940 3375 3376 3581 3121 4572 2620 4631 3344 2973 4415 3166 2931 3118 2913 3230 2816 3191 4458 2860 2788 4288 36 5 14 20 20 0 15 30 26 6 25 28 2 17 5 33 25 30 8 37 13 13 17 6 10 34 12 4 38 35 10 22 33 34 18 6 31 16 21 37 15 17 23 28 13 17 9 29 38 39 1 15 37 8 22 31 34 36 30 18 29 5 31 12 11 5 17 21 21 13 14 10 7 19 27 31 27 11 13 35 11 35 5 17 5 28 13 10 22 27 8 26 17 26 24 13 20 23 9 30 15 25 31 25 1 27 15 21 14 34 28 18 1 34 10 26 15 23 19 29 37 14 38 32 24 29 6 4 27 3 30 36 25 19 17 2 25 28 8 16 29 17 23 1 5 30 8 13 17 32 36 28 30 8 16 20 21 17 37 36 33 18 4 37 2 10 28 15 39 23 23 15 7 34 1 10 4 30 34 12 4 3 1 36 38 34 23 24 21 23 21 26 21 32 24 12 31 35 3 1 5 1 36 18 9 31 13 17 25 28 33 23 4 36 3 16 8 35 10 2 32 31 20 30 1
4152 4210 3979 3928 4440 4841 2718 3419 3347 3795 4840 3495 3131 4547 3310 3236 3864 2880 4883 3704 3628 2846 2550 4509 2667 4491 3692 2587 4669 3374 2609 3741 4272 4675 3276 4995 4298 3400 3914 3746 3625 4757 4856 4027 4229 4244 4531 3009 4761 3781 4137 4273 2564 3875 2946 2723 3178 4556 4614 4992 2802 4530 2718 4904 3821 4710 3624 4598 3246 4357 4368 2642 3263 3610 2565 3869 4227 4257 4432 4813 4473 3892 3848 4110 2847 4477 4972 3525 2964 3463 3585 3990 2684 3755 4786 3211 4100 3729 4687 4982 3954 3277 4489 4764 3277 4422 4097 4192 2926 2774 2643 4556 4613 4177 3571 3095 4090 4064 3173 3637 3194 3857 4127 4880 3346 4524 3773 2842 4509 3849 2943 3060 2645 4148 13 3606 4516 4258 2712 2579 4862 4356 3071 2926 3767 4136 2759 4357 3677 3679 4801 4886 2826 4706 3851 2906 4207 3796 2625 4348 4148 3431 4673 3433 2772 2717 3599 4906 4557 17 4328 4122 3292 4678 4323 4448 3139 3044 3076 3357 4893 2699 3823 4935 3172 2561 4867 3379 3603 3701 2892 4627 3054 2913 2798 3310 4459 2839 4843 2795 3341 4646 4306 4663 3587 4493 2543 2754 2617 4593 4487 4427 4109 3186 3445 2975 4300 3448 4760 2882 2722 2716 3966 3612 4007 30 38 38 9 39 39 0 18 34 3 32 25 24 18 17 17 17 36 1 34 7 19 27 39 38 38 32 36 38 33 14 32 3 24 28 20 11 3 2 32 18 17 29 29 28 3 4 28 17 7 20 2 23 19 19 17 32 19 14 23 28 1 18 32 21 30 30 13 32 13 13 18 19 34 3 39 37 18 15 37 28 28 29 16 12 27 2 9 29 17 3 15 39 5 35 1 38 6 28 6 37 26 39 38 33 34 1 6 20 5 15 6 22 14 24 8 15 16 12 24 9 39 32 34 5 28 4 21 11 31 29 24 30 9 26 6 16 24 30 5 24 37 28 13 17 22 39 27 37 38 16 17 5 37 6 17 9 39 26 13 18 34 11 39 37 19 38 21 5 39 31 5 31 21 24 34 39 8 34 18 32 24 32 15 5 24 5 36 26 19 4 39 10 20 21 2 7 19 34 27 30 24 9 37 27 17 6 17 14 38 38 22 5 26 35 24 29 8 19 31 16 24 4 38 11
3187 2589 4279 4657 4519 2880 4627 4413 3303 3099 4244 2812 4008 4362 4419 3241 4387 3141 2865 2694 4936 2756 4659 4750 3521 3044 4683 3905 2512 3950 2600 3246 4963 4554 3448 2907 2592 2738 3398 3146 3756 3324 3028 4891 4659 4604 4038 4230 3733 3303 4616 3617 3351 3945 3676 4757 4485 3322 3308 3752 3898 2791 4803 4118 2501 4133 4251 4489 3614 3369 2600 3631 4159 4787 3965 4077 2764 4578 2541 3025 2511 4848 4328 4908 4288 4654 3865 4236 3206 2559 4116 3900 3767 2516 3608 4510 3046 4221 4413 3172 2550 2532 4965 3284 3739 4334 3399 4119 3052 3759 4474 4888 3266 4365 3378 4126 4729 3285 4024 3944 3725 4230 3088 4610 3106 4849 2784 3031 3135 3089 3275 4669 4220 3895 3979 4745 4645 4423 4572 3364 2507 4448 4987 2831 2662 2717 3387 3853 2959 2896 2761 2682 3533 2549 3644 4950 2677 4408 2760 4316 4341 2863 4317 3376 3709 4142 3889 3882 2544 3989 4704 4895 4889 2679 3940 4825 4200 4522 3882 3227 4072 2931 2807 3759 4436 4571 4043 2897 2559 2899 2533 2658 4617 4497 3125 2660 3839 2604 4414 3717 2535 2584 4429 3154 3978 4635 3982 3032 3387 3803 3915 3741 3058 4744 4891 4919 3677 4347 3640 3467 3137 4586 3471 4338 4531 33 21 34 6 4 24 13 0 5 14 27 28 15 2 16 22 25 21 3 21 14 16 10 38 29 19 12 8 12 10 18 36 9 14 34 32 11 34 17 28 31 35 8 35 10 3 10 15 1 3 20 13 17 39 24 22 33 11 9 7 19 11 29 36 3 11 2 11 23 38 6 22 30 33 13 20 20 20 27 12 32 5 16 17 19 2 11 20 19 2 30 4 9 10 27 34 22 26 10 7 25 3 11 28 22 19 31 2 39 8 17 3 4 26 28 18 3 27 32 38 25 32 20 22 38 35 34 15 10 14 14 33 7 34 30 15 24 36 28 17 29 37 18 4 17 17 21 29 39 7 1 27 10 14 10 13 34 6 6 26 17 22 37 9 2 9 4 36 11 38 34 36 37 12 1 5 22 29 37 24 31 18 4 9 38 10 25 38 1 6 1 37 10 22 32 25 39 36 27 7 30 38 13 27 16 28 37 19 33 11 9 20 38 35 1 32 37 28 12 12 36 10 22 5 14
4448 3367 3315 3430 4709 2977 4595 4984 4305 4745 4054 4334 4791 4310 3804 4788 2627 3246 3721 3870 3086 3899 3824 3130 3827 4400 4864 3607 3716 3274 4984 3629 3739 3174 2618 3003 4238 4775 4697 4175 4607 4025 2532 3134 2511 3435 2775 2884 4830 4357 2654 3262 4834 3079 2760 3531 4559 3896 4060 4692 3616 3853 4258 3480 3645 3060 3750 4170 3980 2645 3354 4469 4530 2812 4811 2997 3408 3719 4624 4666 3992 3690 4833 4255 2704 3864 4911 4280 4935 2834 3227 2566 4357 4333 4599 4419 4467 3104 3965 3008 3820 2717 3939 3597 4917 2683 2933 4940 3945 4701 2761 3372 3608 3458 4401 3224 3054 3239 4319 4608 3765 3658 3195 3079 3069 4024 2744 4463 4030 3176 2555 4629 4261 4264 4940 3165 3201 3203 4970 4495 2765 4048 3050 2866 3199 3856 2649 3955 2767 4266 3621 2744 3922 3363 2580 4446 2808 3535 2597 3718 4322 4034 4980 4608 3292 3947 4956 4768 3444 2585 3284 2794 4317 3751 3684 2645 4844 3538 2849 4002 4013 3794 2973 3241 4555 4773 2858 3946 2568 4792 3170 2926 3330 3487 3980 3656 4145 3005 4143 3196 4984 3800 3392 2682 4801 4877 4144 4442 3095 2933 3349 4692 4439 2831 3078 4628 2649 3260 3977 3513 3562 3942 3762 2807 3442 5 37 31 4 31 16 38 14 0 21 29 4 2 18 12 19 11 38 30 6 14 27 24 28 31 16 31 2 26 18 18 23 38 37 32 30 29 16 16 16 4 3 29 39 30 29 38 37 29 23 7 34 31 14 33 38 3 31 23 1 26 37 14 5 33 25 4 30 34 33 21 11 38 15 26 26 15 26 29 11 27 13 5 30 22 1 22 38 25 16 9 17 5 29 11 33 10 32 17 26 37 23 23 24 27 5 16 17 3 27 14 27 25 1 31 39 33 22 37 33 25 6 16 16 32 36 38 11 35 27 20 22 3 38 28 31 27 3 2 14 12 29 34 1 33 33 11 23 38 14 9 11 27 30 36 35 17 20 19 24 27 12 22 3 16 11 8 15 14 8 3 29 26 11 7 30 26 25 28 21 24 29 24 4 14 39 14 11 9 25 30 2 9 10 37 30 13 21 28 15 13 11 25 15 23 34 26 14 35 27 1 14 14 34 16 4 33 2 6 24 24 26 1 14 26
4968 3969 2574 3947 4670 4631 4855 3753 2928 4276 2524 3820 4705 2510 4329 4790 3431 3076 4780 4163 3550 3116 3556 3773 2939 3834 3539 2923 4293 2656 3401 2705 4522 3104 4553 3001 3869 4523 3880 3511 2781 4899 4295 4069 2815 4897 2753 2556 3681 3684 2917 3017 4665 3451 3620 4102 3855 4438 3406 4841 3251 3458 2584 4647 2536 3131 2526 4518 4120 4888 4421 11 4549 4298 2911 3861 3547 3918 4126 3932 4512 4762 3510 2939 2556 2572 4865 2677 2800 2929 2528 2910 3747 3084 3647 4228 4946 3461 4296 4217 4097 3585 4552 4925 4018 4919 3939 3814 4201 4371 3583 3403 2864 2831 3927 3744 2588 4536 3559 3627 2991 4402 4282 4487 4961 2856 3342 3252 4977 2908 4978 3577 3333 3716 3520 3713 3215 2573 3312 4020 3156 3200 4479 3858 3290 4003 4138 3724 3152 4848 4688 4173 2788 3968 2945 3637 2679 3625 3929 3329 4288 3224 4704 4639 4273 3389 3699 4128 4329 4494 2999 3371 3937 3748 2996 3586 4215 3196 4210 3329 4519 2682 3568 4961 4240 3538 3872 4732 3905 4465 3493 3007 4520 4094 2940 4196 4938 3283 3792 3741 2734 3119 2741 4808 4494 2657 4197 3228 3251 3220 4639 4941 3829 3461 3259 4111 4179 2668 2856 3563 4535 3193 2535 3565 4384 6 15 37 29 31 27 16 33 24 0 1 33 18 33 23 18 13 31 15 6 19 30 35 19 19 28 20 33 6 21 18 11 39 1 16 3 1 4 35 21 32 11 33 15 10 16 33 33 6 25 23 23 16 7 5 5 29 24 13 36 6 18 17 30 32 8 1 21 12 4 30 2 24 26 28 22 5 12 12 31 11 22 22 3 22 39 7 30 24 24 32 29 33 18 29 38 14 10 15 12 9 2 35 15 11 1 25 20 12 31 12 29 33 15 11 16 29 8 31 26 2 13 2 15 21 21 28 32 14 3 27 7 37 35 39 34 34 29 7 27 38 14 17 30 13 15 30 11 32 14 15 33 2 38 2 2 25 30 27 12 10 28 26 23 31 17 26 9 18 25 24 23 27 24 25 31 13 25 25 36 20 4 13 5 32 19 27 28 36 28 1 19 18 13 18 3 39 16 25 38 17 14 25 27 2 19 32 38 15 34 9 39 26 24 6 20 14 39 6 19 35 24 11 14 11
4378 4592 2533 3394 4038 2877 3633 3077 3808 2820 4006 2977 4629 4088 3426 3378 4006 4981 2685 2518 4126 3300 4178 4873 3605 2645 3121 3614 3442 3539 3736 4660 3652 2923 4950 4322 2789 2523 3087 3392 2978 4112 3127 4023 2926 2759 3041 3848 3710 2690 2812 3017 3438 3252 3467 3284 3534 4566 3539 4586 3955 3813 2675 4837 2513 4996 3971 3435 2858 3253 2956 3260 4770 3865 4791 4811 2695 4841 3622 2637 4499 4013 2793 4581 3833 3146 4983 2709 3034 3599 4752 3284 3898 3773 4762 3024 3361 2876 2598 4962 3154 2946 4026 3403 3128 2909 3486 4230 2990 4056 3782 4279 4811 2932 4690 4778 4335 2829 4792 3287 4697 3741 2886 4544 2921 4059 3183 3304 3804 4305 4454 2766 4328 4023 4809 4291 3949 4859 4423 3373 3584 3696 4513 2547 2697 3087 4346 3472 2888 2852 4154 4532 2852 4695 4829 3866 3474 4565 2921 4934 4849 3825 3398 3978 4373 3723 4655 4825 3874 3877 3929 2627 4282 4345 4658 4772 3953 3395 3501 3474 2755 3159 2809 4089 3559 2873 4699 3172 3505 2576 2931 3244 3251 3190 3610 3531 3736 4014 4499 2557 4609 2714 2693 4821 3932 4037 4060 4981 4411 4979 4388 3679 3961 4577 2924 3935 2782 4705 4252 4409 3344 4879 4226 3220 3800 16 21 25 26 29 32 4 1 8 20 0 12 25 5 7 30 1 26 37 9 25 24 5 34 24 9 34 20 35 23 11 12 18 20 16 15 31 5 14 16 7 35 30 9 28 25 11 6 19 7 30 16 17 16 31 4 15 4 39 17 10 32 37 20 10 8 14 34 1 32 32 24 33 30 22 25 1 27 18 17 37 7 23 33 4 34 13 3 18 23 19 14 15 16 10 23 9 7 7 25 22 32 36 6 31 35 8 36 23 38 24 34 28 36 15 12 2 19 4 35 37 21 20 23 12 21 11 24 28 34 25 12 30 23 34 16 20 3 37 17 19 19 9 36 37 25 14 20 33 16 8 29 31 18 2 5 21 5 14 16 25 22 30 21 20 30 37 29 9 36 23 16 21 39 9 23 39 23 6 13 4 5 1 22 34 2 39 28 18 26 4 34 28 13 15 13 12 27 6 11 2 6 33 19 36 36 32 35 11 21 9 19 24 20 15 32 9 22 2 38 14 34 28 4 32
3981 3551 4330 4195 4927 3195 3504 2636 4353 4465 3537 3694 3683 4744 4662 4984 4701 2847 3490 4380 3393 3623 2569 4308 3925 4039 2891 3561 3085 2887 3340 4204 4503 4453 3613 3373 4730 4968 2956 4788 3656 4002 4394 4695 4730 3914 2633 4720 4480 3814 2676 3214 2695 4386 4440 4533 3315 3671 3807 4654 3348 2879 3246 3449 3467 3924 4705 3411 3820 4148 3776 4174 3024 4815 3850 2628 4120 4707 3309 3471 2691 4800 4767 4997 3497 4283 4684 4468 2611 2762 4929 4109 2873 4254 4959 4431 4661 3207 3633 2641 4369 4768 4727 3006 4463 3174 4098 4677 4246 2508 4862 3685 4045 4430 2522 3897 4672 4368 3431 3144 3216 3931 3399 3737 4689 4561 3499 3638 4098 4756 3457 4638 3926 2696 4085 3550 3101 2972 2768 3467 3104 3725 4490 4936 4185 2903 4361 2675 3811 4526 3979 3110 2556 4258 4880 2728 4750 3999 3708 3581 3021 4929 2584 4679 3129 3968 2828 2625 3701 4105 2831 4639 4196 2719 4648 3833 3661 4444 4021 4629 2976 2992 2702 3344 3457 3635 4863 4795 4497 4402 3818 4686 2913 3901 3559 3356 3605 4792 3882 2879 2759 3739 4875 3502 3849 4045 4939 4336 2770 3067 3092 4566 4619 4428 2896 4756 2678 3887 3586 4838 3864 3864 4900 3770 4287 7 37 27 11 25 8 32 6 35 25 15 0 39 8 16 7 11 2 18 6 36 34 9 25 38 12 12 16 5 16 22 15 15 6 8 22 31 8 15 5 8 18 39 15 37 26 23 14 31 24 24 25 18 9 15 1 34 25 11 2 37 16 28 13 39 8 34 26 21 15 3 9 31 31 11 1 36 37 17 6 23 14 16 4 32 2 39 4 36 11 28 4 38 17 15 33 12 19 36 11 12 6 14 25 16 12 11 23 6 34 37 3 9 12 27 12 20 2 23 18 27 33 1 1 24 31 29 28 32 32 4 34 10 17 35 35 11 8 12 4 17 3 16 11 30 19 30 5 16 24 38 4 18 7 23 34 7 26 37 9 22 21 20 2 21 20 20 17 9 39 17 22 9 11 16 15 25 8 22 5 19 2 7 1 37 24 22 32 38 25 6 38 22 18 35 3 26 27 31 35 11 33 19 15 23 31 1 22 12 26 22 22 16 7 29 6 35 39 22 5 38 37 6 10 36
4354 3422 4570 4379 3170 3662 3605 4089 3893 4986 2569 4696 3966 4024 4160 3196 3516 3946 4049 3023 3555 4060 4622 4010 4109 3405 3106 3497 3849 4057 3525 3410 4997 4338 3006 3818 4134 4403 2813 2509 3665 3010 2787 4830 3854 3619 3447 3849 3213 4470 2944 3401 4770 3345 2894 3093 3184 4280 3622 4930 4723 2536 4213 3314 3939 3677 7 4459 4814 2622 2834 2654 4325 2988 4598 2936 4133 2934 3604 3782 2810 3901 4164 3669 2701 3525 2774 2914 4759 3877 4501 4043 4857 3076 2992 3398 3023 3989 3425 3816 3065 3124 4383 2613 4710 2693 2762 3965 4490 4213 3648 3792 3926 3524 3108 3638 4168 4140 3525 2819 3244 4513 3879 4176 4978 4579 4539 3027 3587 3144 2573 3587 3649 3296 3253 4174 3271 3654 3451 3139 2988 4966 4507 3879 4087 3957 4351 4611 4731 3046 4006 4521 4185 3358 3615 4588 4770 3133 4481 4603 4666 4800 4101 4243 4350 4527 3714 4111 4830 3477 3986 4993 2594 3181 2971 3643 4354 4021 4851 4144 2814 4751 4354 4740 4738 4300 3219 3349 3209 2983 4854 3383 4872 4438 4768 2818 2598 3596 3402 4093 2926 3636 4993 4879 2700 2578 3385 4719 4321 4470 4761 4792 3519 2974 3604 3699 4518 3522 2865 2830 3218 4262 2629 2926 4178 17 29 27 18 10 25 4 17 30 18 21 21 0 32 6 29 26 33 14 23 14 5 35 22 2 5 33 27 10 11 8 6 11 21 12 19 4 35 27 34 4 5 13 13 3 37 36 25 2 3 38 38 31 24 26 35 28 11 31 2 33 12 14 24 26 17 11 19 5 9 11 12 2 13 25 23 25 9 30 15 32 12 14 7 25 12 22 4 37 18 28 11 3 15 38 1 19 34 30 4 28 3 20 7 21 17 9 6 5 7 37 37 18 26 15 12 39 31 3 28 3 16 27 33 28 26 6 30 22 32 15 14 31 10 33 39 32 14 22 28 29 14 22 26 18 19 26 2 3 22 30 6 6 24 11 28 2 5 39 8 31 8 28 3 12 7 17 1 4 28 15 14 30 15 33 32 37 13 17 29 14 39 27 23 7 10 38 6 18 36 35 11 36 22 23 8 22 6 12 31 17 4 22 3 1 3 2 20 8 37 8 16 31 38 19 5 32 17 26 4 28 16 7 5 38
4923 4732 4864 3060 4410 3556 2848 4797 3474 4485 3196 2842 2702 3610 4240 3296 4361 3808 4208 4116 4366 2540 2605 4621 4233 4552 3519 2644 4258 2809 2857 3772 3626 3783 4909 2997 3261 3560 4976 2997 4818 4220 4390 4552 3031 3181 2695 2640 4310 3692 3168 4263 3464 4696 2942 3417 3465 3050 4205 4428 4581 2954 3035 4385 2909 2755 3147 3588 4993 3717 3026 4515 4377 2500 4070 4349 2842 3270 3690 3552 4770 4347 3534 3614 4279 2742 3851 4922 3719 3810 2636 3370 4441 3575 4429 3210 2955 3177 4619 4751 4070 4592 4919 3596 4816 3805 3477 4883 3127 4828 3192 2987 3541 4932 4649 4068 2587 4238 4970 3940 2890 3783 3664 4203 4383 3796 3964 4987 4884 15 4664 2751 4210 3022 2716 3420 3827 4531 3128 4397 2936 2746 4341 3803 3699 4217 4387 3139 3597 4592 3485 2703 4704 2857 4991 4963 4636 4121 4475 4866 3921 3252 3805 4897 3596 3130 3410 4650 4676 4233 4969 2696 3428 2914 4506 2728 4726 4806 3169 2950 4206 2946 3182 4089 2516 4805 4953 3178 2509 2544 3559 3068 2636 2747 2779 4509 3479 3711 2596 3557 3630 4730 4688 4276 3077 2733 3801 4503 2772 3721 3748 2547 4525 4488 2656 4072 4790 4628 4815 3638 4827 3407 2961 3690 4220 31 21 29 8 1 18 35 39 10 13 13 32 8 0 12 4 20 34 31 2 18 34 18 39 18 30 11 14 35 9 21 24 24 3 21 28 26 25 29 26 9 33 26 17 38 38 1 36 1 25 28 31 26 34 5 33 15 3 10 38 9 18 16 21 26 37 24 35 7 32 14 19 9 30 14 24 31 17 1 4 38 33 9 1 37 28 7 18 13 33 16 12 15 32 35 2 2 17 38 33 15 7 4 27 35 35 39 8 4 20 31 30 19 36 15 31 12 4 39 15 39 27 32 21 9 32 18 15 1 38 32 2 26 31 17 15 15 12 37 3 33 36 5 8 6 15 29 7 21 15 28 19 11 37 9 26 3 7 36 20 10 23 38 11 25 28 20 10 12 25 28 6 39 34 26 34 37 7 26 22 35 19 12 31 17 32 17 15 29 22 38 21 24 21 36 37 23 25 38 1 1 32 19 30 25 39 38 14 9 20 8 28 13 6 9 39 15 14 18 29 21 27 38 34 16
2699 4044 14 3724 4870 4450 4120 4365 4736 3983 4004 3389 4419 3924 3692 2904 3182 4586 4316 4637 3114 3219 2527 3853 4481 3047 3795 3965 4463 4037 3323 2694 4000 3402 4959 3244 2972 3794 3232 3731 3223 3926 3088 3991 4869 4197 3041 3143 3889 3923 3280 3835 4527 3708 4606 4261 3441 4429 3835 4818 4952 3606 4503 3742 2870 3779 4447 2625 2720 3958 3997 3306 3032 3156 3040 4592 3184 2779 4755 3762 2987 2659 3483 2865 2576 4631 2646 3744 4507 4972 3325 4721 4378 3391 3401 2885 3320 3526 4080 4372 4459 4979 2858 4278 3669 3980 3701 4110 2586 4997 3118 3429 4404 4921 4301 4258 3898 3300 3960 4571 3974 3648 3411 2586 3472 3242 3052 4225 2671 4562 3530 3108 2988 3691 2682 4447 3177 3370 3718 4507 4404 2822 3291 4017 4442 3963 4639 4468 3351 3839 4114 3725 3936 3635 3248 4660 3977 4499 3323 4495 4873 4732 4662 2520 4642 3477 2608 3962 3340 2948 4123 4479 3341 3906 2578 4106 3252 2963 3845 4859 3198 3440 2512 2912 3999 4307 4401 4737 2718 3337 2537 3438 2930 2657 4170 4487 3856 2686 3226 3745 3368 3723 2614 3331 4518 2664 3030 4693 3550 3533 3451 3199 3598 4964 2670 3468 4211 4508 4503 3122 4818 4941 3527 4995 2549 1 32 39 22 9 34 18 22 33 28 25 14 31 22 0 7 22 34 9 2 8 23 30 4 22 12 4 33 19 14 1 31 35 32 17 28 31 1 1 34 8 37 8 24 29 8 20 14 3 33 4 8 12 28 19 19 11 32 24 2 10 2 38 28 33 13 8 30 22 24 27 33 1 18 30 12 17 31 1 30 12 37 17 34 11 35 19 22 9 1 39 26 24 29 21 38 13 17 10 4 10 3 23 13 24 3 1 38 6 25 31 16 16 11 12 9 13 21 39 39 13 39 27 12 6 26 34 24 13 7 2 18 21 36 12 3 14 11 6 16 13 9 28 37 18 33 36 26 32 4 38 26 4 31 28 8 19 24 24 1 25 21 9 7 1 1 29 15 3 10 24 19 26 21 22 18 10 14 11 18 20 18 17 25 32 8 22 3 35 34 11 29 10 31 28 27 7 1 31 20 35 16 2 13 36 2 22 2 31 24 8 17 24 27 38 39 20 30 13 33 22 1 4 9 3
4400 3322 3635 3791 3315 3749 3590 2723 4077 2809 4844 2615 4213 4900 3218 3171 3739 3643 3841 4081 4618 3428 4407 3752 4428 2813 4430 4833 4450 3882 3561 4559 4950 3205 3577 3370 3521 4764 3536 3626 3968 2644 4455 4765 4843 2962 3278 4037 4200 2892 3337 3182 3155 2562 3380 3234 4627 2930 4024 3130 4573 3015 3775 3160 4167 4878 4342 4859 2523 4237 3130 3026 3918 4037 4958 3619 3706 2786 3347 4776 2564 3923 4349 4880 4132 2743 4748 4305 2998 4767 2961 2690 3034 4788 2905 4607 3406 2985 4588 4404 4491 3193 2944 4283 3838 4851 2705 3715 3495 3722 4241 2949 3387 4839 4588 3725 3475 2720 4442 3939 4435 3014 3979 3644 4271 4143 2809 4469 4847 4367 3066 3591 2643 4064 2561 3737 4734 4752 3519 3501 3776 3026 3697 4388 4361 2993 2878 4569 2807 4491 3849 4734 4405 4554 3844 2922 2693 3682 3621 3169 2959 3228 3823 4306 4410 3824 4303 3623 3433 2707 3347 3215 4187 3264 4258 3800 4194 2557 3117 3312 3519 3526 3015 4497 3716 4882 2823 3635 2503 2906 3855 4588 3077 2879 3873 3676 2708 4227 3905 4498 2871 2889 3687 2755 3111 4028 4846 3750 3934 2962 4282 4385 4928 3303 3453 2905 4220 3969 2769 3945 3546 4900 4486 4268 4632 24 37 4 19 11 6 15 3 11 27 32 24 8 14 15 0 9 25 17 35 37 23 39 25 14 11 24 12 37 6 30 11 7 3 31 36 6 30 6 23 17 5 33 1 11 9 24 9 15 17 7 7 23 6 23 20 13 36 21 21 16 14 20 32 18 15 31 26 33 37 2 16 39 23 5 19 24 22 26 10 4 30 7 20 5 32 11 34 12 36 31 13 10 17 19 12 22 34 6 34 6 11 27 21 10 5 19 11 19 5 32 32 6 35 7 34 19 25 38 30 12 35 38 16 18 18 18 26 39 29 6 31 21 4 37 9 14 26 21 36 24 21 7 13 35 15 26 19 20 29 11 10 37 24 11 38 14 11 16 38 29 21 38 10 9 26 35 14 7 25 39 25 31 29 13 24 10 15 9 8 8 3 7 1 9 19 35 30 28 19 16 24 23 14 8 31 35 29 7 26 34 24 6 13 5 1 1 27 2 25 12 20 9 21 5 8 10 28 38 34 29 15 16 16 32
3418 3443 4521 3442 3987 3486 4920 3059 4631 3420 4939 4221 2949 2504 4626 3737 4881 4668 4085 3732 2838 4401 4406 2787 4833 4885 3894 2815 2577 3184 2727 3261 2589 3158 4669 3782 3991 3509 3402 3990 3631 2755 3388 3301 3921 3948 4376 4541 4217 3659 3459 4243 4825 2895 4704 2891 2518 2599 3485 2858 4589 4137 4314 3015 2726 4602 4389 4741 2514 3340 3748 3771 3982 3020 3687 4551 4411 3063 2874 2683 3555 4414 3601 3533 4896 4142 4220 3915 4678 2625 4101 4538 2756 3917 4602 3599 2658 4007 4151 2616 4707 4917 3110 4925 3754 3367 3735 4205 2948 3891 2628 2790 3318 3510 2522 2660 3683 3054 3986 4466 4135 3826 4018 3704 4651 3415 3802 3639 3284 4401 4734 2812 2837 4923 2836 2657 2689 4960 3178 4777 4465 4598 3639 3709 3968 4687 3949 4576 3645 4169 4862 4111 3998 4825 3076 4711 3728 4283 4132 4820 4755 2510 4217 3132 4198 4220 3660 3303 3719 3213 3605 4197 4863 3885 3208 2958 3435 4094 4894 4084 4800 3217 3393 3782 2579 3418 4248 3820 4239 4501 4391 4531 3681 4258 4235 2810 2656 2834 3989 3824 4721 2717 4072 2601 2813 2694 3156 4956 2774 3638 4688 2582 3768 3187 2991 3313 4982 3292 4717 4323 2602 2825 3871 4913 4271 12 12 7 5 31 16 19 19 7 22 13 35 15 10 3 33 0 36 39 29 31 15 33 37 8 16 24 5 30 17 31 14 22 9 7 2 9 8 25 19 37 9 37 24 24 26 10 3 20 30 38 29 20 13 23 26 16 7 13 14 32 1 35 1 36 7 19 4 16 17 25 8 21 33 36 2 32 13 16 24 23 23 25 38 20 9 6 1 7 8 2 31 22 39 35 16 18 37 12 12 37 21 15 21 16 36 3 16 3 19 21 28 10 27 18 31 23 38 28 15 1 34 30 3 35 15 21 39 19 21 19 6 13 37 19 39 24 23 3 26 30 30 23 34 17 24 20 1 34 4 33 13 3 32 4 29 28 3 29 6 28 14 7 11 10 10 36 2 26 11 28 21 39 28 38 1 18 22 18 7 39 36 24 17 31 16 22 14 29 26 31 32 10 36 26 9 8 34 22 34 35 24 5 24 8 24 21 7 8 13 18 38 9 21 23 29 36 21 24 36 16 31 21 22 7
4099 3708 2503 3632 3662 4321 4399 4037 4663 3910 4119 3024 2902 4890 4916 2581 3911 3241 4503 4795 2856 2618 3051 4139 4493 4067 4442 4171 4634 3229 4560 3737 2749 4086 3845 3438 4238 4819 9 4000 2964 4927 4391 4761 3066 3039 3589 4535 4894 3560 4715 4226 4358 4168 2770 3962 3357 3425 4906 4513 3973 3126 3685 4441 2581 4651 2572 3450 3510 2842 2920 2939 2576 2900 4802 4373 2723 2976 3746 4072 2811 4594 4618 2734 3326 4393 2912 2957 4717 2678 4186 4657 4205 3102 4471 2559 4720 4525 3742 2775 3864 4242 4351 3340 3929 4872 4238 2745 4330 3412 2599 2792 3903 4156 3409 4748 2683 4471 2821 4534 4765 2618 3395 4973 4733 2744 3745 2734 4827 2593 4229 3254 3311 4948 2785 2626 4837 3048 4805 3573 3913 4477 2626 4227 4189 3316 2504 2566 4772 3023 3414 2775 2744 2962 2807 3263 3259 2896 4447 2853 4871 4079 4515 4184 3243 3132 4629 3705 3020 4667 3074 2771 2686 4218 3074 4752 3995 2900 4036 4762 4925 3307 3222 4391 3869 2531 3651 3315 4424 4044 4346 3627 3030 2917 3446 4552 4882 4695 3929 3906 3843 4068 4624 4758 3939 3817 4630 3582 3227 3830 2633 3856 4552 4581 4271 4216 4132 4598 4559 4073 2843 3230 4974 2915 4418 37 36 29 30 13 1 18 11 24 14 4 17 36 3 9 12 13 0 15 11 34 14 30 26 34 36 10 29 24 21 30 9 30 18 10 18 34 39 21 14 23 26 22 23 4 7 32 13 24 17 9 21 9 21 23 6 20 27 35 31 33 25 2 21 26 25 6 32 26 1 37 17 4 3 25 29 24 20 27 33 10 19 20 31 26 39 16 14 1 23 38 17 7 33 2 30 38 13 33 20 36 19 17 31 24 8 33 21 4 28 21 35 8 20 35 18 20 38 16 25 24 17 21 38 12 7 6 12 4 2 28 18 16 28 19 29 15 18 6 39 33 8 4 8 15 33 24 23 6 34 2 7 16 7 11 16 15 30 38 7 10 5 23 3 14 5 21 33 36 29 20 29 1 16 9 9 5 3 13 19 9 38 9 37 23 32 8 3 22 4 19 32 15 13 37 29 1 12 12 26 23 16 6 14 6 26 36 13 35 23 36 8 19 10 18 6 39 23 36 33 30 24 17 8 22
4104 3346 3549 4208 3189 3093 3581 3225 3421 3234 3973 3683 3475 3607 3753 3194 3436 4639 3865 3976 3903 4854 3283 4163 4685 2587 2663 3388 4157 4198 3701 4756 3768 4256 4849 4989 3580 3349 3789 2936 3477 4527 4782 3587 4292 4613 3252 3084 4914 4068 2624 3247 2741 3001 2973 4773 4347 3528 2799 4255 3652 3069 2861 2765 4537 3579 3604 3693 3538 2810 4931 4145 2915 4784 4541 3509 3176 2837 4087 3269 4808 3051 4091 4337 4780 4763 4515 3402 3444 3115 4327 3286 3348 4618 4966 4164 3454 4729 3063 3068 4449 3977 3634 4893 4994 4572 4421 3599 2737 2609 4481 4343 4303 4268 4766 4959 2572 2983 4301 3802 4464 3062 3645 4162 4013 4275 4008 4905 4197 4482 4397 4862 3436 3510 4406 4838 2749 3274 4798 4314 3420 2970 3061 3531 3237 3678 4347 3466 2670 4209 3540 4530 2926 2607 3276 3244 3234 4754 4711 3373 2981 3297 4821 3152 2676 3643 4814 2635 3226 4062 4028 2574 2673 4347 4892 4677 2628 4779 4917 3590 2603 4594 4406 4526 4678 3385 4672 4288 4748 3970 3140 2911 3597 3671 4807 2975 3074 3277 3551 2721 3725 2805 4755 2692 3612 2749 3767 2574 3163 4620 4372 4370 2791 2565 3899 4535 2542 3075 3331 3475 3366 4012 3884 4835 4017 25 34 3 24 15 21 1 4 17 5 27 12 31 10 1 27 28 1 0 8 13 30 7 35 25 19 27 39 14 2 31 30 19 28 1 1 14 4 39 8 30 15 18 7 17 12 30 17 33 13 11 8 14 7 1 14 5 34 3 3 15 10 29 27 28 7 7 10 28 6 28 13 32 27 21 36 22 39 14 23 2 11 19 1 23 4 6 36 11 5 24 24 38 22 4 39 28 25 37 4 27 16 7 3 2 28 10 29 19 27 24 18 29 29 36 29 16 24 24 38 17 26 19 33 16 19 4 11 3 3 10 1 34 7 34 3 33 38 16 1 2 14 20 9 9 17 24 5 17 28 35 38 17 18 16 5 5 23 5 17 19 1 1 4 15 31 39 22 36 24 22 3 9 8 1 17 5 24 31 14 35 28 35 21 5 23 38 18 7 16 22 2 37 11 5 35 33 8 30 18 14 1 17 29 34 7 25 36 38 39 4 22 26 31 21 30 7 20 29 13 10 20 14 5 9
4746 3938 2874 4495 3578 4323 4329 3905 3610 3443 3563 3067 3161 3430 4565 4670 4585 2656 3225 4480 4692 3640 2818 4312 4681 17 3806 3226 3065 3547 4888 3763 3393 2988 2754 4517 3126 4981 4178 3675 4778 4381 3572 4105 3656 2948 3844 3066 3853 4129 4184 3288 3453 3466 3565 4594 4405 4563 2627 3245 3650 3443 3701 3048 3032 4717 4913 2771 4792 4548 4774 2739 4254 2609 3079 3885 4491 2820 3018 4670 4876 3020 4236 4959 4211 2903 4799 3056 4730 3910 3914 4125 3769 3949 3422 4967 2968 4835 4600 3143 3765 3152 4774 4649 3222 3706 2716 4423 4433 2718 3182 2993 4326 4095 4513 4616 3025 2827 2631 2693 3430 4093 2601 3709 4685 3821 4778 4714 4963 4829 2646 3575 3239 4187 3251 4846 4325 4143 3312 4607 4005 3587 2730 3793 4569 4589 3223 4342 4232 2963 3670 4833 3723 3457 4420 4334 3593 3514 2942 3234 3604 4205 3499 2726 4619 2708 2515 4428 3660 4823 4443 3237 3602 4201 2586 4446 4670 4921 3911 3812 3420 3626 4571 4267 4073 4975 2905 2517 3234 3023 2843 3261 2944 3393 3588 3118 3811 4342 4541 3311 4668 3265 4586 3681 4933 3244 4999 3670 4735 4584 4600 3567 4697 2616 4719 4794 3880 4416 3788 2965 3776 4126 2610 4372 4485 5 31 16 18 14 7 3 29 29 9 7 3 33 29 25 6 30 25 15 0 34 21 32 29 3 6 8 18 9 21 15 34 24 24 2 33 11 26 27 36 33 35 13 8 29 13 26 28 24 37 24 1 35 39 5 13 13 33 1 29 28 11 19 9 31 34 14 12 31 12 8 17 35 6 1 20 22 10 25 26 7 21 29 3 13 17 26 4 5 35 38 34 7 32 1 16 2 17 5 14 2 10 20 23 5 10 21 20 12 24 21 33 26 33 39 21 29 19 34 13 24 16 5 35 31 31 11 29 4 4 22 29 34 34 15 4 24 8 4 28 28 27 20 27 24 37 15 10 16 24 29 23 26 24 25 37 36 13 16 3 18 29 27 21 25 33 21 22 28 31 35 34 30 17 38 12 20 20 16 39 23 5 6 25 14 26 38 30 4 23 18 8 31 8 12 13 17 8 28 36 30 31 7 17 1 18 5 26 6 39 36 33 10 7 30 30 37 30 4 15 21 26 16 4 29
4154 3203 4549 3107 2691 4097 3623 2724 4774 3921 4371 4090 4411 4398 4427 4246 3100 3220 4970 3940 4405 4128 3346 3460 3786 3256 3249 4992 4085 4955 2995 2956 4940 3850 2789 4636 3803 3916 3184 3105 4916 2845 3299 3381 4112 3350 4898 4880 3603 3535 3198 4199 3577 3543 2702 4142 4211 4275 2637 3326 4724 3076 3807 3071 2700 4935 3635 4322 8 2839 4050 4365 3100 2850 3239 4734 2637 4660 3749 4274 3727 2802 4928 3466 3134 4017 4276 3714 4441 4616 4757 3277 4969 3527 4150 4120 3550 3213 3303 2786 3859 4654 2767 3583 3218 3331 4378 3791 2820 3554 4644 4382 3545 4872 2877 2792 3496 3730 2591 3888 4552 4079 3294 3639 3005 4484 4526 3570 4048 4332 3070 3003 4368 3394 4349 4709 4636 4226 2907 3589 3936 4356 4890 2644 4231 3650 3628 3374 4048 4251 4693 2525 2857 3031 4751 3275 3075 2823 4526 3377 3759 3871 3680 3975 3524 3119 3325 4759 4977 4028 3521 3552 4214 4852 3137 4569 4349 4966 3684 3212 3504 4883 3862 2930 4304 3926 4784 4740 4658 4168 2730 2978 3702 3916 4642 4850 3236 4338 2802 4318 4308 2592 2663 4654 3253 13 3627 2722 2935 3201 3044 3455 4953 4934 4128 3526 3154 3467 3379 3939 4238 4838 2936 2608 2823 27 32 2 15 33 22 18 3 25 9 39 37 6 13 24 26 2 20 38 2 0 25 28 29 1 9 3 10 9 20 17 34 30 24 11 2 25 27 23 39 13 3 19 14 29 7 36 32 13 35 15 30 13 6 20 7 17 12 17 34 23 34 14 37 8 15 28 2 19 17 28 11 24 5 18 18 5 3 15 24 5 1 17 26 27 10 32 32 4 29 39 15 26 26 38 11 8 38 1 1 32 21 9 4 18 29 3 8 17 10 7 7 30 21 35 38 23 29 38 15 15 11 7 10 7 36 39 12 35 8 20 6 10 35 2 35 29 30 9 10 16 10 18 9 28 6 3 3 23 4 30 27 21 22 7 20 35 22 36 20 4 34 21 34 23 30 39 11 17 36 16 8 30 3 29 7 4 6 6 9 22 5 32 18 36 20 37 5 34 31 17 22 7 1 2 5 1 25 16 17 8 2 19 21 27 31 11 29 1 34 29 24 1 28 13 19 31 18 1 7 1 8 16 38 14
3309 2693 2687 3056 3050 4137 4000 4225 3854 3348 4902 2739 3387 4761 3498 4766 4966 3372 2800 3880 2775 4764 4999 4410 3157 4643 3717 3479 3067 4953 4009 4627 3625 2514 2835 4635 3117 4962 2900 3826 3281 3899 3033 4560 3944 3900 3975 3629 2903 3870 3666 4609 3203 3283 3703 3136 3279 4715 3826 3689 4064 4344 4422 3510 4674 3934 4514 3066 3488 3594 4109 3087 4710 2594 3767 3306 3540 4907 3664 4779 2637 2814 3419 4167 3724 4229 3338 3817 3308 4519 3529 3940 4386 2862 3634 4206 2819 2610 3296 3342 4122 3288 3432 3185 4136 2641 3529 4078 3645 3222 2777 4016 3917 4435 4611 4664 3626 2793 4890 4728 3007 4082 2637 4183 3724 4320 2666 4864 2826 6 2683 2720 2546 4699 3121 3333 2886 3594 3838 2781 4553 4056 4464 4876 4984 4897 4104 4163 3390 2706 4201 4433 3566 3331 4620 3214 4678 4625 2555 4327 3454 2740 2541 4723 4670 3864 4806 4399 3198 4769 4801 3852 2660 4600 3355 4113 4941 3920 3442 4653 2792 4853 3188 2625 3033 4750 4818 4887 4643 2847 2633 3889 4643 2888 3660 4878 4765 4012 4612 4491 4077 2660 2702 4458 2909 2595 4271 4433 4229 3640 3544 4906 2751 4384 3995 2856 9 3141 2665 4419 4771 3391 3832 4388 3230 20 2 29 10 6 26 18 34 39 25 35 24 9 23 35 9 3 16 31 36 18 0 9 13 20 23 19 34 6 14 11 36 14 36 30 7 12 27 10 22 5 20 15 17 32 30 17 31 31 6 34 22 7 17 10 4 18 8 27 2 16 25 25 5 8 21 30 26 3 3 7 30 24 39 39 14 9 10 17 19 4 21 17 2 35 9 8 33 23 36 4 28 31 12 10 12 5 35 22 25 30 23 21 17 19 12 39 12 37 2 25 30 17 16 19 17 33 21 33 36 7 29 9 33 34 23 17 2 13 19 5 10 27 15 24 31 7 9 5 4 33 37 19 22 29 12 6 3 28 11 39 36 32 8 11 25 23 2 27 36 6 32 17 20 20 11 4 23 24 3 31 14 4 24 32 12 23 36 30 23 9 19 16 3 4 1 34 20 10 12 24 2 17 35 39 30 14 3 39 2 15 29 10 19 8 16 38 24 4 19 38 26 38 3 14 2 39 37 1 31 12 28 31 7 20
3425 2858 3834 4644 2590 2754 3668 4568 4779 3079 2661 4054 2764 4607 2710 3865 3188 4600 4511 3879 4462 2561 3974 3039 3540 3734 2959 2615 2696 2802 4138 3902 4372 3292 4209 4868 4304 2672 19 4841 3322 3323 3972 4787 2675 4989 3071 4257 4771 4393 3077 3330 9 3238 3058 3604 4012 3927 4141 3750 4313 3817 3022 3711 4912 2942 3654 3800 3644 3353 2801 3827 3328 2706 2866 4124 3324 4429 3068 3193 3052 4700 3419 4576 4034 4620 3216 4347 4626 2579 4422 3161 4258 3602 4392 2848 2914 3926 4597 4280 3631 4081 2794 4396 4806 3877 2884 4143 3813 4944 4502 4473 3955 2746 3102 4538 3432 4348 3911 3516 4799 3115 4566 4469 4904 2921 3546 4678 4134 3121 3493 4641 4052 4524 3944 4641 3279 4032 3018 4463 3301 3378 2982 4600 3026 3532 3527 2893 2608 4749 2563 4346 4554 4345 4799 3741 3020 3231 4894 4928 4759 3912 4561 4164 2789 3420 4910 4220 3685 4431 4653 4675 4842 4018 4233 2636 3177 4867 3888 3789 2722 3535 2522 2971 3082 4637 2552 3438 3329 4909 4001 3102 4164 4025 3702 4947 4915 3885 4287 3244 3913 4145 3380 3284 4621 3579 4835 2742 4292 4856 2505 2953 4453 4686 3651 4773 4105 2636 3447 2780 3599 3179 4356 2773 4454 31 32 17 8 3 6 16 1 31 18 27 1 37 26 30 4 36 30 3 3 6 14 0 22 4 25 33 23 35 16 33 32 28 33 36 25 38 23 29 11 17 33 11 24 23 39 11 33 13 27 35 3 24 36 5 34 36 13 35 17 12 20 10 33 34 1 7 3 37 34 20 5 9 13 38 6 11 29 21 18 22 20 4 27 25 13 36 3 18 10 35 36 37 39 38 22 22 37 13 26 28 20 4 14 20 33 10 1 38 35 26 7 39 9 28 30 16 17 13 1 28 21 5 5 2 21 18 25 17 5 38 6 8 10 22 6 37 21 21 32 24 35 31 22 12 30 29 12 20 33 10 4 37 22 17 39 34 2 1 18 27 25 28 13 18 14 26 22 12 15 24 31 39 13 5 10 30 20 18 11 30 36 11 38 22 33 2 4 33 36 7 3 24 26 7 32 30 7 24 12 13 26 25 26 14 9 5 4 3 3 16 20 8 22 8 6 34 24 21 5 11 37 16 8 21
3348 4993 3395 2960 3191 4739 3117 4972 3869 3459 3524 4271 2651 4050 3599 3344 3054 4719 2696 3237 3793 3506 4665 3592 4047 4232 4709 3565 4087 3175 3926 4868 4195 4116 2873 4322 3714 2509 4412 3842 4357 3609 4908 3091 4353 3314 2812 4678 4857 3182 3295 2858 3047 2525 3433 3969 3873 3765 3840 4526 3170 2628 4644 3142 4884 2842 4377 3979 3090 4901 3633 4449 2549 3916 3872 3071 2658 2581 3940 3778 3477 4968 2619 3096 3234 3395 3554 3362 4383 4794 4584 4103 3740 4479 4345 3054 3063 3051 4430 3938 3753 4286 4271 4244 4192 3452 4828 3013 4316 3614 3948 4577 3253 3450 4256 4727 3808 4211 4518 3033 3607 3083 4962 2988 2901 2846 4047 4528 4245 3330 4708 2610 4346 2816 3440 3737 4591 4882 3345 3133 4114 2616 2758 4816 3284 4513 4332 4112 2689 3511 2596 3619 4448 4706 3411 4755 4464 3270 4990 2930 2931 4427 3601 3581 3172 3203 2549 4518 4862 4055 2716 4576 4270 4513 2802 3682 3721 4080 3226 3623 4696 4545 3050 3474 4929 3537 3112 3815 2571 4091 2736 2601 3868 4588 3990 3627 4727 3795 4222 4196 4893 3783 4795 3439 3844 2938 2507 4020 3926 3338 4865 4140 4490 4204 2811 4252 3078 2743 4577 3279 3170 3014 2992 4372 2981 34 39 20 30 18 24 27 29 30 1 11 3 14 11 6 29 32 3 32 10 38 3 4 0 39 10 12 25 33 20 13 8 36 31 4 12 8 5 31 16 17 34 20 37 39 21 24 3 28 20 9 7 15 2 15 37 37 34 6 6 14 35 14 3 10 24 5 8 16 7 17 3 37 5 10 27 30 34 35 6 29 30 15 32 7 15 16 39 32 20 1 21 26 32 34 25 11 4 10 9 13 3 30 2 21 8 5 34 23 37 26 16 21 9 12 29 20 22 7 39 7 13 38 32 18 4 4 34 24 26 16 6 32 5 29 29 9 23 32 21 18 19 38 25 11 33 20 10 38 23 11 35 12 6 13 33 24 39 3 30 1 14 7 9 24 32 11 20 15 32 22 2 10 17 39 8 33 24 9 13 16 10 34 35 29 22 5 26 38 17 6 16 1 37 3 10 32 7 25 31 33 22 23 15 31 7 11 21 18 25 10 6 25 26 8 15 33 21 35 21 6 17 11 26 8
4054 3895 4222 2909 4372 3135 3943 2877 3880 4366 2864 3259 4526 4410 3455 4706 3489 3346 3052 3625 4720 4120 4072 3733 3984 3304 3429 3583 3629 3099 3350 4234 3291 3617 3964 4427 2681 3510 3856 4105 3467 4090 4255 4564 2520 3448 4829 3701 4730 3947 4366 2719 4970 4243 3466 4638 2649 3772 3768 3532 3429 4259 4503 4437 4128 3951 2812 3150 3171 4267 4298 2598 4934 2906 4901 4762 3229 3008 3157 3698 3420 4109 4724 4442 3279 4574 3509 4351 3836 4052 4139 2832 4808 4972 3889 2600 4159 4571 3490 4929 4261 3621 4735 3822 3328 2856 4336 4726 3135 4599 2653 4008 4327 3721 2742 3647 3908 2824 4844 3785 4422 2501 3133 3469 2589 4809 2500 3940 4511 3896 4450 3979 3212 3026 4413 4878 3232 3900 3868 2818 2718 3940 2922 3196 3894 3414 3376 2635 4450 4815 3537 2902 3423 3384 4770 3606 4178 3498 3122 3520 3532 3170 4726 4283 3747 4016 4624 4694 2772 4291 3820 3393 4873 4004 3057 2802 4591 3798 4718 3062 3661 3073 4206 3072 3074 4242 3150 3566 2637 4355 2674 4629 4969 3152 3740 4439 2522 3956 4684 2635 2729 4489 4898 3679 3240 4235 3048 4109 2621 4736 3647 3063 4055 4661 4001 4384 3736 3292 4843 3164 3057 2695 3989 4805 4649 11 32 19 33 1 11 38 3 21 19 35 31 17 24 12 6 31 8 18 6 4 26 24 15 0 39 36 27 10 18 15 24 4 24 6 14 33 38 16 7 31 13 9 12 33 30 26 8 18 37 6 17 8 8 7 38 20 35 1 39 23 3 24 28 11 18 1 7 19 5 29 5 9 6 8 4 13 33 12 28 29 6 4 36 6 33 28 22 6 2 8 11 10 29 5 31 39 34 4 20 9 24 30 29 17 18 15 30 2 3 10 32 31 20 19 17 39 11 39 30 23 3 1 36 23 7 13 3 31 7 11 31 35 3 2 35 4 21 3 20 9 22 36 12 1 38 15 4 37 22 12 9 27 14 22 38 24 39 17 12 16 5 3 37 17 23 25 4 29 29 35 24 39 28 26 25 18 5 7 15 10 33 24 28 13 32 30 15 29 37 22 24 32 14 30 9 18 11 1 35 15 25 1 2 19 31 36 15 6 23 13 26 19 15 7 11 26 37 39 22 17 39 11 3 37
4236 4058 3540 2828 2807 3360 4380 4487 4349 3811 4405 4054 3904 3579 3155 3814 4781 4491 3359 3552 2835 3201 3836 4650 3449 3198 2861 4483 2711 4994 4025 4753 2668 3981 4574 2628 4426 4515 3971 4858 3611 2803 4761 3237 4309 3943 4081 2585 4552 2668 4371 2547 4731 4573 3499 2526 3088 3996 3210 3807 3362 3164 2689 3352 3385 4966 2890 3697 3432 3698 3194 3537 3269 2997 2710 3315 3676 2885 3613 4148 3432 3229 4442 2574 4368 3062 2592 3759 3294 3723 2600 2762 4201 2699 2801 4204 3159 3068 2739 3523 3292 2835 4230 3625 4860 3877 3108 3674 3360 4493 3917 3128 4353 3145 3964 4501 4732 3423 4754 3818 4354 2993 3615 3262 3970 3408 3455 4946 2782 3282 3293 4228 4338 4048 4563 3000 3518 4918 3622 2666 3082 4055 3443 2677 4032 3038 4979 2640 4088 4342 4039 3446 4043 2880 3230 4100 4986 4019 2674 4505 3434 3539 4186 3194 3221 4509 4665 2852 3170 4432 3022 3645 4429 3060 2843 3777 4354 3298 4501 3985 4710 2605 3018 3911 2888 4115 4740 3659 4098 4812 3286 2659 3804 4300 3038 2512 4502 3543 3575 2612 3780 2823 3898 3739 3766 2526 3700 4044 4071 3762 3956 2951 4742 4710 3745 3770 3285 4847 4551 4846 3828 3349 2708 3412 3827 12 6 3 10 5 27 33 11 27 4 18 38 1 1 22 3 13 30 12 33 35 27 21 24 22 0 19 26 1 20 17 37 31 6 11 37 14 25 31 28 35 26 4 39 34 15 3 18 37 3 39 33 26 31 34 2 32 14 36 16 21 31 2 15 18 14 27 9 7 13 4 4 30 9 4 36 25 2 13 3 2 7 18 23 21 3 4 26 4 7 7 3 28 30 30 1 15 14 20 30 37 1 7 24 26 27 5 3 21 18 37 30 10 15 18 22 27 30 2 16 27 25 37 18 35 16 37 9 18 3 32 34 1 7 18 34 39 29 18 36 13 19 29 20 6 36 27 35 26 34 37 1 33 28 38 34 4 15 4 10 39 25 10 2 27 35 12 19 12 39 9 32 31 19 19 29 36 39 9 3 30 16 5 12 7 1 29 29 16 20 10 12 24 36 12 1 25 20 10 24 28 10 18 34 4 3 1 28 9 26 8 31 39 33 24 14 2 17 16 7 31 39 30 39 12
3582 4751 3544 4222 2616 4859 3111 2750 3046 2807 2942 3093 4604 3117 4497 4593 2690 2768 4623 3937 3436 3767 4944 4376 3143 4927 3901 4989 3820 4201 3912 3414 4000 2712 3756 3441 3816 3721 13 2829 3426 4915 2895 3671 4471 4651 3597 2730 17 3278 3990 3624 2985 2500 2752 4001 2566 4236 3277 2547 2837 4540 4450 3400 3050 3181 2637 3718 4511 3256 2643 4258 4182 3247 3293 3619 4104 4477 3884 4797 2831 4700 2720 3774 3180 4688 4197 2787 2510 2667 2983 3784 4977 4853 4144 3985 3830 2954 2857 4742 3766 3386 3138 4394 3536 4507 2737 2969 3924 4177 3101 3931 2993 4808 3863 3528 4873 3501 4793 4331 3860 3233 4598 3356 4024 2810 3919 3678 4538 4404 2654 3806 3357 3692 4695 2689 2839 4431 3152 4979 3190 3896 3095 3408 3168 3532 3671 3839 3449 4095 3108 4657 3511 4437 4676 2889 4411 4003 3381 2973 3289 3151 4806 4911 2686 3920 4513 4757 4905 3072 3582 2686 4954 2944 4470 4055 4754 3097 3455 3197 3505 4921 3014 3057 2922 3548 4865 2545 3673 4250 4918 3391 4894 4913 2525 4029 3886 3097 4038 3941 3688 4962 4052 4090 2670 3987 4724 4468 3986 4853 4631 3383 2928 3966 4612 3368 3812 4214 3113 4831 2978 3872 4216 4408 4526 2 38 24 2 8 36 19 6 4 16 15 30 18 26 39 32 3 39 30 26 6 31 9 28 2 12 0 2 34 4 18 29 28 19 35 17 11 14 31 17 18 36 39 31 26 17 32 14 6 32 37 32 33 9 20 24 29 1 39 24 21 20 24 27 12 37 3 21 20 18 36 15 6 2 34 5 3 16 37 14 20 36 32 39 5 25 23 4 13 36 25 36 33 9 24 11 7 29 14 36 8 15 3 28 30 23 23 38 2 23 36 34 3 8 36 7 32 10 5 33 11 28 1 23 16 21 13 34 8 9 30 25 20 19 20 11 18 13 11 16 3 35 18 26 8 24 31 39 35 18 31 36 22 32 7 38 36 2 32 2 29 39 5 2 10 19 7 5 13 27 28 25 3 5 18 8 30 11 32 27 2 34 2 1 28 8 15 1 10 9 26 17 14 6 7 6 12 31 14 30 21 25 29 30 9 26 37 39 13 38 8 26 7 11 2 8 15 30 6 13 17 20 32 29 7
3747 3577 4998 4623 3988 4911 4873 4345 4358 2553 4595 3379 2946 4309 4350 2856 3547 3344 2876 3212 4844 2691 3119 4490 3283 3193 3895 4009 4373 3890 3927 3040 3980 4638 3160 3271 4814 3960 4120 2729 4157 3390 3360 4733 4630 4878 3112 3528 4460 4626 3460 4372 3284 3543 3171 4268 4332 4504 4856 4572 4498 4741 4122 4464 4319 2502 4349 2666 4633 3169 3878 4923 2697 2530 4320 4384 4603 2846 2888 3758 2720 3764 3828 3744 2703 4084 4755 3122 3034 4963 3338 4726 4329 3102 3801 3573 3562 3913 4535 3071 4943 2967 4380 4044 3095 3912 4440 3460 3690 3312 3793 3776 3684 3678 3754 3305 3895 4639 3356 4374 2852 2832 4051 3611 4009 2927 3683 2937 4661 2523 3468 2794 4541 4844 4977 4611 4324 3945 3138 4417 4083 4391 2689 3347 4563 4060 2544 4663 3192 4156 4236 4943 3357 3460 2534 4490 3884 3328 2788 4297 3763 3772 3675 4500 3439 3063 2515 4549 2709 4903 3377 3236 3883 3817 2567 4143 4207 4281 4268 3481 3667 3971 3984 3572 2515 4763 4479 3492 3734 3498 3336 4326 3216 3840 4758 3117 4858 4785 3414 3827 3019 3171 3846 4004 4658 2793 3568 3144 3435 3589 4191 4361 2757 2529 2932 4233 2719 2691 3700 2817 2563 4799 3337 4893 4466 28 27 13 37 36 34 38 8 29 2 33 22 34 22 10 17 25 19 6 10 35 25 4 19 9 18 9 0 34 5 16 5 6 21 20 35 39 15 2 12 7 15 13 1 39 23 9 21 13 36 4 13 3 28 37 28 15 32 4 33 8 5 39 16 11 15 15 34 34 6 17 18 17 13 34 39 28 18 37 35 9 22 25 35 5 5 19 15 10 19 35 15 37 36 8 38 24 10 29 10 9 21 23 12 17 19 28 3 26 33 21 5 28 35 18 24 22 37 30 7 10 5 12 39 10 26 18 34 10 3 14 16 1 36 34 14 11 20 17 7 15 39 1 13 35 37 24 17 6 31 23 10 38 3 13 23 5 3 19 30 8 24 14 31 11 23 28 34 30 35 8 12 23 28 29 37 3 4 29 20 3 5 36 11 8 3 21 22 35 36 30 25 15 31 14 35 28 18 33 33 31 10 15 25 7 27 31 11 30 9 8 1 37 26 12 7 33 14 18 35 24 12 1 17 35
2666 3257 4969 4045 4672 3298 2642 3435 3068 3823 4849 3722 3093 2633 2904 3263 4017 2753 4969 2650 4855 2714 4229 2657 2591 3948 3733 2646 4876 2814 3438 2826 4536 3452 4141 3780 3966 4264 3550 4028 4788 4004 3310 4636 2647 4672 2818 3268 3772 2669 3213 3944 4412 4888 3507 3643 3355 3623 3106 3109 4914 2759 4651 2970 4192 3790 4572 4352 3579 4804 4075 4691 4635 2684 3004 2928 3257 4169 4114 3725 3823 4158 3911 3614 2922 2521 4658 3769 4185 4014 4104 3456 3193 4026 4821 4969 2876 4740 3780 3087 3887 3156 4808 3676 3626 2535 4750 3722 2517 4228 3295 3022 4086 3349 4168 4546 3855 2727 4585 4289 2533 3055 2799 3660 4746 4607 3574 4414 3081 4891 4245 3854 4061 2575 2824 4980 4962 3995 3771 4530 3740 3352 3518 4278 4386 4069 3984 2774 4699 3021 3519 3282 3644 2798 3048 4165 2693 4901 3059 4322 2586 2996 2940 4601 3241 2906 4866 4985 3097 4181 2999 2735 3412 2770 2845 3182 2589 3775 4314 2760 3284 4413 4207 4609 4111 4382 2805 3217 4125 4043 3857 3692 4601 2772 3147 3137 4817 2645 4863 2975 4492 4007 4556 3664 2720 4481 2734 3832 2716 4555 2990 4846 3846 3037 3908 3837 4403 3619 4601 4624 4410 3612 4245 3411 3961 13 7 26 7 1 35 12 14 31 11 22 18 3 24 37 25 29 2 33 5 23 20 12 5 21 30 20 12 0 30 38 31 18 27 23 10 22 31 13 4 7 35 13 38 32 35 8 10 27 18 9 10 3 37 18 16 29 2 5 15 9 37 20 35 28 33 1 9 7 18 12 13 22 14 26 2 36 28 5 27 31 14 22 20 27 30 29 15 33 20 3 37 31 15 21 13 23 26 16 37 3 27 19 28 31 3 1 5 5 35 2 25 19 10 34 3 9 28 5 21 32 38 20 32 25 7 5 36 29 29 24 30 4 35 26 20 34 31 37 32 26 21 20 11 19 16 9 3 24 16 21 36 30 16 32 28 32 1 28 31 34 16 5 5 38 26 38 24 3 16 3 30 34 32 30 1 21 11 4 7 24 39 37 1 21 30 33 26 1 4 36 21 23 7 37 33 32 29 9 18 14 6 39 22 27 35 9 3 13 36 4 8 8 7 11 25 9 27 13 38 35 27 21 35 27
3827 3314 4373 3038 3586 4080 2735 2878 3963 2772 4571 3248 2600 3130 3905 4351 2750 4519 4932 4476 3409 4796 3716 4267 3446 4500 3946 3827 3213 4673 4165 4039 2701 4680 3732 4045 4459 2584 4423 4019 2698 3892 3626 4910 4101 3954 3498 4579 2636 3004 4517 4640 3770 2729 2532 4614 4882 2604 4997 4448 3534 2642 3179 2669 4317 4495 3619 4187 4641 4236 2588 4257 4284 4228 2809 3554 3341 3064 4742 2699 3694 4129 2569 3360 3671 2825 3971 3540 2797 4013 2994 4194 3962 4873 3951 3952 4482 3494 2988 3988 3584 3296 4484 4317 3788 2644 2774 2982 2709 2701 4207 2610 4417 2827 3740 4630 4377 3879 4628 4472 4458 4605 4028 3892 3977 4328 3118 3607 2885 2516 4825 2943 3017 3663 3695 3640 4170 3638 3427 3430 2624 3121 4625 4640 4052 3021 4144 3088 3031 4458 3412 4922 3954 2811 4421 4838 3365 4246 4936 4695 3391 4230 3319 4726 3693 2967 2555 11 4784 2987 4538 4894 4380 3075 4949 2738 4088 4825 2698 2620 3882 3462 3073 3950 3064 4527 4808 4420 3374 2720 3721 4916 4248 4409 3653 4530 3309 3824 2509 3024 3179 4999 3107 2887 2972 4551 4969 3792 4744 3439 3441 4197 4949 3268 4586 2617 3417 4460 4193 3715 2656 4381 3436 3427 4080 18 25 4 39 33 23 20 32 2 39 9 25 28 19 27 8 19 21 22 36 9 1 21 3 24 7 15 28 17 0 22 20 21 19 26 7 7 16 22 6 2 33 6 23 17 21 30 32 36 35 12 6 8 11 32 24 25 38 19 13 9 34 16 14 4 16 36 1 18 16 36 37 17 5 10 36 2 23 12 16 32 32 13 17 33 14 10 28 5 6 3 17 12 38 20 17 29 20 28 11 5 14 12 17 16 10 24 13 30 23 20 2 10 23 30 14 35 22 16 3 5 33 3 10 29 9 18 24 25 18 30 3 4 37 27 30 11 35 4 32 37 24 1 32 36 22 18 8 21 33 23 1 37 15 21 19 27 25 32 27 6 21 8 14 27 16 10 12 8 39 6 2 24 13 36 26 20 17 11 36 3 3 19 26 12 20 17 29 21 5 23 13 29 39 39 36 31 38 7 33 29 13 19 12 7 23 3 26 22 17 18 12 11 25 2 6 21 24 26 3 33 28 14 35 34
2703 3966 2571 4242 4897 3618 4134 4516 3359 4671 3046 3414 4278 3550 4118 3371 4133 3826 3720 2764 3654 4552 4934 3373 3777 3477 4405 3662 3775 3503 3969 2605 4313 4503 3096 2691 4527 2922 3314 3288 4394 2640 4018 4933 4003 4420 3108 3756 3261 2728 4971 3733 2840 4080 3453 4674 3511 2587 3331 4401 3845 3835 4421 2519 2815 12 4928 2846 4776 2571 4178 2599 4463 4938 3039 3770 3760 4493 3877 4159 2989 4965 3059 3589 4932 3614 3042 2838 3709 4313 3376 2694 3918 4590 4906 3524 4517 3791 2894 4646 4609 3832 3772 2907 3072 4970 4072 3359 4279 2653 4170 4588 3465 4324 3574 3284 2734 2668 3258 3203 4533 4468 3987 2737 3920 4200 3156 2984 2893 4575 3678 2787 4680 4113 10 4638 4314 4503 3522 4662 2951 4540 4632 4284 2913 2579 3122 2806 3876 4016 4011 3065 2725 4410 3607 3943 2663 4065 4341 3216 4002 2850 4249 3613 4432 4776 3380 4046 3865 4067 4829 3108 4220 2623 3695 3922 2668 4161 4012 3029 2825 4790 4023 3551 4445 2858 4284 4459 3893 2610 2935 2786 4402 4099 3287 3135 3875 4284 3152 3236 3917 3776 2997 4432 4783 2826 3425 2928 4509 4043 4645 4147 4879 3611 2672 3115 3114 3015 3522 3125 3518 2888 4322 3543 3368 8 33 34 28 37 21 8 18 29 37 7 20 7 13 27 13 32 26 10 1 9 24 20 13 30 22 6 11 7 27 0 3 39 23 21 32 27 14 30 29 27 25 37 13 35 22 30 31 30 3 21 22 16 19 31 2 23 28 33 10 14 25 30 14 18 30 36 34 19 1 7 1 8 9 8 39 26 10 1 5 31 17 11 24 5 8 35 12 37 24 2 29 11 23 2 36 7 34 4 38 33 5 10 18 11 28 9 2 21 34 11 2 22 10 24 2 1 15 37 30 13 22 27 32 23 36 6 6 7 5 18 14 2 31 16 5 6 15 7 31 24 20 17 2 4 13 25 25 15 3 27 12 10 6 29 5 12 1 31 17 31 15 20 33 29 4 9 15 31 8 26 16 21 23 9 18 10 24 18 26 32 39 7 30 6 31 29 35 8 24 2 30 39 31 35 5 28 25 30 29 9 38 21 19 21 22 38 23 17 21 19 31 12 21 26 29 5 32 23 15 8 18 4 11 23
3785 2758 3151 4019 3914 4279 4785 3306 4965 2931 3964 4560 3044 3107 3954 3178 4975 3134 4051 2712 4903 4092 4073 3651 4223 4876 2805 3275 4244 4396 4659 4561 4732 4675 4946 3102 3187 3481 3940 3998 3942 4845 2543 3708 2952 3127 4217 3961 3114 3644 4168 3644 3764 4465 2972 3463 4172 3039 4924 2800 2594 4333 3171 4870 2812 3766 4717 2589 3804 4093 2783 2917 3952 3967 3462 2510 4072 2668 2519 4421 4135 4241 2632 3651 2753 4660 3929 4351 2671 3846 2654 2609 3279 2954 2590 4838 4328 4155 3712 2598 2906 2954 2630 3729 3538 4184 4159 2966 2837 2584 3802 3035 4341 4786 4823 3558 4230 3889 3639 4878 3649 3984 4162 3419 4701 3516 3254 3343 3035 2538 3013 3891 4109 2505 3823 4366 2554 4049 3496 4802 4067 3468 4113 3488 4844 4112 4156 2927 2652 4351 4834 2794 3150 2931 2561 4868 2575 4891 3245 2587 4679 4639 3675 2654 4316 3405 3705 4074 4837 2819 3014 2535 3199 3286 3953 3045 2825 2688 3130 3468 4627 2628 3905 4430 2694 3248 4765 3938 2605 3546 4815 2981 2682 3487 4977 3103 3458 4068 3841 4858 4257 3804 4594 2785 3473 4735 3657 4120 2855 2942 3684 4230 3165 4155 3113 3946 4018 3074 4812 3331 2683 4828 3472 3071 4629 24 6 32 7 29 17 37 36 29 14 9 28 35 20 39 30 33 1 3 1 33 33 14 22 25 16 14 10 31 28 20 0 14 31 27 26 36 14 34 17 8 7 27 25 27 3 27 11 19 6 28 27 26 28 21 34 8 26 25 1 25 5 33 27 33 32 35 20 25 4 35 37 38 9 28 4 31 2 35 16 19 2 10 24 29 10 32 10 27 13 36 23 29 35 13 6 1 30 18 21 23 5 17 1 33 5 13 22 9 21 32 16 27 36 35 33 9 20 36 34 24 33 26 12 38 6 1 32 37 10 27 6 4 15 20 24 30 19 21 30 2 4 35 35 15 4 27 20 10 8 14 23 11 1 29 27 29 25 18 31 37 35 37 18 11 29 39 33 13 20 38 10 6 10 18 29 33 5 27 13 19 7 16 33 22 36 24 5 8 33 16 26 13 4 17 22 39 28 18 32 7 24 20 2 31 16 9 13 6 26 26 29 27 13 37 20 37 21 16 39 14 11 33 3 34
4463 2838 3738 3601 3994 3852 4493 4693 2635 3768 3293 3010 2796 4077 3371 4951 3353 4906 4751 2533 3699 4391 3044 3309 4362 4664 4010 3886 4249 3069 3602 3405 2697 3258 4567 4932 2983 3824 4273 4630 2746 3319 3471 3590 4933 2784 2931 4085 2507 3325 2643 4688 3009 3896 3425 4977 3979 3419 4610 2581 4158 3135 4985 3263 4101 4129 3330 2509 3485 2899 4149 3253 4639 4848 2983 3071 4908 4413 4398 4194 3600 3671 4581 4203 4919 4711 4510 4406 2644 4781 3652 2886 4349 4046 3435 3317 3162 2946 4430 3028 3001 4168 2526 3328 4442 2706 4011 3569 4500 2630 2782 4647 3549 4240 4501 2709 3508 3255 2788 3390 4157 3092 4383 4694 3541 3533 2987 3914 3401 2521 2929 3382 3578 3172 2836 4896 4368 4257 2885 3121 3845 4101 3596 2515 3690 2594 3264 3180 4482 3132 2962 3110 4277 3399 3001 4611 3330 4293 3086 3351 4493 3445 4046 4054 3152 3145 3701 4059 4381 4902 3311 3748 3823 3501 2742 4982 3268 3992 3023 4603 3046 3753 3177 4401 4210 4841 3573 2604 2894 3212 3490 4243 4952 3489 2898 3318 2556 2506 4159 3828 4746 2893 2998 3686 3663 3681 3937 4327 3033 4460 4876 3154 3260 2761 4337 3315 3247 4799 2636 3693 4670 4168 4567 4793 4121 2 39 11 24 6 3 16 17 18 6 32 11 4 7 14 6 25 32 36 18 19 30 4 30 26 35 17 11 30 12 8 34 0 5 5 25 16 24 11 21 15 4 11 3 21 14 39 8 12 15 31 1 38 1 14 18 2 32 35 35 20 14 31 32 8 16 12 21 39 8 18 39 15 9 11 24 18 35 12 28 1 13 5 3 3 7 23 24 8 5 35 38 27 35 1 22 19 11 15 33 2 7 15 16 22 21 1 31 34 18 33 35 35 19 24 1 36 17 4 26 27 31 14 24 14 11 3 23 31 7 38 27 6 28 8 12 1 26 26 7 38 10 8 32 13 21 10 12 6 8 12 4 15 17 21 17 18 33 17 15 23 29 11 37 11 16 5 4 9 17 5 26 30 15 1 9 7 29 39 19 24 6 3 34 21 38 37 39 30 22 20 2 20 34 36 2 37 6 11 39 14 21 6 29 22 9 37 7 29 8 3 7 35 5 21 27 21 37 20 26 15 27 33 14 2
3986 3246 2654 3836 4407 4316 2614 3583 4184 3957 3466 4802 4986 3404 3046 3038 2759 2754 3932 4828 4864 3898 4928 4561 2925 3172 3181 4702 4183 2925 3763 2556 4346 3519 4741 4466 4078 15 3986 3836 3260 2528 3693 2728 3717 3401 2951 3233 6 3952 4631 2764 4159 2601 4630 4341 3247 4055 4054 4566 2506 3879 4323 3915 2544 2952 4560 4047 4605 4494 2765 4440 3263 3499 4661 3902 4748 2964 4833 3846 3416 4176 2894 4850 3757 4940 4809 3998 2852 3542 3386 4507 3069 2747 2909 4873 3349 2838 3051 4230 3241 2561 3467 2972 4361 3621 2565 4053 4873 2911 4931 3277 4695 4279 2537 4642 4629 2557 3569 4492 2514 4538 2803 4092 4128 2938 4223 2637 4167 4389 2824 4973 4841 4507 3617 4957 4115 4664 3422 4387 3400 4343 4820 3231 3941 4501 4901 3662 2913 4169 3060 3720 4278 3062 2593 3335 2856 3852 4927 4610 3119 2700 4559 2902 2662 4558 4407 4317 4305 3642 3559 3953 2508 4689 2990 3904 3826 2945 3256 3714 4002 4081 2839 3749 3981 3511 4478 2982 2503 3227 4708 3119 3254 10 2774 3689 4921 2710 4490 3005 4512 2792 4663 4865 3146 2520 3567 4083 3660 4408 3183 3937 3686 4719 3254 3443 3847 4852 4723 3522 2746 2521 3665 3570 3870 3 37 32 2 33 10 14 33 34 30 3 25 2 23 5 38 2 22 7 24 19 27 38 18 13 17 28 4 12 19 39 8 3 0 33 9 19 29 20 33 11 6 36 1 14 21 3 21 33 31 2 37 26 13 38 16 25 32 1 21 18 37 29 18 5 27 37 6 29 30 11 1 19 7 21 1 27 35 32 15 5 26 30 37 18 18 21 7 28 35 22 1 23 31 17 9 12 19 19 9 11 8 38 35 8 17 23 1 33 32 21 6 28 29 3 30 15 31 18 17 11 7 3 31 24 1 37 25 21 6 13 8 7 21 38 11 20 16 29 35 7 38 27 8 10 30 17 34 29 15 34 27 33 1 38 21 38 4 25 35 37 21 29 31 19 9 27 25 28 26 28 38 15 26 20 34 39 23 9 6 22 2 2 11 31 14 7 25 24 33 16 10 15 4 33 15 19 24 27 39 25 25 20 9 22 1 28 15 15 31 27 19 37 20 8 5 2 23 13 19 19 7 22 6 19
4202 2731 3806 4011 4673 4385 4816 4330 3937 4912 2946 4480 3677 3168 3187 3566 4398 3323 3194 3824 3027 3299 2558 3475 3094 4514 3767 4516 3999 4814 2938 3596 2974 3162 4921 4774 3177 4229 3713 3396 4330 3683 2712 2897 3845 2891 4411 3567 2731 3601 4864 2891 4351 3659 3800 3363 4645 2734 3341 4862 2666 4445 4626 3856 4366 4915 4590 2850 3131 3326 2543 4198 3127 2834 4999 3070 3291 2936 4291 2775 2926 3975 4611 4282 3999 2705 4716 3104 4296 4478 4140 3213 3131 3472 4191 2890 2989 2920 2557 4399 4387 4535 3520 4199 2788 3058 3737 4731 3814 3623 3357 4952 2839 2622 4500 4632 4277 4236 4580 3215 4400 4526 2795 4582 2813 4119 4454 3064 3838 2723 2828 4648 3539 3624 2516 2521 3113 2940 4703 3742 3625 4918 4412 3981 3097 3175 4312 3715 4273 4412 3797 3382 4232 4425 3299 3808 4556 3181 3251 3687 3217 3979 4187 4231 4938 4698 3719 3733 3212 2542 3066 2864 4147 4809 2797 4391 4392 2669 3400 3615 3212 4407 4469 3405 2731 2947 3570 3477 4896 3879 4998 4122 2808 3264 3613 3179 4766 2623 2987 3275 2885 3464 3277 4367 4659 4530 4262 4987 4394 3716 4524 2564 4996 3271 4650 2832 4830 2586 3871 3365 3926 4690 4773 3171 4203 14 2 9 39 27 4 6 38 7 22 8 6 23 22 30 26 6 16 13 14 24 3 4 4 26 22 35 3 28 18 30 37 28 31 0 7 5 20 5 4 10 7 24 1 26 35 15 29 3 15 13 39 32 11 30 38 1 14 16 32 16 8 28 34 38 28 3 23 24 32 15 38 31 32 32 35 23 15 16 18 11 25 32 24 32 25 15 4 3 24 4 38 26 5 8 30 4 18 32 1 5 31 24 6 35 11 30 2 21 16 39 22 24 25 31 16 25 35 17 21 23 27 39 39 7 29 20 30 12 12 37 22 12 38 15 10 36 34 39 11 36 33 7 27 15 13 28 21 15 19 10 35 24 15 24 22 6 24 31 10 13 35 13 1 26 20 12 23 2 39 32 30 35 18 27 14 10 20 33 38 35 34 13 4 32 33 34 27 3 15 38 29 33 31 37 38 9 36 12 29 32 15 31 10 17 5 29 20 9 34 12 10 16 37 19 13 27 16 20 37 16 14 11 30 3
3677 3615 3288 4371 3127 3768 4645 4438 4524 3179 4010 4867 4839 3080 4294 2868 2895 4163 4325 3837 3569 3848 3556 4194 3963 4130 3138 3156 3554 4031 2908 3632 2705 4516 4019 2519 3866 4487 4843 3103 3091 4011 4472 3054 4276 2825 4974 4150 3850 4264 3073 4999 3551 2723 3882 3397 4735 3723 3764 3546 4962 4377 2708 4274 3426 4149 4462 3314 4378 3372 2949 4704 2829 4193 2976 2942 3358 2624 2720 4743 3006 3689 4973 4725 4279 3611 3182 2986 3344 4049 4988 3368 3009 4055 3536 4964 2703 4025 2929 4220 3693 2712 3069 3952 3533 3364 3587 3186 2681 2520 3178 2827 4707 4574 3827 3436 3633 2913 2923 4401 4399 4772 3193 2670 2982 3706 3196 4286 3965 3522 4926 3592 2891 4528 2889 3671 3119 3697 4815 3071 3278 4261 3491 3573 4666 3897 4223 3681 15 4197 4913 3097 2824 4307 3378 2616 3841 4872 2669 2674 2678 3025 3512 4993 4843 3571 3690 3875 4206 3314 2945 3446 4372 2925 3106 3553 3608 4348 2896 2939 3083 2637 2570 3361 2703 4587 2629 3050 4953 3632 4696 3301 3264 3889 3848 2819 2678 4809 3462 3073 4588 2997 4661 3876 2527 4927 2506 3172 3579 4840 2831 4794 4268 3758 3509 3709 4391 4240 4313 4544 4700 2546 2967 4942 3104 35 33 7 18 15 6 16 35 1 28 7 13 21 10 6 4 28 24 10 10 23 32 29 16 4 13 31 1 23 8 7 16 34 5 20 0 6 39 28 37 20 19 1 11 4 35 6 23 25 24 33 39 26 5 33 29 17 26 39 16 12 13 37 26 13 8 28 39 15 16 5 18 5 8 2 12 26 32 1 32 22 24 13 16 25 19 27 5 21 18 29 18 29 22 12 6 25 39 20 15 39 8 17 36 37 34 29 5 33 36 9 11 32 1 21 9 26 12 33 26 10 34 10 35 1 9 29 9 2 4 28 29 15 36 36 34 2 7 5 37 24 36 29 36 33 34 2 15 25 6 35 32 2 8 6 13 9 16 22 33 33 3 4 14 27 25 12 37 34 18 22 33 26 18 32 31 16 9 13 28 36 26 36 38 15 27 10 2 7 26 8 36 24 28 39 37 10 19 19 9 37 28 37 6 25 22 38 15 13 25 9 9 26 17 30 13 12 37 24 24 18 9 30 37 31
3762 4024 4449 2954 3008 4068 3867 2903 3953 4790 4634 4035 2668 3230 4028 4881 4764 2712 3124 2972 3301 4714 3421 4553 2789 2823 3625 4916 4401 4084 2675 3653 4233 4037 2767 3606 2591 4044 4777 3239 4638 4138 3336 3217 2602 3156 2639 2721 3316 3471 3169 3708 3042 2677 4845 4854 3508 2998 3947 3479 3981 3080 3333 4460 3622 4578 3809 3614 4899 4926 4016 2986 3854 2769 3402 4866 4086 4778 3226 2758 2995 3146 2872 2923 4201 4995 2683 3302 3003 3415 4314 2993 4606 3246 3824 3305 3074 4246 3334 3865 3599 4077 3954 3496 2766 4264 3876 4269 3000 2887 4971 4203 2814 3465 4316 3836 4102 3994 3249 3767 2591 3961 2782 2659 3371 4838 4148 3627 4280 2538 3745 2970 4902 4959 4028 4979 4204 4825 3869 4735 4962 3401 2655 3482 3482 4650 3995 3839 4595 3638 2657 4879 2993 2520 4319 2917 3333 3226 3339 3076 3288 4607 3753 2616 9 2551 4730 2598 4704 2838 3694 4144 2883 2941 2745 4960 2758 2779 2739 4719 3989 4906 2641 4601 3320 4622 3186 3029 3835 3025 2519 3247 2884 3783 3754 3186 4951 4129 3057 4627 4059 4311 2503 3777 3510 4602 3601 3860 3929 4643 3610 4849 4244 3575 2564 4016 4626 2618 3314 4446 3699 4471 3473 2709 3557 7 11 15 7 37 31 37 12 22 6 17 18 37 14 16 34 13 32 33 38 22 30 34 18 14 39 9 15 24 13 18 24 13 1 25 37 0 13 27 32 36 29 18 30 29 7 3 15 26 19 6 30 3 19 18 35 9 12 32 20 12 25 12 24 31 39 1 30 22 15 5 16 39 38 11 19 10 39 22 24 19 19 5 1 31 31 3 22 21 31 30 26 7 11 6 23 26 15 23 29 18 15 17 3 5 20 13 36 28 38 27 31 25 17 2 10 11 36 13 22 39 2 7 5 14 16 8 4 19 10 11 31 28 28 23 33 32 18 12 22 1 3 28 27 28 16 11 9 20 32 20 29 19 30 11 23 18 33 38 11 16 19 39 32 25 15 30 33 29 22 23 32 38 34 28 20 9 8 15 1 25 12 17 33 13 23 4 27 29 36 19 20 9 36 1 36 15 35 31 2 15 5 17 38 7 4 33 1 4 10 31 26 18 35 39 3 38 37 26 9 31 15 10 14 1
4224 4466 4502 4484 3568 3946 4330 2893 4611 4043 2867 3962 3077 2721 4022 4207 2673 3687 2809 4448 4823 3163 4968 4278 3482 3677 3046 3362 2864 3052 3089 4689 3615 3951 3765 3315 3050 4473 3149 3946 2598 3351 2698 2704 4158 3374 3570 4387 3450 2992 3773 4679 2949 4063 3969 2960 4797 2520 3851 4950 3407 2663 2948 2954 4385 2682 4702 4805 4878 4571 4915 4553 3291 4064 2594 3096 3482 4839 3749 4786 2564 2508 4862 3654 4200 3356 3330 3103 2547 3008 4948 3835 4436 4608 2902 4979 3804 3097 4550 3085 2948 4768 2947 4315 4402 2983 3022 4054 3137 4096 4348 3354 4043 4674 3093 4060 4745 3746 4547 3189 4157 3570 4281 3309 4184 4481 3585 3646 4689 4483 4932 4521 4531 2986 3433 2529 3466 4392 2755 3777 4282 2585 3573 4789 2690 4164 3173 3847 3578 3084 4065 3042 3640 4062 4648 4711 3470 2596 3538 3397 2625 3029 2858 2590 4649 3096 4388 3668 4784 3114 3942 3278 3391 2589 3682 2559 3904 4920 2556 4043 2889 4135 4412 4775 4423 2928 3034 2613 2513 4122 4909 4021 3488 4475 2541 2566 4191 3978 4316 4964 2712 4959 2505 4460 4408 3271 4823 4114 4398 4921 4327 3197 3395 2594 4288 4492 2758 4198 4381 4303 4914 4804 3674 4712 2934 11 13 28 22 28 4 39 20 18 16 2 18 15 34 18 25 9 31 36 1 5 20 31 13 13 19 30 33 17 36 22 25 26 14 31 4 26 0 38 21 19 25 22 17 18 26 22 37 26 12 2 36 13 16 39 5 17 2 17 20 39 32 4 35 18 35 19 29 13 16 37 20 11 29 30 23 32 34 2 16 32 6 33 30 23 8 12 24 34 2 19 26 1 32 15 27 34 23 29 7 10 24 38 16 27 8 39 8 32 9 16 12 19 32 23 2 30 21 7 33 5 32 9 27 37 35 16 36 2 15 28 10 21 31 36 10 32 37 2 37 17 39 20 8 23 4 8 14 30 22 1 38 37 20 22 19 34 3 24 5 32 1 14 17 16 37 30 13 39 27 39 31 18 23 33 7 15 24 34 23 4 30 34 31 33 3 8 21 28 22 6 20 19 6 31 23 4 35 5 6 5 16 8 29 15 5 11 38 29 28 26 10 8 7 29 13 1 4 27 33 38 35 20 21 19
3863 3804 3686 4615 3795 3650 2568 2974 12 2584 2933 3474 4283 4978 4605 3783 3211 4000 2622 3731 3652 3397 2748 3257 4597 4485 2649 2775 4972 4558 4493 2854 4621 3484 4430 4952 2721 3864 4601 4639 3751 2748 2907 4937 3114 2984 3348 4522 3770 4809 4965 4756 3840 4812 2835 3051 4091 4948 3297 4970 4622 3940 3240 4086 2756 4202 2926 2847 3515 3990 2750 2767 2824 4216 4445 3213 4966 3693 3588 2894 3491 4540 4434 2860 3448 4068 3620 4084 3580 3146 2516 4759 2883 3968 3388 3967 3713 4832 4866 4293 4322 4201 4806 2771 3099 3469 3853 3487 3896 4251 4465 4113 2606 4781 4447 3979 2614 3410 3405 3205 3462 3495 4486 2963 4472 3816 3437 3060 4486 3709 3509 3405 3564 3728 2940 4313 3253 2738 2954 2762 4451 4021 4626 3271 2947 2779 3764 4900 2509 3555 2613 4742 4408 2889 4287 4709 3614 3458 4012 2569 4344 4398 3588 4266 5 2940 3666 4321 4697 3159 4260 3774 3130 3208 3822 3614 4575 2944 4154 2944 4159 3309 3869 4579 4090 2661 4930 4331 2600 4776 4077 4439 4349 3641 3980 3293 2809 3446 4413 4792 2720 4095 3478 4492 3733 3057 4758 3698 3898 4031 3028 4957 4654 3768 2670 3225 4811 3982 4382 2546 3620 4752 3231 3322 3613 25 31 27 8 38 37 22 21 38 7 12 37 39 34 25 34 28 21 5 23 21 20 1 27 5 17 3 18 34 37 16 1 29 39 11 10 23 21 0 30 23 23 22 30 2 39 20 9 38 10 19 27 34 23 3 38 13 18 6 35 19 29 18 38 15 26 5 14 10 10 27 35 12 35 27 35 39 26 8 12 27 18 14 10 15 39 39 24 33 30 19 25 9 10 19 1 6 11 21 5 36 17 25 20 38 12 37 3 36 10 4 32 19 28 11 10 3 39 25 34 28 34 25 10 13 34 3 36 38 6 30 1 36 28 25 15 8 22 26 31 2 21 9 34 16 1 24 5 18 31 1 3 9 22 37 33 25 20 25 31 4 19 38 9 38 2 22 3 34 4 14 26 22 22 25 36 29 5 30 8 15 23 15 1 18 30 3 4 38 33 3 19 22 2 11 10 19 4 32 35 20 3 29 13 17 31 12 14 30 27 27 15 15 3 10 27 21 29 22 34 33 15 12 6 2
3170 4751 2857 3099 3784 3878 3874 3608 4430 2614 3151 4835 3090 4381 4129 3076 3737 2925 3357 3974 4027 3090 4774 3098 2527 4543 4761 4233 3762 4747 3575 2973 4764 2955 3426 2729 4651 4120 4425 4300 4376 2559 4988 3270 2716 3437 4915 4173 3839 3540 4173 3763 2875 3888 2657 4130 3827 3735 4795 2674 3331 4335 4803 3303 3093 3680 2693 4370 4476 2669 4946 3158 3253 4625 2713 3227 3505 4731 2975 3414 3261 2802 4213 2705 3297 4980 4287 4543 4291 14 4415 4864 3566 4636 4285 4161 4917 4859 3604 4101 4416 3294 3516 3357 3955 2675 3516 4202 3282 3658 3516 3303 3781 3846 4123 4146 4388 4003 2650 4735 2646 3310 4356 3730 3907 3029 3637 3543 2607 4941 4790 3967 4379 3988 2598 4558 4247 2781 4781 4003 4182 2997 4451 2673 4630 3602 3412 2986 2997 3597 3574 3732 3524 3785 3798 2948 2978 4427 3288 3517 2524 3514 4692 3916 4195 3310 4368 4930 4258 2647 2966 3805 3099 3291 4804 2961 2714 4648 3375 3988 3023 2626 4787 3595 2991 15 4158 4702 3851 2671 4254 2990 2773 3145 2837 4406 4401 3927 4895 2756 11 3078 2830 3579 4960 4975 4757 4295 2830 3085 3307 4746 3390 4733 3514 2641 4256 2716 4956 3319 4664 3733 4087 4711 4466 37 11 35 12 33 30 11 25 19 23 7 18 2 1 1 9 21 33 29 36 2 38 26 9 33 5 22 11 25 5 28 14 13 29 38 36 33 23 1 0 19 8 9 15 21 14 36 37 21 19 14 12 1 16 13 20 30 7 1 34 7 1 3 17 34 18 10 5 20 20 14 26 6 24 24 20 14 2 13 16 12 4 3 7 34 22 30 36 33 8 25 31 18 33 13 35 3 27 20 15 8 1 25 16 17 19 3 2 22 23 28 17 13 16 8 29 7 11 12 26 22 20 36 27 11 12 17 39 6 35 17 6 39 18 12 14 1 20 14 13 38 35 28 22 28 6 4 5 10 18 29 4 14 28 26 39 12 31 29 24 35 19 11 15 23 29 16 24 30 34 28 25 26 18 28 11 27 13 37 28 2 27 24 24 4 28 31 35 20 34 2 20 10 6 36 16 23 28 30 24 21 36 15 35 7 33 39 8 18 4 32 17 6 21 10 33 3 21 16 34 20 22 16 7 25
3203 4063 3415 2590 3186 4198 3769 2799 2857 4942 3846 4267 2755 4598 3528 4870 2597 4069 4853 3099 3212 2953 2811 4776 4745 4537 4559 4836 4017 4939 4866 13 2558 4464 3996 4726 4633 2717 2604 3058 3459 3171 4744 4123 2539 4439 4175 4054 4680 6 4399 2652 4022 3946 18 4526 4725 4288 3899 4400 2970 3638 2575 3635 4071 4745 3381 4026 3391 4269 3350 4012 3169 9 2958 4580 4429 4420 4238 3076 3031 4338 2670 3037 4175 2888 3946 2663 4646 4457 2551 3506 4463 3874 2749 4101 2710 2667 3517 3370 4646 3719 3380 3031 2614 2831 2523 2686 2645 3253 2641 3781 4245 4671 4913 2556 2825 3115 3782 4980 2930 4774 4477 4536 4084 3727 2874 3838 3097 4532 4341 4593 2521 3299 4575 3761 4930 3562 4090 2650 3334 4438 3789 3163 4892 4827 3548 4577 4577 2847 4995 3845 4493 3630 3113 4734 4818 3916 3731 4395 4545 4921 3185 4397 2936 3149 3269 3253 2615 4935 4864 3036 3900 4104 4349 4667 4917 3727 3106 3294 4107 2734 3305 3155 4789 2651 3895 3114 4304 4265 4076 3546 4475 3122 4355 3835 4953 3879 3815 3275 4817 3199 3608 3936 3099 3521 2682 3830 3103 3221 3942 4206 4591 2545 4006 3505 4628 4712 2692 2738 3683 3633 3070 4070 3829 9 38 3 3 12 6 24 3 37 6 23 8 29 30 27 35 35 7 7 29 14 12 2 11 16 9 23 29 30 23 4 9 19 37 12 13 29 18 11 28 0 2 30 19 19 33 35 5 12 33 39 24 26 26 21 19 22 12 24 3 13 24 24 17 12 35 24 24 7 1 35 21 32 13 2 26 29 36 32 1 28 2 35 25 35 34 5 28 23 11 29 31 17 7 4 29 34 7 11 34 1 39 7 35 19 36 2 1 12 28 14 39 11 2 2 2 16 38 23 24 14 11 20 11 2 26 34 38 14 8 8 13 19 26 10 11 20 35 15 37 11 36 3 27 32 25 26 11 3 2 31 30 1 22 22 35 33 12 27 14 21 2 35 1 18 16 7 18 26 15 19 29 39 22 24 21 16 20 34 30 22 33 22 21 23 31 1 36 24 8 24 22 31 31 21 19 26 8 30 25 7 5 31 18 11 27 37 17 7 37 28 3 11 25 16 39 19 34 24 11 39 28 10 31 21
4811 4850 2684 3169 3178 2516 2523 3032 2654 4852 3463 3136 3126 3631 3749 3099 4927 4426 2808 3160 2602 3522 4634 3386 4917 3094 3714 3374 3311 3881 4042 3101 3062 3693 4715 4076 4199 4831 4060 4056 4429 2816 2808 2641 3192 4974 2934 4708 3615 3010 4474 2583 3914 2842 2510 4118 2899 2640 2958 4329 3030 3571 4328 4641 2685 4968 3897 3178 3837 3606 4157 2678 2632 4530 4369 4542 2579 4247 3061 2663 2917 3827 4998 3364 3126 3990 4155 3696 3565 3210 3851 2751 4803 4269 2528 4416 2524 4477 4640 3825 3615 4447 3346 4037 3626 4312 2585 4913 4973 3243 4164 2923 2976 2987 3525 3953 2801 4018 4751 3603 4914 4146 3617 3878 3354 2675 3645 4227 3331 4681 3268 3855 4406 3617 3304 3731 4816 4588 3354 4708 3299 3785 2558 4364 4399 4479 4972 2850 3123 4725 4939 2893 3625 4912 4935 4334 3066 4755 3795 4751 4270 3757 3597 3193 4042 4209 2856 3781 3048 4444 2592 4755 3161 3340 3689 4431 4842 3697 2647 4114 3593 2644 4547 3640 3817 3684 4215 3911 2867 3271 3118 3437 4579 4603 4599 3815 3689 2756 2784 4372 3346 4318 3683 3053 2662 4768 3817 3206 4546 4838 4082 4054 4442 3320 3508 3023 4999 3546 4672 4800 3249 2845 4041 3724 4179 25 12 13 13 28 29 13 30 32 6 27 23 8 22 18 17 9 15 35 26 39 34 15 32 36 23 7 5 13 3 30 31 20 35 17 17 25 27 27 4 30 0 39 30 5 20 38 3 28 28 37 16 34 10 8 38 13 5 11 26 23 18 23 29 39 1 5 33 5 21 1 3 18 22 19 25 37 9 31 39 38 32 29 4 32 9 17 1 14 23 34 27 30 2 16 23 23 13 24 17 33 4 22 26 32 13 18 26 27 25 11 20 32 29 31 16 36 21 35 10 17 2 16 28 38 9 13 17 24 13 10 2 32 33 23 10 37 20 23 11 29 14 29 12 5 3 17 36 13 34 34 33 15 14 12 3 19 26 20 14 9 17 22 6 35 11 31 5 15 24 19 19 19 30 33 35 11 23 24 7 2 23 38 3 14 14 9 12 27 30 29 26 7 22 35 26 19 1 34 27 5 31 3 8 30 31 3 31 19 32 3 2 10 24 13 35 7 16 7 20 5 38 31 6 12
4050 3929 3998 3524 3268 2566 2693 3261 4739 4078 4699 3839 3451 2677 2842 3627 4932 2628 3358 4467 3599 3541 4237 2836 2957 3980 2712 4876 4582 4214 3058 3246 2786 3337 3770 3740 3993 4348 2616 3751 3101 3301 3721 3687 3187 4526 4256 3023 2725 4468 3139 4306 4216 2719 4136 4334 4771 2513 4986 4413 2936 3175 4093 4963 2754 3928 2767 4683 2509 3243 2531 4261 4057 4285 4763 3612 3159 2514 4542 3809 2997 3032 4155 4964 3203 4166 3313 2943 4478 4007 3173 4425 3203 3441 3879 3796 2924 4048 2620 2546 2804 3160 2980 3755 3370 2500 2698 2858 4011 2810 3718 4911 4050 4441 3142 3260 3388 4918 4462 3091 3754 4100 2596 2744 3580 3652 3260 3631 3238 2970 3636 2574 4292 3194 4392 3297 3921 3715 3772 4741 4790 2545 2725 3595 2533 4231 4974 3680 3231 2961 4768 4918 4220 3143 2983 4026 2842 4371 4764 3605 3369 2822 4552 2652 4695 4754 3142 2715 4419 4415 13 3224 4685 3559 4676 3335 4152 4045 4671 2770 3135 4104 2622 3706 4676 3801 2868 4060 3684 4712 2948 4983 4617 4762 4108 3230 2592 3630 3352 4315 2949 3334 2555 4149 4587 3902 2809 3634 4095 3148 3451 4080 2705 3404 3758 4722 4493 3049 2761 3815 4973 4719 4219 3023 4864 3 9 17 2 13 30 16 3 17 27 27 8 12 2 9 17 35 31 7 27 39 36 9 20 2 35 15 12 31 8 19 33 3 37 35 31 33 31 9 34 34 39 0 31 23 9 5 24 17 30 32 12 32 5 23 26 31 24 14 17 20 36 35 27 2 17 20 7 14 18 17 27 34 22 29 39 6 28 20 2 24 18 12 7 31 5 1 28 1 37 35 8 9 30 22 32 28 39 9 31 34 6 28 36 20 24 29 25 18 23 37 21 7 25 11 24 31 39 25 12 10 30 3 9 8 33 12 2 30 19 32 3 14 19 25 9 23 30 28 17 7 39 28 22 25 30 32 21 18 22 4 7 17 1 20 21 9 16 1 23 39 31 34 28 29 16 19 34 15 21 34 18 9 8 14 13 26 2 7 1 30 38 19 23 38 29 26 31 38 26 11 23 13 2 13 16 18 15 20 37 8 25 19 38 23 5 30 26 23 38 2 14 4 8 23 39 36 17 6 7 38 9 9 34 15
4186 3261 4183 4496 3171 3608 4287 3220 3948 3910 4851 2602 3238 4683 3841 3644 2772 3267 2873 2831 3716 3037 4773 4739 4095 4220 4184 4265 3034 3766 3282 3257 3386 4118 4469 4995 4203 2871 4923 3204 3866 4607 4199 4239 4534 3703 4780 3897 4677 3723 2602 4297 4533 3609 2852 2547 2507 2900 3433 2527 4243 3445 3719 3862 3493 4823 3815 2637 2571 2645 3069 4812 4739 3520 3779 3596 4743 4701 4534 3533 3759 3367 3514 2537 3572 4272 4280 4134 4374 2630 4508 4731 2577 2545 4474 4005 3797 4023 4069 2781 2709 4345 4068 4102 3587 4738 2823 4489 4184 3181 3058 4690 2957 4264 4239 2731 4768 4496 2900 3729 4984 3859 3012 4279 2601 3080 4600 3154 4798 4154 3677 2913 4854 3286 4616 3138 3533 3946 4582 3343 2847 3282 3367 3022 3739 3887 3390 4814 4910 2652 4633 3147 4577 3102 2771 3193 2545 2844 3650 3631 4101 4298 4440 4135 4697 4529 3816 3731 3679 2987 3657 4408 2995 2690 3128 4392 3921 4343 2952 2931 4047 2710 4353 4897 3230 2651 4094 2682 4694 3844 2545 4945 3721 4329 4525 4641 2912 4914 3670 4560 4340 4866 3833 3038 4864 4063 4036 2925 4476 2985 4857 4622 3797 4053 3948 3721 4817 3588 3095 3019 4325 3495 3580 4949 4262 15 26 21 20 22 23 14 27 9 36 6 13 34 24 18 32 6 10 10 9 25 26 38 29 12 36 25 13 24 18 30 14 25 26 26 39 3 32 23 9 3 22 14 0 21 28 11 20 34 17 6 20 13 32 17 32 5 28 13 29 12 35 22 1 23 18 2 30 23 15 24 22 13 28 28 17 26 22 12 6 12 13 10 13 16 4 7 20 9 1 14 20 11 18 14 32 27 14 7 17 18 6 4 6 13 4 19 24 2 4 6 36 6 30 36 10 32 22 31 35 14 35 2 8 35 10 13 5 28 31 37 30 19 14 3 12 34 23 13 1 6 23 20 10 9 9 39 12 8 23 20 31 30 8 35 14 32 34 22 28 35 7 33 25 10 8 30 11 10 32 21 19 3 34 6 31 3 23 31 21 21 20 21 5 27 5 28 14 14 1 17 32 23 18 21 8 16 11 3 7 31 28 34 35 38 3 23 20 24 26 2 22 8 39 17 26 5 32 33 10 31 23 27 17 3
2650 4465 2734 4547 3561 4600 3837 4599 3355 3666 3382 4242 4732 3615 3113 4993 4809 2948 4337 3592 3166 3586 2653 3105 2807 4892 4520 4034 4905 3038 2709 2545 3089 4711 3327 4105 3310 4542 3632 4150 2960 2741 2616 3507 3855 3303 4664 3081 4771 3531 4934 2596 4271 3642 3942 3749 3316 2594 2664 4391 2624 3356 3410 2794 2697 2720 2641 4617 4353 3472 3176 3272 4553 4150 2895 4568 4822 4416 4754 4975 4449 2602 3080 4711 3780 2690 4298 4616 3922 2712 3510 3980 4055 3613 3985 4014 3748 3668 4057 4242 3297 4521 3013 4831 4898 4025 4161 3151 3734 3643 3206 2770 3864 2846 4302 3184 4058 4664 4505 4033 2949 4682 3721 3015 2911 2994 2695 4933 2619 3817 4116 3956 4224 3991 3537 3700 3487 3918 4207 4301 3381 3858 3870 2854 4000 4183 3110 3392 3808 3389 3761 4500 2506 3803 4963 3902 3330 4911 4926 3538 2615 3002 4077 3623 3345 2670 2679 3905 4439 2812 2805 3877 4358 2674 4081 3486 3449 3880 2809 4130 3319 3106 3757 2649 3772 2893 2738 4427 4551 3426 4239 2901 3470 4116 3159 3949 3395 3643 4927 3526 3377 4133 3797 4122 3005 4740 3352 3820 4995 4072 2914 3100 2605 3133 3657 4729 3564 3926 2532 4889 7 2846 4925 2742 3460 11 33 39 31 31 2 38 28 39 12 22 36 6 8 21 19 31 38 35 1 9 37 33 35 30 11 11 10 3 4 27 14 1 5 29 20 10 22 33 3 30 5 8 23 0 14 10 26 2 39 19 35 10 12 27 20 31 1 23 14 30 12 29 6 15 8 15 26 9 27 31 2 26 1 7 8 27 13 32 17 2 35 35 4 21 5 10 21 19 11 36 31 18 27 31 17 10 30 26 23 11 30 8 24 28 1 35 37 18 36 35 28 37 23 7 11 14 14 37 25 31 13 11 21 21 31 6 13 20 24 27 6 13 21 31 10 30 22 31 9 10 33 10 19 37 37 11 34 25 32 25 8 29 34 10 27 12 5 15 27 18 12 32 16 35 23 10 8 19 38 26 29 8 32 27 11 9 36 37 8 4 25 6 12 3 26 21 33 9 23 31 39 24 31 31 5 14 18 7 12 12 3 3 32 39 1 12 7 34 7 38 32 3 3 21 23 5 29 23 24 3 17 2 29 29
3702 3927 4603 4124 4526 4752 3275 3683 2649 4125 3609 4053 3060 2501 3735 4329 4288 4694 3751 3719 4025 4247 4698 3911 3186 4979 4488 3741 4685 3021 3169 3841 4389 4511 4645 4160 2729 2855 4118 4321 4293 4448 2649 4167 3597 3101 4377 3906 4273 3748 3699 3527 2986 4897 3867 3912 3928 2868 4910 3352 4472 3794 3405 4187 3900 3678 4424 4668 4098 3373 4731 3692 4699 4449 4684 3897 3298 4101 3178 2561 3540 4678 2718 3457 4441 4367 3682 4015 3989 2952 2969 3762 4420 4637 3553 4197 4454 4196 3024 4524 3629 4802 4300 4027 4120 4823 4217 3545 4905 4267 3803 3496 3577 4300 3272 2589 3710 2905 4697 2515 3812 2943 3526 3914 3565 3215 3387 4298 3895 2755 4816 3791 3355 2993 4663 2731 3818 2838 4809 3855 4519 4942 4674 3334 4214 2816 4240 4575 4111 4272 4138 4649 2586 4402 4911 4946 4470 3798 4632 3880 2949 4621 3939 3106 4655 4272 4481 3881 4774 4400 3922 3249 2537 3260 4413 4757 3756 4707 2635 2937 4063 4318 2668 3448 4889 2805 4571 2722 4426 2941 3980 4057 2965 4367 4237 3536 4298 3169 3646 4480 3559 4047 4004 4126 3886 4515 3976 3463 4472 4288 3895 3541 3188 4274 2784 2829 2639 3776 4603 4008 2821 2568 4573 2901 3319 26 36 26 19 7 32 39 35 39 10 19 23 18 19 11 22 17 11 36 26 25 2 24 17 24 28 9 32 21 6 11 31 6 18 37 7 8 1 21 16 37 9 37 5 3 0 22 21 29 12 37 13 37 27 10 28 31 39 25 22 6 37 25 5 27 2 37 9 39 24 5 27 17 20 37 19 24 37 4 12 18 11 16 39 2 37 27 36 19 18 24 30 18 12 3 19 4 13 25 15 6 9 13 39 2 24 25 37 6 7 22 32 4 20 35 2 14 31 2 3 13 23 15 36 13 11 3 30 13 28 30 5 13 35 4 32 39 27 26 13 9 34 21 3 18 5 7 38 39 34 7 28 16 37 6 15 29 29 37 36 5 21 13 13 37 30 1 19 28 34 29 14 11 3 13 11 23 32 31 11 11 34 26 35 25 35 26 34 23 2 30 2 28 28 26 27 35 27 22 31 26 39 37 10 12 6 17 4 10 19 17 19 19 30 24 37 27 4 14 38 32 36 7 3 10
3566 3955 3857 4450 4585 3877 3290 4927 3166 3894 2541 3590 4268 2836 4863 4015 3032 3947 3253 4935 2691 3100 3816 4016 4433 2699 4427 3208 4150 2729 3488 2758 3374 4344 3560 4126 4635 3153 3570 4644 3804 4157 4858 4441 4510 4612 4165 4536 4565 3831 4344 2565 3663 4981 4130 4852 3699 4035 13 3153 3422 4549 3923 4915 3750 4549 4119 3575 3633 3003 4020 3581 3924 4225 2746 3611 4872 3365 3687 4929 4987 2854 2582 4234 3090 3378 4930 4990 2761 2886 3678 4956 3366 3890 2755 4191 4557 3820 3500 3147 3780 2627 4249 3947 4348 4338 3403 4767 4303 3131 4674 4253 3918 4603 4900 4137 2652 4881 3500 3107 3140 3700 4958 2543 3176 3194 4600 4055 4769 3222 3564 3062 3410 3212 2621 3743 2731 3322 4379 3222 3624 3740 4814 3132 3384 2971 2760 4917 3422 2683 2725 2986 4123 4300 2814 3696 3009 3209 4758 2546 3919 4569 3195 4480 4570 3506 2793 2660 3252 3128 4424 4083 2994 4095 4131 2602 2797 19 4520 3700 4381 3042 4230 4109 3675 4793 3794 2535 2863 2661 3336 3242 4520 3383 4958 3541 4702 3706 4041 4721 2732 2626 3578 2521 4779 4947 2845 3255 3864 4878 2506 4292 4082 3003 4533 3675 4049 4632 2646 4735 4960 4483 3892 4179 3459 6 38 24 32 21 3 22 33 35 1 31 34 17 39 25 29 4 30 39 36 9 32 22 11 16 2 2 33 31 6 33 36 26 28 30 38 1 2 2 7 17 21 21 15 38 2 0 29 18 34 19 11 39 22 11 4 1 12 3 12 21 1 12 7 29 21 3 6 5 24 20 24 7 5 11 28 11 21 7 5 34 34 2 33 3 39 4 17 35 11 15 38 25 4 36 24 6 26 13 1 21 9 12 37 6 19 19 34 21 31 17 32 4 28 30 26 2 14 36 11 19 25 3 37 27 6 31 13 31 17 38 1 6 29 16 35 36 21 25 4 19 20 4 1 16 13 25 34 28 19 20 3 20 35 13 9 6 4 18 11 28 5 33 8 39 38 27 18 24 39 31 38 7 26 19 28 25 16 4 7 20 20 38 22 4 32 20 27 25 27 21 13 33 29 31 26 12 20 21 25 13 8 3 2 2 25 9 2 3 30 15 32 1 36 19 17 13 2 12 14 22 10 29 12 18
2737 2983 4650 4139 3062 3269 3602 4378 4025 4613 4091 3693 3433 3300 4024 4763 2745 4015 2530 4048 4460 3881 3044 4580 3761 3552 3979 3734 4997 3055 3537 4529 4936 2897 4026 4253 4734 2708 4878 2659 3875 4304 3877 3985 4349 2704 3192 2894 2787 3019 4736 3049 2741 4299 3093 4855 4804 4929 3369 3424 4806 3554 4399 2927 4847 4290 2854 3301 4596 4874 3348 3638 3419 2621 4814 4593 4617 3150 3227 3052 4555 4753 4648 3512 2636 3183 4141 3608 2623 3347 2942 3660 2950 3135 2739 4958 4502 2608 4005 3932 4430 3003 4375 3947 3285 2846 2816 4691 4233 3234 3999 3855 4234 3359 4770 3389 3966 3026 4305 3284 3810 4423 2608 3047 3974 4804 3267 3532 3442 3545 3892 3491 3552 3335 3656 3549 4115 3241 4298 4277 3457 4127 2556 4725 4713 2857 3173 3094 3588 3634 3789 3036 4791 4919 2836 4915 3380 4142 2600 4616 4369 3265 3144 3823 4769 4562 3684 3406 3901 4104 3492 3193 2617 3193 19 2896 2782 3863 4094 4441 4417 2673 4552 3015 3115 2713 4362 3325 4820 3236 4853 3072 4752 2891 4017 3412 3035 4182 3242 4112 2661 2509 4881 3895 2632 4933 2718 3542 3931 4253 3327 6 3007 4603 2667 3607 4262 4951 4674 3058 2834 3634 4524 2689 3780 32 17 6 38 31 8 32 38 8 17 38 33 36 16 17 8 32 18 17 12 31 35 26 10 34 5 3 24 17 26 29 28 14 21 1 12 29 26 3 5 15 22 18 24 20 25 9 0 15 32 37 25 28 3 18 27 28 29 5 29 15 17 13 28 1 25 14 1 25 26 32 3 20 9 22 30 14 22 34 8 10 36 27 20 12 7 14 23 16 39 24 1 34 13 27 31 35 27 20 10 32 37 3 13 8 26 24 18 17 17 17 13 12 10 39 26 26 29 21 7 18 35 32 32 9 15 16 35 19 8 24 4 11 24 36 35 12 9 1 18 32 14 4 2 30 4 28 33 2 33 13 35 39 26 30 15 30 39 27 36 11 15 37 31 18 32 7 26 15 4 39 14 39 3 33 34 21 35 20 3 23 36 38 29 30 6 3 33 12 11 27 24 9 30 33 39 24 30 1 21 28 26 26 12 7 34 20 38 33 1 21 31 8 39 10 38 22 4 11 34 38 3 35 17 35
3791 4734 3151 3794 4326 3601 4019 3334 3203 4642 4182 4437 3649 2543 2848 3198 4190 3798 3331 3771 4726 3265 3580 2886 3077 4717 2650 2863 4594 2575 2501 2806 3706 4542 4876 3752 4815 4063 4959 3161 4265 4662 2908 3471 4173 3030 4964 4524 4103 3250 3452 3778 2781 4161 2926 4819 4732 3783 4966 3009 3725 3558 4214 4132 4660 4711 4715 3047 4420 4252 4172 3650 4388 3976 3265 4196 17 2852 3894 4199 3269 4603 4669 3737 4155 4237 4185 3363 4549 4351 4637 3788 3856 3068 3305 4694 3410 3259 2736 2910 2915 4844 4892 3436 4942 3417 4202 3460 3473 4720 2689 3984 3623 4616 2735 4709 4850 2598 4927 3556 3211 3220 2910 4900 3139 4938 4660 3165 3067 3796 3517 2845 2985 2604 4892 3049 4733 2980 3736 4592 4013 2886 3776 3620 10 19 3375 3380 4129 3347 3524 4542 3960 2889 2895 3560 4001 3532 3951 2668 2734 4086 3626 4588 4547 3366 4801 2563 3333 4782 2710 3687 4553 4314 4847 2583 4530 3538 2736 3790 3738 3361 2732 3539 3681 3890 4384 4162 4178 4124 4782 4313 4309 4721 3196 4897 3199 4150 4497 3389 3699 3476 3578 4824 3027 2972 4195 3345 3386 3750 4443 3253 4008 2923 2787 2671 4847 3604 2625 3533 3363 4279 3543 4902 3721 4 11 8 27 33 1 39 32 14 9 6 12 1 28 13 8 22 12 21 29 32 3 12 10 27 39 28 28 18 1 36 33 25 7 39 4 13 24 3 28 24 38 39 18 26 30 7 38 0 37 37 26 20 1 38 30 33 14 10 20 22 31 9 27 21 27 7 27 7 31 16 26 16 12 29 14 5 30 5 17 25 9 14 12 28 37 32 25 22 7 9 8 34 10 24 26 18 20 21 34 10 19 37 29 27 24 35 19 23 14 17 19 9 32 22 12 38 23 26 25 30 31 36 32 22 18 26 11 29 2 8 11 36 26 2 5 25 32 11 23 13 4 34 32 38 25 4 23 14 24 29 9 3 27 8 17 22 23 10 1 14 1 11 19 10 31 14 34 36 1 18 30 18 17 4 7 25 26 25 5 19 21 29 34 25 36 39 7 15 16 37 33 11 15 20 15 3 21 15 31 1 18 25 27 11 4 13 20 36 26 37 23 35 28 1 29 33 5 1 18 36 13 39 17 24
4916 2945 4028 3842 4940 4884 4707 3650 2698 3092 4470 4280 3827 4369 3759 3086 3056 3897 3839 3485 3406 4390 4395 2633 6 2684 4015 4126 4026 3896 3156 3535 4661 3234 4909 4577 3886 4733 2548 4293 3627 4875 4621 4748 3828 3885 4818 4856 3229 4325 4709 4144 3624 2745 3763 3482 2955 13 3871 2911 4792 2613 4597 4039 3980 4040 2589 4137 2946 3673 4604 3394 3959 4526 3353 4106 3673 3969 4846 3625 2760 4219 4835 4869 4515 4770 4119 2701 4897 2671 4724 3883 3787 3686 3715 3547 4591 3137 3948 4845 4995 4298 4581 3782 4970 4994 3500 4250 4799 4558 4401 3600 3127 3817 4780 2801 3632 3611 3155 3936 3679 3887 3163 3565 2745 3561 3579 4589 4467 4573 2669 3310 2563 2707 4179 4527 2809 3185 4831 3867 3068 3058 4360 4492 4632 2630 2605 3481 2911 2993 3764 3466 3294 2835 3140 3935 4535 3961 2980 3573 4084 2522 4190 4178 4189 4285 2994 4433 2805 3210 3140 2613 4685 2704 3045 2882 3597 4512 3341 4133 2919 3320 3132 2781 3566 4820 3538 3770 4426 2762 3587 2936 2787 3909 3802 3049 4796 4223 4218 3955 4346 3134 3475 3873 2578 4741 4268 3225 3982 2534 4393 3001 4326 2834 3914 4323 4043 2810 3455 3262 4512 2729 3203 3319 4359 15 36 23 14 18 9 10 27 15 24 39 18 5 13 15 21 7 36 20 5 31 24 25 37 5 17 38 24 39 15 26 24 29 34 16 20 14 32 13 4 37 11 39 19 35 5 29 22 21 0 27 22 6 20 37 39 30 38 32 27 32 27 36 28 6 15 22 37 2 4 13 1 3 35 31 38 31 38 25 1 34 18 32 20 1 16 2 32 31 25 27 9 32 6 2 5 15 20 31 26 34 29 2 31 1 33 11 30 10 28 17 23 18 10 27 26 1 23 35 4 23 38 17 23 28 24 16 27 36 18 15 24 6 8 25 35 7 39 18 19 39 1 22 37 37 39 38 22 10 38 11 28 4 12 38 16 18 33 9 27 33 14 22 10 26 29 6 12 37 16 14 33 27 21 20 16 36 15 35 9 20 24 27 9 38 9 20 12 22 4 3 10 39 8 8 26 8 22 35 6 35 37 38 22 2 29 20 16 9 9 22 27 26 38 14 2 29 15 20 35 8 16 22 2 11
4883 2508 3517 3308 3789 4573 3166 4761 3896 3984 3081 3595 3266 3613 4450 2559 4736 4303 3514 2506 4686 2903 4562 4519 4933 4067 4950 4922 4601 2766 4040 4004 4601 4748 4908 2827 4138 4257 4697 3790 3478 3901 4542 3437 4176 4262 4157 2548 2575 2667 4188 2926 4573 3576 3024 4178 4169 2603 3443 2868 3809 2945 4260 4495 2831 4433 4681 4571 4302 4356 2972 2996 4928 3966 4258 3065 4191 4824 3808 3752 3215 3084 3268 2501 4333 4820 4735 3714 3301 3901 3703 2868 3264 3856 3349 2627 4646 4615 4217 4579 2771 4121 3041 3971 4168 3547 3958 3183 2655 3287 3159 3240 3690 3854 4375 4160 4080 4906 2682 4574 4497 2677 2650 2927 3135 4333 2559 2562 2591 3470 4348 3095 2751 4298 4629 4997 2712 4410 2745 4947 4843 2971 4614 3563 4676 4668 2694 4056 4080 3604 3554 4184 3856 3417 3537 3845 3551 3896 2742 4147 3702 2676 3825 3602 4242 3072 3405 2541 2534 4024 3293 2702 4461 4421 3542 2933 4597 3266 2948 3840 2836 3805 4035 4539 2976 4688 3604 3812 3657 4354 4607 2914 4737 4867 4112 7 3160 3930 4766 4273 3192 3738 4058 2882 3823 4529 3058 4280 3898 4880 4250 4743 3831 4525 4253 3263 3376 3330 6 3681 3499 2709 2821 6 2846 27 13 26 28 32 35 18 10 13 12 38 13 4 32 20 17 5 21 19 26 15 21 18 9 18 9 20 26 30 19 15 14 16 10 11 11 2 21 14 28 35 13 8 12 3 1 11 30 27 36 0 34 6 39 29 7 31 3 32 10 39 26 25 35 34 6 14 32 30 31 19 22 23 32 35 11 5 1 22 13 23 33 24 26 7 20 6 12 6 6 35 23 32 16 24 13 19 17 9 38 8 35 22 5 37 20 18 16 26 37 19 25 9 38 6 27 1 29 15 35 22 1 17 14 14 26 23 38 24 18 3 17 4 32 1 23 3 9 34 34 11 21 35 18 30 19 19 18 2 34 6 23 38 21 31 27 21 27 21 10 3 35 17 21 6 9 17 23 12 21 27 32 20 31 2 37 16 35 6 31 30 7 23 24 13 30 2 11 24 32 34 31 25 25 35 5 5 17 39 15 25 37 11 15 26 38 6 7 35 32 34 10 21 10 20 7 19 35 23 32 15 12 13 20 21
3534 4891 3487 4102 2528 4659 3715 3846 2686 3095 4602 3163 4363 3368 4703 2856 3178 2732 3268 2706 3413 2738 3239 3844 4291 4847 4058 4632 2531 4556 2619 3324 3613 2969 4059 4596 2686 4993 4151 4853 4510 3535 4240 3770 4194 2892 3216 4078 4052 4908 2838 4383 4755 2927 3661 4709 3057 4009 3751 3580 2976 4047 2989 3274 3254 2654 4871 2558 3440 3951 4946 4312 2909 3675 3323 3783 3976 2792 4330 3743 4201 4913 3821 3090 2776 2773 3408 2751 2554 3502 4206 4511 4368 4014 4369 2556 4874 2895 2691 3270 3260 4990 4140 4876 4584 3145 2624 3429 4373 3533 4041 4557 4746 4840 3902 4982 4350 2827 4237 4307 3968 2746 4883 3454 3184 3165 4110 4054 3334 4018 2583 3068 4601 3375 2974 3816 3443 4357 3249 4655 3323 3475 3239 3229 4371 4309 4761 3444 3095 4172 4504 3483 2623 2777 4485 3684 2989 4490 4847 2906 3998 4201 4851 4302 2538 3703 4426 3901 2962 3100 4623 3881 2609 4453 4889 3909 3141 4329 3936 4232 3509 4845 3054 3060 3556 4615 3852 4632 4420 4139 4121 4919 3620 4527 2811 4246 2569 3052 3198 3060 3977 4827 4284 4558 3923 3184 3541 4378 4654 3152 4789 4757 3800 3197 3335 4211 4524 3603 4579 3660 2882 3533 2855 4193 4522 8 12 14 26 6 38 22 34 26 10 23 39 23 15 18 11 20 9 10 26 31 21 10 19 25 36 1 3 6 37 17 28 27 4 10 6 4 35 20 2 20 22 37 12 10 18 19 9 28 13 37 0 24 22 24 28 34 33 14 21 24 28 19 11 24 11 12 9 35 4 4 1 24 21 1 21 33 4 27 39 13 22 3 1 28 34 13 34 9 17 19 26 35 13 21 33 33 19 28 23 8 6 6 13 30 38 6 15 6 34 32 35 19 37 30 3 1 18 25 11 1 18 2 34 30 7 19 28 13 39 37 26 36 34 21 32 17 3 11 6 15 35 15 35 31 28 27 28 6 17 38 17 5 20 24 22 32 29 14 35 13 16 9 26 26 28 24 2 32 32 7 33 38 9 11 4 11 16 18 39 14 38 33 15 24 34 30 13 7 31 5 5 23 39 33 38 5 9 37 10 30 12 21 1 15 33 15 39 32 32 4 34 25 25 37 38 34 36 32 39 2 23 28 20 23
4365 2689 2868 2970 4076 3041 2739 4731 4636 3891 4172 3849 2524 3343 4152 4114 4736 4436 3989 3287 4180 2852 3777 4222 4266 3557 4274 3058 3606 3618 4400 3129 4094 3716 4422 4302 4361 2524 4946 2725 3912 2543 3184 4071 4294 3020 4849 4973 2552 2556 4884 4345 4218 3366 3218 4553 4884 3613 2706 4345 4587 4706 4910 3807 4884 3930 2622 4423 3793 4320 3116 4414 4088 3043 3883 2776 4960 2557 3515 2759 3473 4720 4787 2932 4027 3881 3080 3704 3706 4488 2912 4769 4540 3001 4816 3946 3892 3735 4731 3119 4918 3554 4710 3549 4731 18 3310 4172 2535 3062 4887 3515 4120 2708 3907 3898 3698 3162 4904 4654 2786 4274 3598 4987 2848 4891 4075 3428 3343 3875 3404 2872 3174 3242 3632 4114 4817 3226 2731 3725 3631 4126 3158 4055 4648 3742 4421 3210 3526 4039 3249 2641 3781 2765 4612 2581 3219 3113 3244 3236 4913 3829 2836 2803 4537 4242 4084 3351 3415 3129 3716 2527 4729 4144 2670 2718 4131 4627 4540 3121 4702 3422 3020 4907 4014 3377 3877 3585 4290 4427 3103 2900 4337 4756 4418 2515 4292 2620 2873 3565 3204 4867 4049 3418 4468 3316 4340 4430 3403 3043 2832 2703 3709 3988 4577 2567 3126 3651 4122 3106 3047 4070 4340 2536 4774 7 32 37 24 9 18 10 3 33 15 30 29 24 32 23 21 27 32 39 32 8 14 33 20 10 12 28 8 2 27 13 8 2 36 27 5 2 17 30 36 16 26 33 22 28 22 13 17 27 18 32 19 0 27 26 14 16 38 14 22 21 37 26 13 19 25 27 12 28 19 22 38 19 11 36 15 36 5 28 39 5 16 39 14 38 9 6 36 28 17 18 2 26 22 9 28 10 6 1 27 7 20 32 28 7 5 15 15 28 37 13 22 2 28 7 12 13 34 3 9 23 39 5 22 1 27 23 38 24 7 32 39 24 6 16 26 17 39 29 25 28 22 5 21 4 13 7 2 39 24 2 15 36 16 17 38 31 39 18 36 34 28 39 14 23 13 39 6 35 8 11 28 23 2 24 9 17 17 30 28 39 35 13 16 4 26 24 19 3 17 16 38 5 14 27 4 27 31 14 19 19 13 30 5 18 29 36 29 12 34 17 12 7 8 8 1 18 7 32 7 2 8 31 6 37
3978 3849 3032 3281 3435 4219 4006 4930 3790 3562 3895 3101 3180 3372 2572 2526 3327 3669 3671 3344 3979 3905 3440 2684 3898 4677 4046 4649 3897 4867 3093 4777 3427 3522 3808 4425 4151 4066 3024 2612 4174 2775 4940 4474 4709 2789 4265 3003 4740 3196 3528 3553 4444 3420 3713 4095 3686 2566 4577 3308 2705 3923 2769 4073 3226 4830 3897 3586 4282 3905 3225 4099 4157 2594 3283 4283 4180 4111 4442 2789 3243 3540 4320 3875 2711 4062 3111 2995 4449 3030 4758 2741 4186 2601 3255 4004 2584 4946 3661 4813 4620 2596 3111 14 4926 3201 2761 2519 3369 3945 2774 2590 3090 4048 3686 4714 3414 4809 2644 4707 3416 4677 3239 3473 3099 4568 4100 2644 4940 3843 3793 3877 3848 4267 2539 4270 3503 4617 4032 3406 3872 3972 4519 3494 3613 4112 3310 2722 3554 4848 3596 3910 3982 4590 3161 4072 4210 4749 4609 2745 2796 4354 2690 3782 3067 2894 4039 4807 3861 3467 4690 3014 2879 4883 2561 2948 4424 3374 3066 4997 4897 2858 4489 3077 4424 2737 3187 3817 3057 3063 4229 3365 2759 4365 2540 4564 3941 3955 3332 4950 4734 3692 3420 3909 4232 3642 17 2627 4789 4590 4792 3325 3903 3728 3476 4081 4941 4849 3694 3746 2616 3757 4563 3371 2615 36 7 15 12 21 23 13 28 34 28 17 2 15 5 34 4 25 35 35 22 13 18 32 8 6 19 26 8 3 30 10 13 14 30 36 13 10 8 19 26 9 1 35 12 33 6 22 13 12 32 11 38 4 0 7 10 28 5 30 38 25 6 13 17 32 32 5 9 11 15 39 19 17 27 27 16 18 7 16 10 11 7 25 25 11 13 22 14 14 16 7 23 22 12 32 16 22 16 33 5 26 4 19 31 2 8 17 2 33 6 10 32 33 7 7 35 17 11 14 4 20 23 27 38 31 28 2 32 28 6 33 2 28 5 19 23 26 23 33 14 32 1 36 31 1 2 31 23 13 4 18 31 12 7 6 7 3 11 38 26 34 25 33 20 27 38 31 17 13 30 21 23 38 31 23 39 17 24 23 6 38 20 9 24 18 9 14 26 13 14 34 16 2 16 31 37 22 22 35 35 29 4 11 7 9 4 31 37 13 22 11 3 4 8 15 25 4 19 19 18 17 21 4 1 16
2766 3484 4513 4186 2972 3293 2691 2808 3785 3771 4535 4149 3460 3076 19 3739 3797 3350 4866 2684 4779 4262 4257 3168 4065 3737 2763 4841 4699 4152 4877 4382 4965 3360 2653 4290 3531 3127 3132 4934 4246 2569 3137 3485 2508 3705 4488 3372 4835 4965 3022 2923 4986 3769 3137 4935 4210 3695 3744 3910 4490 3963 4189 3115 3875 3926 2940 3023 3445 2837 4036 3177 3229 2851 2894 4498 4891 2586 4390 2643 2544 4493 3759 4328 18 2544 3984 4770 3033 3015 3275 3743 4340 4729 3795 3780 3826 4360 2590 3063 2948 4835 3935 3384 2978 4526 3484 2726 2858 3850 4089 4822 3170 4134 4463 3317 4175 4234 2783 3293 3923 3331 2836 3864 4874 4227 2836 4907 3435 4366 4077 2996 4794 4131 3490 4149 2961 4204 4885 3882 4805 3919 4540 4822 4222 4210 2655 4739 4210 3791 4253 4996 2652 3112 3136 4744 2889 4262 3688 3267 3688 4162 2685 4605 3667 3215 4703 4733 4508 4027 3060 3198 4387 4624 4231 2512 4089 3563 3463 4864 3370 4159 3906 3657 2977 3029 3516 2876 3524 4036 4188 2741 4858 4195 3250 3017 4543 3858 4427 2939 4708 2626 3686 3403 4111 3708 3516 4653 3628 2959 4817 2788 3083 2833 2548 3826 3041 4945 2663 4110 4083 17 3688 4871 2592 6 27 16 3 6 24 39 36 2 23 32 6 22 32 31 28 7 37 16 26 30 28 6 31 23 26 27 34 24 34 34 2 33 16 15 5 14 25 38 10 32 9 3 9 8 4 20 27 5 38 33 13 36 3 0 12 8 33 25 23 3 20 19 21 39 20 32 11 15 12 19 14 26 9 32 36 24 11 3 5 19 5 9 36 21 33 36 13 33 8 26 10 16 23 26 6 22 38 28 20 28 20 5 6 32 9 28 4 33 26 15 39 8 14 9 17 31 9 17 29 29 21 38 17 28 25 19 8 9 16 4 21 4 39 7 19 35 11 29 15 2 28 4 32 14 4 15 16 29 4 18 15 37 25 39 33 25 35 5 18 8 30 36 29 35 4 6 22 15 15 30 4 2 14 18 37 10 34 12 17 18 26 19 39 34 18 31 8 13 30 7 2 39 19 28 33 31 37 18 13 31 32 35 2 27 24 1 22 28 19 32 11 5 33 3 17 13 13 36 4 39 15 36 29 5
3008 4832 4616 4816 4493 3820 3821 3865 3399 4963 4857 4351 4659 3277 3258 3765 3867 4753 3304 2817 3682 3202 3188 3205 4704 4072 4954 3974 3612 4032 2569 4788 4783 2712 4320 3228 2523 2524 4330 3585 4061 3297 3357 4730 4828 4506 4312 3021 3204 2998 4156 2848 2889 4931 2884 4090 3981 3325 4625 3020 4309 3557 3825 3029 4034 4820 2987 2779 4159 3329 3951 4804 4488 3288 3947 4199 3725 3609 4268 4679 3381 3537 3682 4838 2586 4784 3760 4880 2520 3170 3767 4480 3566 4659 4857 2703 3503 3554 2760 3407 4892 3455 3594 3707 4813 3164 2524 4135 2912 3672 2826 2557 2707 3893 3497 4764 2565 2581 4366 4934 3458 2953 4768 3068 2984 3259 4991 4178 4822 3650 3827 2686 2617 3484 4535 4864 3645 4042 3647 2901 2949 3829 4528 4495 4250 3501 2890 3138 4990 3979 4501 4878 3879 4486 4175 3917 3193 4290 3532 4626 4411 3941 4060 4605 3500 3296 2818 2527 3552 3632 2584 4981 2792 4468 4174 4315 3897 3158 4963 4102 4163 2868 4497 3513 4039 4218 4545 4745 3243 4675 3308 3455 3363 3957 2793 3140 4105 3691 4661 2928 3840 3554 4788 2911 2541 3479 3612 4484 3248 3510 4617 2752 3762 2934 2521 3665 4859 4987 3769 4327 3046 3248 2638 3673 3822 28 34 18 5 20 34 16 22 5 10 8 9 18 5 1 7 3 12 28 2 6 19 4 9 12 12 27 15 31 14 10 26 1 8 29 8 26 27 38 10 12 33 5 3 3 15 34 29 4 30 14 13 32 27 30 0 18 17 1 15 32 25 7 13 20 13 17 34 18 35 21 22 9 26 27 31 8 38 27 24 36 17 22 24 25 37 7 3 22 38 25 8 22 17 2 5 31 1 6 13 5 14 35 25 8 13 29 18 12 29 2 1 3 23 7 31 22 4 38 17 15 29 12 23 13 39 16 9 33 3 36 37 16 15 17 25 32 12 32 19 28 14 22 4 38 21 26 18 9 20 13 30 21 20 37 8 18 34 18 34 30 29 31 4 35 15 25 29 21 39 36 23 28 11 4 23 10 31 31 22 24 18 28 24 26 25 30 13 23 31 16 23 38 38 15 8 28 15 25 8 13 5 30 4 16 1 23 4 14 36 20 3 16 28 31 21 27 38 16 20 15 18 26 36 27
4888 2762 4157 4743 2843 3042 2884 2650 3810 4337 4930 3088 3510 3945 3292 3820 4688 3289 4153 2950 2673 3292 3371 3682 2750 4622 4618 4807 2979 2526 4428 3190 4731 3904 3798 2518 3062 3612 4974 4037 4321 4558 3802 3930 4397 4844 3969 4922 4505 4500 3885 3988 3740 4239 2969 4618 3793 2882 2677 3824 4030 4156 4628 2626 4673 3725 3900 2585 3726 4650 2919 3524 3078 4497 2720 3134 2611 4438 3709 2542 4160 3287 2851 3870 2684 3897 3260 4669 3660 4657 4488 4809 3248 3783 4552 4516 3054 2588 3716 2850 4884 4797 3123 3710 4121 3292 4766 3990 4391 4517 3405 3206 4853 3928 3941 3058 2800 4070 3598 3122 4277 4286 3882 3345 4779 4903 2604 4787 2581 3250 3966 2606 3891 4478 2810 2594 2592 4902 3611 3168 4960 4236 3564 3212 4534 3383 2700 4932 3417 3562 4620 2748 2629 4777 4280 4670 4301 3791 3178 3521 2882 3927 2753 3377 3642 2515 3309 3656 3117 4389 4314 3921 3220 3570 3866 4459 3289 4999 2605 3799 4555 4648 2706 3146 3034 4729 4633 3840 4347 3209 3198 3521 2711 4567 3043 4148 4098 2718 4932 3932 2840 3423 4028 4246 4703 4745 4267 4882 3871 2566 4290 4529 3582 4448 3262 2514 4519 3980 3487 3927 9 3692 4718 3396 3175 3 32 13 14 15 14 24 32 33 25 36 26 16 37 29 5 33 5 29 8 23 11 32 35 35 22 2 3 28 10 7 38 33 8 27 14 22 21 8 37 1 22 37 29 15 26 13 24 7 38 16 23 21 30 19 14 0 27 4 26 19 10 38 39 26 27 12 34 22 12 22 5 39 2 32 6 15 18 23 20 8 39 20 6 12 15 1 17 24 29 22 14 11 11 11 1 4 38 19 9 9 4 11 3 15 7 19 20 12 35 38 30 21 30 17 5 9 22 18 17 23 25 7 24 17 11 31 8 29 17 18 7 17 8 38 1 25 21 3 7 30 17 39 19 33 18 9 15 7 22 17 34 25 7 38 38 30 4 15 5 31 4 29 31 8 2 39 13 5 23 25 25 27 28 37 18 13 25 15 8 28 26 37 14 26 26 16 35 29 34 5 4 35 24 6 4 30 28 1 11 16 1 34 10 1 33 32 33 15 39 22 27 37 24 4 25 16 31 6 38 23 8 38 26 10
2986 3038 3735 2544 4290 3916 3457 4764 3751 3010 4755 3389 3911 2611 4062 4028 3119 4291 3259 3597 3511 4346 3483 3207 4134 4321 3253 3530 3201 4062 3105 4842 4126 4235 4288 4402 2981 2763 3576 4009 3423 2735 2895 2711 4069 4482 3180 2668 4087 2999 2643 4002 3348 2686 4185 4579 4071 3956 2748 3730 3942 4282 2652 4043 3948 4145 4917 2678 4564 3357 3683 2565 2951 4388 3357 3141 2629 4535 3622 4832 3306 4573 4807 4321 3372 3895 3403 4863 3888 4674 3517 2788 3258 3983 3007 4072 2851 3257 2668 4925 4045 4917 2792 3474 3326 2962 2616 3648 2506 4327 4233 3016 4715 4047 3949 3413 2549 3510 3894 4550 4969 4717 4378 3137 4817 3358 3730 4828 3133 4866 3490 3495 4047 4171 3047 4772 4185 4789 4607 3866 3346 4858 3926 4056 3576 2946 4847 3904 3436 2851 4852 4128 4928 3975 4404 3496 4885 3613 2813 4046 3418 3493 2921 4805 4535 4612 3224 2657 4321 3118 4012 3869 3837 4273 4788 2818 3216 2704 2703 3430 2696 3193 3778 2816 3359 3243 3374 4277 4583 2739 3283 2644 4591 4350 2510 4806 4923 2780 2543 4970 3451 2820 3097 2694 4450 3454 4905 4337 12 4471 4742 2810 2927 4104 3372 4925 2865 4600 2754 2846 2703 3371 4644 4851 2660 8 26 34 11 34 18 29 31 12 4 31 25 4 16 5 26 13 10 6 34 2 30 39 24 33 39 37 32 26 25 39 15 29 20 18 26 36 28 28 39 25 15 16 22 6 21 22 8 17 26 29 11 18 6 5 28 7 0 13 9 34 11 23 15 26 39 15 27 30 4 22 38 3 15 29 6 11 31 12 22 19 6 9 25 29 7 24 26 33 22 25 21 22 39 26 36 17 23 26 11 7 21 38 8 30 7 8 10 33 33 8 19 33 6 25 5 1 17 25 15 11 15 26 15 26 1 25 6 4 11 36 23 26 25 28 1 34 24 10 20 13 31 15 21 4 26 27 5 21 21 21 22 9 2 35 12 12 7 14 12 9 8 34 30 16 8 17 29 1 8 4 17 19 6 28 12 34 35 4 15 37 31 34 8 1 27 33 38 34 33 14 21 8 26 22 5 36 24 12 16 25 20 33 12 2 26 8 27 13 8 16 6 36 23 24 17 38 7 35 34 7 2 22 17 21
3470 4570 4760 3457 4631 3768 2905 3771 4149 2632 3386 4546 3787 4368 3638 3652 4797 4223 3570 3568 3980 4097 3358 2724 4901 4118 3729 4728 4202 4257 2847 2613 4659 4118 2851 4770 4162 4056 3212 2919 4846 3941 3286 3547 3899 4550 3647 3796 4659 3325 3105 3141 4505 2786 3295 2874 3108 4540 3588 4326 4060 4356 3216 4224 2779 3262 3036 4140 3499 3378 4677 2910 2878 3188 4412 2689 3880 3917 4051 2967 2944 2638 3966 3259 4017 3114 3134 3983 4167 2652 4813 2946 3418 3344 4324 4358 2783 3993 3254 4247 3441 3729 4594 3770 4557 3235 4793 4650 4740 3963 4339 3185 2644 3429 2536 3941 3391 3716 4247 3470 4836 2940 3745 4556 2993 2880 4611 3350 3534 3510 2752 4075 2728 3758 3868 3660 2858 4051 3080 3894 3200 3636 4304 3764 2734 3284 3771 4718 3513 3077 2533 2951 3355 2506 4247 4896 4124 2679 3363 3391 3751 4234 3165 4056 2721 4473 3670 2809 3306 2927 3298 4395 4048 3576 3606 3934 4431 3911 3500 4341 3944 4766 3415 4038 3356 2657 4500 4340 2605 3755 4598 3708 4210 3497 4417 2724 3232 2771 4917 3442 4033 4494 3466 2602 3625 4255 4943 3154 3040 2626 3147 4738 4995 3306 3299 4868 3210 4133 4374 3581 2733 3858 4576 3470 3322 4 14 1 37 3 31 3 30 14 15 17 29 39 10 29 4 19 1 36 30 34 12 22 9 5 11 6 36 8 33 1 12 6 32 10 34 24 12 19 30 31 29 37 5 19 2 7 35 35 23 31 26 32 14 10 17 2 13 0 39 23 21 12 5 21 23 15 22 9 36 23 28 19 23 39 2 30 23 6 4 29 6 23 28 2 7 12 25 21 28 36 10 22 3 22 22 13 28 24 1 24 23 7 8 24 12 21 6 15 24 35 17 33 39 18 30 8 1 18 29 31 16 12 28 32 13 33 37 25 6 22 23 5 7 35 1 13 7 31 33 30 18 33 23 28 33 24 4 38 29 3 10 30 34 22 4 18 27 33 4 10 6 29 27 34 4 5 27 17 34 12 25 5 2 17 20 38 37 18 10 15 35 19 9 34 31 33 22 37 15 38 29 24 22 27 25 17 10 24 16 22 30 27 11 4 31 4 27 13 27 12 15 25 14 31 10 11 11 27 12 8 35 8 15 15
3041 3241 3655 3854 3423 3528 4475 4257 3373 4150 3237 4768 3929 3237 2932 2709 3508 4110 3459 3771 2955 4104 3660 4789 2711 2760 4100 2776 3691 4438 3453 4258 3106 3617 2686 3852 3565 2737 10 4545 4404 3313 3103 4622 3999 2605 4492 4770 4119 3677 2671 3085 3195 3120 4911 4544 3104 4190 3845 2991 3615 4635 2930 4794 2839 3251 3038 2679 4645 3929 3662 3453 4226 4033 3113 3168 4231 4906 4589 4596 4239 2775 2598 2795 4279 3070 3536 3712 4846 4531 4366 3203 4916 3562 2618 3263 4949 3912 4372 3292 3918 3081 2791 4197 3749 3015 4602 3809 4311 2796 3329 4951 4846 3279 4587 4949 4072 3124 4016 3126 4428 3519 3983 4239 3136 3670 3797 3761 3747 3902 4533 4594 4776 4262 3273 3863 4181 4939 3514 3801 2761 3922 4351 2677 2817 4649 4119 2625 3390 4898 3381 3033 4781 4103 3714 3318 4550 3476 4411 4041 3786 2762 4876 4843 3198 3815 2726 3196 4662 3287 2580 3144 3020 4808 3020 2952 2541 4728 2917 3750 2712 2968 4563 3869 3422 4169 4855 3447 4799 3430 2883 3878 3370 4935 3451 4314 2562 2986 3814 2727 4519 2595 3198 3708 3156 2791 2653 3769 4215 3977 3691 3114 2806 3401 3322 2960 3085 4868 3751 4662 3675 4485 4040 3346 3969 33 36 5 36 2 29 4 20 4 23 22 26 9 5 36 1 11 29 34 22 28 19 29 36 25 24 30 14 1 32 16 27 32 30 11 39 2 17 2 30 19 9 9 12 11 35 14 6 11 12 11 21 37 26 13 25 6 24 12 0 5 9 2 23 6 5 6 17 33 5 18 2 28 18 17 13 27 32 10 36 20 30 20 26 20 23 4 18 25 20 28 23 39 5 18 24 18 39 10 38 6 24 17 39 36 17 19 19 3 11 33 16 26 15 14 17 7 37 36 8 6 30 10 10 14 34 29 15 33 36 20 6 21 36 22 9 35 9 7 30 18 23 33 10 26 31 22 30 16 14 3 31 33 11 19 1 19 10 17 28 4 5 23 22 30 6 22 27 17 24 10 31 32 31 35 24 30 12 29 27 12 24 36 15 7 37 9 39 18 18 14 37 8 30 32 6 33 21 23 12 39 27 3 14 38 20 27 8 1 35 10 26 15 11 30 15 21 25 24 39 35 6 23 36 14
2682 2609 3088 4845 2695 2642 3890 4609 2611 4198 3341 2862 4380 3842 3291 3866 4279 4366 4896 3659 4651 4574 3372 4735 3785 2877 4913 4940 4553 3919 4676 4698 3679 3737 3228 4519 4861 2537 2537 4130 3122 2833 4962 2918 2761 3191 2748 3277 3559 4255 3314 2535 3128 4521 4233 3518 3699 2754 2737 4720 3111 2501 4082 4388 4306 2910 3156 3477 3761 4605 4332 3337 4768 4798 3268 3167 4967 4927 4008 3688 4245 2571 3689 4336 2568 2870 2689 4709 4293 4230 2503 4011 4302 3190 2912 2559 3924 4490 4878 4115 4142 3903 2694 4289 4419 3819 3081 3193 3555 4879 4643 3516 4636 4234 3917 2866 3432 3813 4278 2743 4277 3397 4246 3747 4640 3927 3812 4657 4671 3623 4880 4548 2514 3649 2800 4528 3954 4251 4566 3122 3712 3682 4177 3427 2724 4333 4261 3861 2785 4975 2600 4133 2776 4820 2639 4713 3780 3117 4014 4618 2558 3767 2506 3275 4425 3756 2987 3624 3453 4671 2633 3305 3715 4413 4423 3589 2668 4871 3021 3278 4875 2997 2940 4369 2877 3480 2683 4629 3762 4309 4687 4928 4825 3831 4614 4458 3683 4205 2756 3893 3583 2938 4400 4040 4865 2511 3178 4559 4679 4297 3562 3112 3085 3030 4899 3831 3627 4921 3424 3378 4893 4979 2876 3724 4312 32 31 17 39 16 11 3 3 1 24 28 1 15 2 22 6 33 27 11 11 30 24 28 36 30 35 27 6 7 9 22 18 13 18 34 35 33 39 14 17 5 26 10 35 25 25 33 29 31 9 5 25 13 17 1 19 2 34 2 15 0 12 15 34 9 16 14 1 13 2 20 3 10 14 37 24 10 31 36 33 2 2 13 39 34 19 3 30 7 14 4 20 18 13 9 38 29 4 25 12 39 36 26 10 18 30 31 12 38 29 34 33 33 2 9 30 39 18 39 30 20 35 10 31 9 10 35 13 31 19 38 7 31 3 15 37 14 18 36 34 18 24 23 38 15 24 35 7 35 2 18 19 5 36 23 2 18 13 39 31 17 39 14 35 29 38 8 15 12 21 7 39 4 14 17 24 19 31 5 16 37 26 3 8 5 10 39 20 18 6 37 19 24 17 26 26 26 9 23 32 35 8 19 12 23 11 27 33 31 11 14 23 39 6 3 19 38 31 11 2 17 29 6 30 37
3184 2752 4208 4488 3261 4868 4878 4562 4134 3760 4177 4599 4011 3291 4509 3583 3603 4859 4471 3236 3259 2906 4931 4317 3089 3703 4272 3944 3270 3158 4860 4583 3571 3727 2655 3087 3027 3241 3121 2651 2758 3590 2651 2976 3779 4761 2874 4541 2845 2894 3952 3849 2749 3678 3033 3669 2538 4280 3195 4490 3214 4460 3075 4596 4240 2652 4880 3722 4769 4855 4682 3690 4027 2960 4442 2589 4056 4483 2709 2919 4118 4769 2738 4792 2891 4483 4600 3601 2589 4728 3919 3778 4254 4327 3590 4576 3573 4981 3749 3330 3630 3526 2649 3824 3697 4110 3511 3012 3889 4646 3137 2963 4426 4310 4435 2794 2704 4007 3515 4408 4626 4400 4662 2778 3045 3591 4214 4835 2976 2958 2802 2994 3833 4368 4622 4806 3817 3796 4552 3261 3732 3622 4524 4174 4159 4326 3231 2889 4249 4276 4985 4087 2857 3352 4508 4515 4347 2915 4384 3822 4140 3273 3516 3229 2597 3237 3892 4450 3475 4761 4742 4872 2750 4234 3036 3345 3528 2899 3814 4555 4301 2675 2617 4690 3632 2596 4870 3095 3102 4812 3951 2916 3310 4336 3133 2507 3320 4915 2763 3721 3205 3692 2756 4687 4400 4614 4526 4347 3984 2706 2736 3487 4610 4167 3781 3166 3041 4653 2714 2727 2506 2867 4648 4820 2643 3 13 25 24 29 39 10 24 24 19 30 19 13 23 19 14 22 38 34 37 4 26 4 7 16 38 10 7 13 26 25 39 22 7 36 16 37 7 23 38 14 11 29 22 31 18 26 7 35 3 3 33 19 31 9 6 3 14 17 38 36 0 18 23 26 39 12 10 22 31 30 6 25 27 6 17 23 3 2 29 14 7 8 9 39 36 12 12 27 20 38 13 22 30 27 22 14 39 6 25 34 6 32 3 18 23 21 33 14 3 30 6 22 16 19 22 26 6 4 22 16 13 24 23 39 13 8 27 33 10 21 12 24 14 16 13 13 15 20 19 22 20 31 4 15 32 33 23 38 7 25 36 7 17 27 34 32 10 3 37 15 6 17 16 1 36 21 24 34 2 27 36 10 15 15 11 14 17 31 28 2 27 11 13 31 15 32 6 15 12 37 33 3 13 28 31 35 35 3 4 20 12 24 34 18 6 15 30 12 33 7 38 7 14 7 3 5 27 30 4 8 12 26 30 20
3558 4053 3590 3818 2678 3153 3537 3957 3267 2954 4781 11 3976 3204 3517 2704 4743 3301 4779 4664 4283 3340 2931 3093 4783 3766 3446 4063 4868 3631 3189 3950 4771 2523 4216 4519 3247 4303 4308 4200 2960 4642 4629 3543 4647 4354 3390 4502 4286 4442 3093 4909 2532 4721 3088 4303 3493 4405 4722 4801 3755 4184 3848 2624 2892 2548 4836 2629 4037 4646 2994 2511 3913 4313 3826 4425 3554 4214 4688 3308 3119 3233 2653 4831 4302 4161 4347 2652 4981 4544 3786 3543 2528 4921 3036 2878 3765 4549 4631 3279 3812 3875 2541 2808 3372 2852 3046 4198 4715 4370 3579 3291 3891 3727 3326 4143 4581 3495 4376 3312 2990 2663 4787 3120 3764 4794 3710 4711 4072 2576 3644 3546 3926 2815 4904 4981 4904 3812 2791 4148 4815 3616 4851 4607 4897 3512 3008 3320 2774 4694 4725 4757 2673 4365 3247 2642 2843 4803 3167 2923 4791 2849 3359 3613 4249 2930 2842 4543 3871 4470 3267 2819 3222 2642 2674 3806 3253 2876 4508 2827 3155 4072 2610 3645 3754 4251 4752 3008 4593 4458 3981 3823 2552 4213 4006 3672 4785 3437 3399 3789 4099 3863 3054 2937 3988 4657 3483 4211 3335 2877 3725 3837 4517 4512 4741 2677 2794 4029 3868 4028 3419 3653 4014 2689 3178 37 18 18 24 35 34 33 24 25 3 24 5 23 39 35 37 22 1 6 14 2 1 39 35 28 25 14 22 11 39 14 7 6 10 13 30 37 2 17 16 15 22 21 27 2 30 23 12 4 30 8 12 37 27 31 26 23 8 17 9 37 4 0 32 19 37 16 2 31 36 18 29 27 34 12 14 14 18 2 30 23 25 33 37 23 34 9 29 11 7 33 11 35 10 8 29 5 15 28 32 4 16 36 23 17 26 23 28 32 37 31 14 34 25 36 26 19 20 24 20 39 29 26 8 8 10 16 33 25 9 25 32 2 16 11 5 31 39 39 34 6 32 25 12 22 37 14 14 12 31 23 32 28 7 9 36 19 20 29 15 12 33 11 3 8 7 7 20 14 9 35 10 10 37 14 8 24 21 6 18 9 4 7 21 32 15 19 11 9 16 18 20 23 10 17 22 19 24 30 14 38 6 3 15 35 7 21 24 39 24 19 29 11 10 1 28 33 12 35 28 34 27 36 33 13
4212 3771 4939 4659 3973 4833 4983 3274 4574 4868 4185 3572 3715 4329 4145 3882 3424 4938 3575 4837 4651 3813 4617 4932 4086 4723 4210 2945 4682 2501 3193 4371 3736 2832 2683 3313 3918 3835 3697 4018 4758 3731 4422 2831 2730 2966 2681 3072 2970 3781 4628 4066 3881 3903 4757 3608 4301 3435 3304 2913 3263 4481 9 4650 4579 3348 3927 3761 4198 4224 7 3394 4967 4071 3592 4291 4708 3726 4500 3230 4419 2837 2641 4793 4515 4040 3573 4917 4781 4321 4056 3042 3215 3245 4023 2708 3585 2506 3185 4737 7 2620 3844 4339 3853 3455 4998 4832 3046 3116 3542 4757 4301 3715 2815 2549 3596 4724 4390 3659 4966 4189 2585 3569 4524 4564 4127 3798 3158 2957 3297 3845 4521 3330 3965 4236 3787 4777 3171 2568 6 3407 2792 3807 2935 4328 3981 4045 3495 2559 2877 4413 4403 4304 3439 4180 4780 3214 4030 3759 4313 3809 4543 4376 3485 3367 3706 3083 3704 4267 3937 4745 3945 3591 3282 4003 3672 3445 3610 3238 4356 4712 3419 3011 4199 4189 4037 3524 3409 3788 2608 3951 2574 4989 3376 2718 3447 4572 4708 2873 2906 3154 4661 3989 2778 2879 3728 3300 4759 4903 3873 3812 4396 4317 4773 4011 3584 2864 4839 4727 3692 4156 4209 2988 3337 38 37 30 23 3 29 1 37 7 39 37 29 32 1 4 33 9 33 14 28 30 12 29 8 37 36 37 20 17 28 29 9 25 12 35 3 14 20 19 39 26 20 9 15 25 29 10 18 11 16 5 11 19 5 17 24 3 16 4 24 27 6 15 0 3 35 38 1 11 14 10 3 32 7 16 32 16 38 28 38 20 21 37 2 29 15 3 29 36 16 3 39 37 14 21 9 12 27 1 34 23 37 38 8 22 31 38 5 10 33 12 10 12 7 8 36 2 5 36 23 37 28 14 36 7 30 12 35 7 35 26 17 36 7 24 18 8 10 18 24 13 4 25 35 20 21 12 10 15 37 1 32 3 23 35 25 17 33 17 4 13 32 7 22 3 18 1 34 30 9 38 1 15 35 20 23 4 12 34 10 2 16 30 12 9 2 6 33 21 36 20 6 33 34 18 17 21 12 14 20 4 38 35 9 8 4 5 11 13 12 6 20 15 24 21 1 5 37 27 25 37 9 35 20 14
3206 4363 2807 4316 4952 4067 4926 2931 4604 4017 2829 2917 3136 3782 4081 3230 3710 4087 2678 3879 2693 3450 4819 4190 3678 3458 2924 2694 2602 3966 3363 3843 3921 2949 2838 3590 2693 3455 3373 2778 4854 2914 2896 2923 4302 3514 4868 3566 3964 3884 3435 2773 4608 3567 3099 2876 3008 4800 3563 3336 3201 2782 3781 3805 4933 3598 4931 4730 4781 3147 2509 2915 3760 4807 2564 4662 3208 4430 2871 4666 4846 2871 3596 3458 3402 3842 4731 4737 2932 4629 3596 4145 3629 2610 4771 3023 2804 3444 3252 4945 2510 2762 4483 2919 4659 3333 4494 2525 3393 2829 3539 4128 4656 2568 4644 4811 4365 3858 2895 4141 2806 2870 4854 3138 3122 3370 4157 2659 4775 4792 3240 4981 4271 4530 4345 2990 4174 4860 4929 3541 3573 3512 4599 4652 2561 3535 3521 4316 4506 3844 2728 3425 4927 2900 2757 4823 3906 4585 4020 2926 3556 4199 2583 3532 2506 3352 4939 3847 4343 2654 3801 3377 2858 3795 3583 4104 4174 4823 4672 3502 4976 2800 2650 3097 2736 2674 3563 2726 4218 4265 4876 4714 3853 3389 3331 3292 4638 2620 3053 2536 4851 4118 4221 4209 3188 3680 3565 3744 2522 3612 3450 3677 3651 2618 3875 2733 3442 3106 3737 2668 4562 2505 4177 3763 3185 23 35 15 21 19 25 1 3 15 28 25 9 8 22 1 13 1 6 31 31 15 32 27 28 36 34 18 12 24 1 18 8 16 22 20 7 2 7 15 22 8 22 34 14 36 26 15 25 10 10 33 3 38 19 21 9 36 3 7 6 20 31 11 35 0 31 19 9 10 16 24 12 2 14 21 31 13 36 16 7 32 29 33 39 6 22 30 28 33 16 12 16 9 36 5 26 2 22 29 13 21 29 28 21 10 18 35 1 15 12 11 23 21 31 34 16 13 3 34 15 9 10 28 32 25 23 7 7 22 21 17 6 38 9 35 29 21 6 9 32 1 18 24 2 24 30 18 15 7 12 39 30 37 38 36 6 26 20 16 20 23 8 34 26 20 6 4 16 16 35 13 12 25 7 33 1 25 10 6 2 30 35 33 16 19 33 32 27 27 39 25 6 32 24 12 29 28 3 30 20 26 28 37 18 6 38 9 5 18 23 11 34 22 32 32 13 13 37 17 13 23 21 29 34 30
4078 4468 3306 3377 3894 3314 4942 3798 3305 4604 4788 4669 2508 2696 3017 4092 4528 4655 4643 3107 3263 2932 2996 4952 2941 2812 3806 4747 3292 3239 4231 2855 3379 4120 4956 3806 4490 3188 4601 2814 2813 3728 2574 3335 2658 3260 4654 2560 2789 3683 2594 4079 4212 2596 3422 3753 4931 3521 4001 3237 4972 3926 2903 4381 3666 2802 3069 4229 3600 4136 4517 3732 3042 3830 2618 4909 3397 4385 3050 2803 4251 3773 4985 3417 4072 3911 2524 4871 4518 3489 4847 2775 4671 3413 2689 4873 3547 3035 4164 4050 3195 2996 3254 4297 2649 4957 3178 4580 4643 4955 3349 2782 4849 3331 2845 4864 3503 3523 4129 4046 2958 4678 3294 4078 2626 3108 3146 4585 3278 3260 4012 3213 2940 2608 3616 4496 4764 2863 3458 2509 4556 2593 4245 4519 4274 3658 4826 2615 2837 2725 4008 2752 3845 4917 4762 3259 3450 2684 2991 4117 2550 4266 3359 2902 4290 3277 3887 4700 3655 4506 4643 3665 3809 4411 4894 2927 3645 4280 3015 4776 3701 4224 3655 4219 4966 4666 3179 2751 4860 3644 2612 3550 4686 3985 2525 3529 4641 3356 4101 4742 4392 2761 4870 4233 4859 2973 4294 3325 3056 4556 3596 3162 3419 4122 4928 4543 4269 4497 4477 3705 4145 4736 2709 2549 4873 34 30 35 18 30 25 10 38 35 19 25 2 13 3 1 15 20 21 11 24 24 34 29 30 25 17 37 31 6 22 18 11 28 2 25 21 8 3 38 21 30 28 28 25 1 21 8 4 34 13 25 31 22 1 31 27 30 37 23 31 12 23 28 29 38 0 21 4 7 8 24 15 13 15 32 5 27 24 23 8 12 21 10 12 19 10 34 30 8 19 16 7 8 21 3 35 32 14 24 21 10 25 21 22 17 23 17 8 23 17 24 3 10 22 20 29 13 19 25 32 8 34 30 17 1 1 26 8 21 5 33 32 8 14 24 2 11 14 37 20 34 19 34 3 13 17 26 15 30 19 28 27 16 39 4 26 23 1 20 31 6 13 4 14 1 7 33 28 31 9 20 13 12 19 7 26 11 11 23 7 4 39 5 38 37 14 6 18 32 21 10 1 23 3 26 8 25 9 35 26 30 9 5 2 36 5 27 39 8 7 28 34 34 28 25 7 12 19 24 7 36 27 16 35 14
4626 3237 2751 3541 4790 3207 3934 4727 4471 2717 3187 3745 3656 4656 4647 3776 4411 4068 2801 3836 4339 4506 4019 4112 3053 4312 3364 4144 3305 3177 4073 3250 4622 2940 3396 4667 4059 4840 3100 2872 4107 3623 2810 3178 4871 3608 4270 2508 4803 2506 4120 3804 3265 4312 4192 4343 2796 4069 3656 4200 4086 3694 4374 3992 3447 3820 3650 3503 3857 3125 3829 4393 2549 3112 2641 3857 4754 4679 3740 4875 4089 2571 3767 2801 4896 3677 2769 4487 4105 3596 4074 2580 2951 3610 3076 4007 2549 3631 4878 4623 3617 2621 4485 2619 4181 4825 2700 3986 4422 2979 4779 4867 4892 3602 4309 4907 2759 4970 3848 4471 4629 2881 2658 2844 4054 2742 2935 2616 3266 2884 3333 4267 3226 4460 3532 3084 4021 3021 4653 2661 3618 4318 2705 4506 4639 3553 4512 3310 4432 3558 2649 2598 4112 4933 4571 3061 3132 3527 3662 3101 3819 4030 3876 4762 4233 2731 4320 4542 3503 3719 4681 4907 4311 5 4516 4225 18 2717 2895 3630 4606 2509 2923 3645 4479 4161 2639 4008 4180 4492 3676 2764 4069 3220 4756 3096 2775 4702 4783 4314 3487 4252 3712 4545 3078 3596 2576 3884 3079 2696 3280 4968 2701 3291 2772 4837 3274 3132 4955 3477 3297 4182 3497 4923 2922 36 23 8 21 38 16 30 18 14 24 11 20 1 29 2 13 7 3 1 29 14 34 19 12 7 2 18 4 38 12 3 5 22 20 23 1 37 10 35 4 16 27 38 31 16 20 36 28 21 9 16 22 39 7 36 35 2 8 5 3 33 14 28 12 15 14 0 36 39 32 39 21 28 9 29 18 1 22 19 23 8 30 22 29 5 26 15 38 1 7 31 38 25 15 2 22 6 5 28 9 16 13 24 21 16 27 15 26 39 2 19 33 35 19 39 30 18 14 26 12 33 5 5 22 5 2 6 21 4 34 12 14 36 9 7 2 35 11 32 11 27 9 6 30 26 1 5 10 39 27 10 22 22 9 19 29 10 7 6 1 25 17 23 35 19 8 12 15 34 28 15 8 17 19 2 2 38 16 14 3 30 35 35 21 8 5 28 31 20 14 29 4 11 25 9 25 19 5 7 14 4 33 3 20 30 5 10 20 37 17 6 18 18 5 17 25 36 39 7 6 26 35 5 26 6
3419 2877 4284 4177 3302 2751 4698 4334 3984 3611 4715 3043 2982 2899 3164 2988 3539 4647 3430 3741 4694 3127 4857 2569 3422 3069 4097 3963 3563 3388 3513 4447 4693 3954 4613 2681 3452 2782 2868 2674 5 4965 4355 3515 3102 2736 3433 2933 4455 3699 3002 2847 4182 4086 4599 2785 4921 3751 4841 4503 2806 3261 2677 4452 2893 2539 4353 4930 3593 3589 3223 4793 3679 4181 3917 3771 4220 4608 2907 2548 3247 3299 3625 3636 3313 4711 4861 4373 2887 2535 2650 3347 3058 3096 2742 4443 3081 3546 2941 2797 4899 3999 4146 4648 4514 4901 4010 4693 4964 2910 4618 4360 2724 3939 4700 3597 3631 4477 2889 2895 4179 4040 3337 3432 4560 2513 4729 2894 4354 2710 4768 3207 4597 4471 2979 2985 4549 4060 2623 3072 4925 4084 4975 3086 4529 3920 2924 3908 4737 2503 4575 3274 3595 4101 3701 3939 4575 3005 2500 2997 2527 4809 3132 2802 4947 4302 4713 4290 3628 3464 2766 4939 2885 4716 4056 2599 4552 3977 2569 3207 4898 4625 4344 4976 2804 2780 3655 4830 4166 3198 3999 3176 4748 4881 2810 3382 3982 3448 2978 9 5 4738 3841 3435 13 4110 4892 3960 3005 2694 3450 4975 3431 3930 3201 2986 3443 3002 2792 12 4375 2637 2750 2753 2977 31 10 34 5 4 21 14 36 9 23 14 18 12 29 1 6 19 8 5 1 4 2 9 39 17 26 37 4 27 6 8 3 31 20 6 18 10 32 38 27 8 27 2 6 37 7 3 4 6 29 23 17 26 31 32 9 36 36 4 7 19 23 22 1 12 31 26 0 11 13 13 6 23 19 18 8 18 2 18 6 14 15 23 27 29 25 23 38 10 18 21 35 2 9 28 21 6 20 16 20 23 25 16 31 30 14 25 28 38 16 13 4 39 20 21 30 32 34 21 28 21 38 25 20 37 30 9 23 6 28 12 6 24 11 8 1 11 34 1 18 38 25 17 22 27 32 24 11 6 14 13 36 15 23 12 34 28 16 20 18 13 22 12 3 4 9 1 28 31 33 22 31 34 12 3 10 38 17 33 30 34 35 32 28 29 27 32 37 13 14 16 18 6 12 31 34 6 10 10 39 12 6 16 23 39 27 2 13 11 31 13 37 19 14 23 9 22 21 28 5 27 9 8 4 30
19 2641 4941 3907 3684 3154 4401 4580 4437 4926 2514 4189 2664 3127 4879 3541 4326 4692 4100 2506 4418 4163 4688 3853 2758 4282 4497 4799 4289 3789 2662 4916 4552 3823 3698 2708 3453 2978 2697 3857 3164 4099 4852 4521 3383 4784 2613 3507 3109 3355 4469 3342 4327 4340 2972 3877 4731 4726 3852 3492 4482 3562 4418 3243 3483 3371 2591 4031 2688 4871 3308 2756 4562 3761 2517 3872 4566 4387 4984 2529 3588 2864 2535 4648 3116 3295 4910 3838 2692 3166 4490 4938 3002 4485 2849 2623 4044 4568 2517 4447 3720 2963 3888 4279 2536 4378 2819 3815 4924 3662 3934 2886 3704 4837 4183 3017 2562 4782 2594 4279 4296 3064 2553 3540 4378 3580 4662 4530 3981 4969 4353 4992 2969 4810 4721 2518 2534 4724 3411 4051 6 2904 3520 3247 3177 4216 3415 2668 2533 3089 2588 4939 4082 3401 3311 3941 4879 3834 4646 3873 3063 3479 2932 2763 2966 4485 3955 3966 3060 2713 2616 2643 3748 4698 3471 3937 4043 4220 3506 4266 3514 3965 4081 4138 4746 4388 4586 4362 2954 2502 4922 3948 3571 4276 4169 4325 3282 3545 2563 3780 4668 4696 3260 3606 4758 4833 2795 3342 4449 3353 3467 3883 3954 4628 3544 4902 3631 3116 3247 4211 4852 3623 4841 4733 2904 39 16 32 4 1 1 15 36 14 25 18 1 5 9 19 30 10 27 32 11 31 8 35 9 6 8 1 16 18 35 3 6 23 35 28 4 34 25 21 32 24 25 32 27 30 28 36 5 32 15 39 38 19 20 14 20 28 19 1 39 28 9 26 33 20 8 8 16 0 36 7 36 13 23 8 34 21 29 20 16 27 14 13 12 1 8 15 2 8 15 10 22 27 16 4 11 18 25 33 26 11 1 39 18 16 23 6 26 8 19 23 20 20 16 23 26 11 15 22 7 23 10 6 9 24 17 33 19 17 30 3 7 20 1 4 14 22 33 27 14 19 39 21 36 20 23 39 13 14 32 2 18 32 31 24 26 37 21 28 9 23 21 5 14 20 13 13 12 18 29 25 4 30 35 35 28 38 20 14 31 39 17 2 20 11 16 27 22 15 2 4 1 22 14 7 22 28 8 24 21 17 38 12 2 22 21 30 7 17 25 27 22 9 19 34 39 27 34 39 11 33 2 5 13 9
4588 2515 4766 2842 3722 3893 4161 4618 2854 2830 3806 3289 3364 2520 3090 4645 3530 3207 4515 3633 3255 2543 3236 2911 4861 2760 4879 2540 4500 4561 3366 4274 4058 3509 3610 3902 4910 3002 3002 4282 3770 4286 4604 3535 4414 4045 3737 4127 3996 3250 4253 3210 3732 3189 2672 4192 3886 4240 3694 4633 3051 4117 3975 11 4105 2545 3313 3565 2943 4564 4346 3928 3383 3130 3565 3253 4819 3551 4683 4291 4067 4725 4208 4776 2999 2661 4651 3820 4352 4418 3895 3052 3556 4147 4988 3794 3599 4446 2690 4918 4901 4750 3887 4274 2553 3300 4548 3642 4699 4054 2526 4396 4700 3114 2961 3234 3186 4051 3785 3964 3815 4989 3850 3699 4392 2708 4746 3632 3094 4916 3912 4239 4345 3210 3260 19 3150 2818 2697 4869 3315 2663 2777 2540 3932 3860 2638 4488 3890 4014 2572 4484 4656 4231 2737 4714 3816 2733 3260 4608 4093 3917 4311 4229 4682 3147 3014 3773 3617 2802 4645 3218 4428 4365 3892 3164 3074 3552 4868 3176 3627 3752 2557 4243 2888 3029 3892 4017 2500 3881 4133 3598 3186 4921 3200 2832 3810 4796 3296 3294 3312 2992 4326 4850 3868 2988 2549 3644 3841 3421 2554 4368 3071 4005 4840 2752 2632 3460 3929 3282 2613 4868 3062 4792 4992 36 39 20 32 34 37 17 12 6 27 20 14 18 9 38 8 32 14 24 19 25 12 21 10 24 3 20 29 21 4 20 26 1 29 23 15 6 21 9 6 2 31 2 16 33 27 9 19 14 29 10 28 16 35 29 1 35 24 30 30 30 39 35 17 9 13 27 20 20 0 28 21 32 39 1 15 24 34 18 39 4 34 3 19 16 25 34 24 27 8 30 10 35 1 3 3 28 11 5 25 33 29 33 18 37 7 2 15 1 36 14 18 20 17 25 24 25 39 2 21 36 30 22 14 3 17 1 37 36 8 20 29 14 34 39 24 4 5 9 28 33 32 31 37 27 10 3 17 22 23 4 25 9 8 31 1 4 5 12 14 27 22 30 8 9 9 10 38 37 32 18 36 28 18 18 38 14 11 32 2 15 3 14 8 11 32 5 10 12 24 35 22 18 31 15 19 14 35 5 25 14 14 20 10 7 37 36 21 24 29 16 10 20 9 37 26 27 30 34 39 5 25 34 26 3
4728 4816 3037 3377 4939 3862 3540 4415 2824 3673 2645 4082 3228 4025 3130 4906 4182 4142 3927 4212 4105 2662 4028 4157 4988 3665 2887 3584 3134 4353 3906 3290 4893 2739 4741 4496 4110 4212 3233 4165 2940 3334 3519 3672 3468 2580 4084 4511 2545 2885 2882 4789 3069 2828 3202 4951 3537 4334 3891 4748 4530 4665 3437 3372 4268 3579 3257 3688 3456 3799 4584 3869 4187 2993 4983 3148 3272 3532 4137 3046 3065 3548 2856 3760 4419 4760 3896 3441 3028 3920 3811 4108 4532 4045 3801 3463 4810 3531 3277 2610 3031 3041 2870 2700 4278 3705 2752 3969 3000 4908 4631 2737 4435 2568 3969 4443 4689 2501 3360 4166 4944 4191 4174 2745 3990 4658 3956 2672 3218 2811 3922 3254 4216 4264 3040 3304 2552 2773 3864 2944 2732 4404 4212 3844 4341 3740 2791 4774 4804 3403 4491 3324 4501 3145 3148 3843 3280 4583 2880 4940 2531 4616 4981 2813 3895 3707 3587 4082 3358 3049 4390 3066 2863 3031 2830 4511 2905 4546 2650 4946 3375 3178 2914 4089 4850 4054 4870 3021 2871 3829 3986 2816 3792 2540 4357 4661 2834 4206 2756 4580 3853 4567 3464 4235 4442 4915 4989 2759 4783 3020 4059 4125 3984 4397 3597 4403 3607 2522 2798 3466 2611 2932 3728 4083 3788 27 2 22 13 29 7 37 5 3 32 28 10 7 11 20 34 31 20 38 22 7 3 22 15 26 23 36 5 2 37 2 27 33 7 23 4 4 22 39 22 4 33 11 6 8 15 9 4 9 3 27 13 36 30 26 24 31 37 16 38 4 35 22 9 19 12 36 5 36 20 0 24 2 24 10 7 11 16 13 17 25 8 19 14 39 17 1 10 33 30 13 32 38 3 33 9 36 21 18 30 16 13 7 22 25 31 31 22 16 2 21 2 9 1 30 37 12 23 16 12 36 15 26 14 36 8 26 29 7 3 14 17 8 21 37 10 36 2 8 28 14 16 3 32 15 2 10 13 20 30 38 12 2 37 17 32 39 9 2 1 24 30 15 18 33 19 10 19 33 23 1 28 4 13 18 24 4 9 30 20 23 10 9 6 30 35 39 13 5 23 36 17 32 37 16 36 29 33 7 18 23 16 27 30 23 29 29 12 30 14 14 37 37 7 12 8 13 25 3 28 38 1 14 19 38
2603 4650 3700 4355 4740 4774 3718 3730 4978 4430 4569 4770 4133 4675 3111 4055 4709 3075 2664 4077 3277 4719 4837 3388 2800 3394 4366 3546 4593 3944 4273 3474 3792 2730 4051 4490 2935 3026 4900 4794 2897 4146 4414 2903 4622 4191 3068 3836 2562 3788 4874 4263 4191 3153 3371 3328 4051 9 4563 2914 2689 4027 3820 4949 4571 3157 4663 4487 4676 4814 3836 2588 4622 3312 3160 4188 3513 4003 2569 4506 3900 3511 4493 4828 3056 3120 4241 4282 3163 4750 3525 2877 4199 2800 3980 2695 3433 4193 3089 4141 4982 4738 3708 3089 2801 4023 3122 2576 4249 4289 4871 3266 4406 4534 4817 2558 4398 3675 4989 2641 3088 3624 3977 4785 4299 4275 4984 3975 4695 2766 4588 4723 4208 2736 3285 4221 3778 4059 4202 3621 3430 4598 4660 4330 3526 4374 2665 4319 2947 4860 3299 4175 4055 4428 3084 4643 3348 3363 2503 2765 4827 4675 4928 3060 2739 3839 2990 3851 4917 4536 4178 3892 3431 2931 4376 2754 3521 4946 3476 4703 2992 3260 3213 3311 3204 3704 4478 3254 2724 4970 3737 2660 3854 3665 3866 2783 2611 4408 3321 4404 3528 3329 3011 3452 4537 2788 4414 3756 3363 4654 3560 3919 3148 4719 3878 3183 4262 4149 4681 4816 3936 2911 4130 3726 3582 26 2 37 4 23 8 15 5 15 10 37 20 36 34 6 32 7 32 4 27 32 34 29 11 24 37 29 17 9 1 12 19 16 9 25 37 34 37 4 24 13 32 24 35 29 18 39 1 32 29 16 32 38 5 35 5 25 33 11 12 19 38 23 10 27 20 21 38 37 34 23 0 7 4 25 29 25 12 23 26 27 15 7 23 19 31 34 35 19 36 2 33 15 39 16 19 37 32 21 3 10 5 13 39 37 14 12 35 31 3 14 39 19 35 33 9 30 33 22 8 30 23 4 27 3 21 1 2 9 1 39 16 27 5 18 14 24 32 35 35 34 10 33 29 14 10 21 19 35 7 18 16 14 14 15 6 2 19 26 6 10 10 11 29 5 10 18 17 1 15 9 1 23 18 5 31 10 34 18 7 6 23 20 34 9 2 12 3 37 36 30 34 33 20 8 32 22 19 31 1 22 12 32 30 39 23 36 2 32 20 14 24 29 5 9 24 34 10 18 23 17 11 11 22 11
4938 4699 4646 4465 2797 3735 3441 3587 4549 3525 2635 2721 4869 4955 4496 4107 3364 2705 3999 3872 3364 3297 4745 2780 4042 4064 3512 3108 4884 2594 2551 4449 4605 4060 4709 4237 4370 3710 3344 4081 3473 4807 4054 4218 3404 2659 4928 4960 3605 4933 3478 2643 3986 4379 3692 4405 3514 2967 3612 3432 4583 3896 2505 4396 3014 2965 2722 3602 4915 3909 3424 4666 3847 3306 3660 4821 4305 4347 3297 2816 4932 3872 2783 2800 2564 3230 3718 3318 3662 4618 3216 3364 2740 3512 2539 4243 9 3445 2564 4096 4163 3599 4095 4162 3192 3726 3950 4392 3663 3912 4998 4506 4136 3481 4661 4881 3514 3079 2945 4442 2605 3429 2717 3263 3900 4241 2674 4815 4681 4528 2808 3147 4714 4202 4835 4531 4785 2689 3452 3606 4702 3028 4551 3437 4772 3255 2537 4065 4958 3983 3180 2715 3688 3790 2897 3611 2669 3675 3109 4873 3388 3914 3900 4892 2955 4853 3061 4585 3042 4018 3757 4848 2983 3926 4848 4293 4037 4163 2672 3882 3736 3116 4968 2912 2820 2915 3381 3391 4446 4686 3358 3685 3865 2792 3695 3866 4513 3890 2988 4730 3762 3664 4672 3735 4207 3663 2575 3975 2629 2501 4270 3408 4043 4977 4219 3341 4323 3932 4607 4240 3464 3683 2903 3036 3886 2 5 33 34 13 2 36 1 35 15 6 38 36 37 20 5 14 38 37 8 5 8 31 25 27 4 24 21 19 30 3 13 28 2 36 34 35 2 14 26 29 30 16 37 30 13 28 37 19 27 13 20 5 30 11 10 34 23 34 10 30 29 11 11 22 21 32 24 14 11 2 30 0 19 39 23 3 23 27 28 7 18 26 5 31 39 9 8 38 14 36 26 27 27 19 31 2 19 6 27 5 27 33 29 1 27 21 39 37 25 26 5 22 7 10 17 9 21 8 14 38 17 33 5 16 1 3 35 13 33 17 15 2 11 7 16 11 24 27 28 14 12 2 17 6 25 27 31 14 7 32 14 14 27 22 2 6 28 28 18 34 18 19 31 9 5 3 27 20 24 2 1 24 16 5 12 8 20 26 20 29 21 4 16 24 30 24 34 3 31 19 18 34 3 26 19 29 1 34 28 29 33 2 34 34 27 2 28 2 12 20 14 35 20 11 23 25 30 17 13 38 35 21 34 18
2680 4818 4707 2641 2602 2514 3182 4514 3882 4859 3879 4027 3050 3671 4477 3825 3410 4934 3671 3700 4775 3758 3574 3449 2646 4362 4323 3383 2719 4270 3005 2656 3024 4440 3597 2952 4426 4927 3683 4158 2700 3684 3503 3069 3921 3954 3981 3802 3877 3454 4127 4051 4382 2764 3499 4348 3963 2782 3122 3964 3997 3370 4698 2890 3713 4234 2811 2678 3874 3930 4044 4644 4522 3403 3973 3876 4779 3332 4443 4334 4092 3566 4562 4373 3301 3497 4035 3789 4192 2915 3416 3346 3837 2643 3579 4152 9 2669 4300 4641 3748 3235 3720 4131 2842 4975 4986 2647 3576 4983 3943 2584 2847 3644 4430 2730 4029 4948 3383 2932 3505 4368 3244 4614 4495 3384 3502 4228 3041 3248 3344 3664 4112 3336 3068 4614 4272 4185 3751 3351 3706 4887 3909 3184 4813 3877 3170 4583 2773 3414 4106 4772 2857 3276 3691 4211 3675 3106 3151 4059 3101 4074 3411 4919 3779 4400 3941 4232 2703 2855 4878 3512 3040 4746 3637 3649 2992 3917 4009 3500 3788 4098 2854 2648 4598 4578 3908 2894 3207 3805 4988 3043 3203 3247 2793 2731 2564 2666 4850 2777 4270 3349 2726 4583 4272 3173 3815 3931 3264 2972 3241 2651 4706 3351 4919 4332 2818 4358 4755 4729 2581 3757 2649 3036 3880 39 5 15 32 38 14 29 23 22 15 20 19 7 5 1 36 21 37 5 11 26 28 17 2 16 4 12 20 38 36 22 31 24 9 39 7 25 10 14 2 7 32 30 9 36 36 13 9 7 10 19 39 8 15 18 5 34 8 23 37 20 16 7 33 36 35 9 14 27 22 29 33 16 0 33 32 33 37 16 32 10 39 3 18 13 31 38 15 13 24 28 30 1 35 31 22 39 10 13 32 35 14 8 17 30 29 9 21 38 28 22 39 4 21 14 25 3 27 24 22 19 31 37 23 37 5 38 19 2 37 20 30 12 15 16 9 34 32 26 27 14 10 37 1 22 23 2 27 11 5 4 19 37 4 9 29 30 10 25 8 25 14 6 25 8 19 29 32 18 33 16 38 19 15 21 35 13 9 3 1 22 17 37 38 24 26 38 25 11 31 34 37 15 39 26 11 3 6 9 15 39 5 26 36 29 17 25 17 16 20 31 4 3 7 6 39 13 14 28 33 30 37 21 16 25
3082 3768 2604 3151 3602 3653 3411 4535 3192 4392 3671 3296 2630 2563 4886 3414 3073 3494 3003 3990 2520 4943 4955 4986 2743 4669 3747 2568 3890 3361 4538 3628 2777 4031 4641 4076 3977 3568 3184 3724 2579 3087 3765 4162 3758 4201 3357 3622 4798 3742 2740 2581 2930 3467 3077 4420 2550 3372 3295 4416 4957 4352 4530 3025 4495 2931 4677 3878 4881 4258 2924 4508 3531 2852 4721 4489 4284 4289 2658 4477 3080 2762 4974 4518 4418 3968 4904 4178 3502 4820 3518 3102 2924 4592 3013 2729 4835 2982 4775 2561 3413 3741 3350 2500 4869 4506 3032 2979 2601 3760 19 4921 4250 2672 2530 3250 4094 2606 2825 4625 4576 3872 4990 4067 3004 2768 4509 3627 4131 3016 4355 3484 3984 2802 2810 3094 4537 2913 4072 3789 3037 4565 4776 3283 3027 4715 3495 2896 3995 3331 4140 3227 4581 3681 3041 4025 4514 2930 3130 3647 3009 4250 4162 4848 4220 2640 3384 4715 4244 2980 4359 3627 2816 4557 2842 3113 3114 4658 4782 3494 3067 4142 3488 4195 3626 3850 4427 3243 4936 4032 4599 4757 3242 4574 3883 2910 3430 3365 4484 3506 4000 4416 4218 3441 4441 4182 3260 3088 4452 3280 4206 3415 3995 3498 4890 3946 4891 3476 2984 4061 4603 2545 3280 3825 3520 25 11 36 22 17 36 4 23 5 35 38 35 9 29 36 11 16 10 16 4 36 6 11 33 1 11 1 31 32 22 7 17 4 25 8 29 26 17 11 1 23 34 27 26 1 24 36 28 36 9 3 2 31 23 11 35 1 5 13 7 24 13 28 12 17 35 29 13 23 14 8 9 13 26 0 19 22 19 19 26 36 4 30 19 3 23 7 17 35 10 2 15 36 25 28 8 13 18 39 15 37 7 31 10 24 20 25 23 21 31 31 13 21 2 10 12 28 20 24 34 18 8 11 1 16 14 8 8 39 8 32 26 5 2 4 15 6 17 7 12 33 4 11 1 35 20 31 31 6 22 23 36 13 37 21 3 28 36 29 13 20 33 13 22 16 17 7 11 19 31 8 9 19 15 37 16 14 19 36 20 21 17 12 26 14 11 29 25 34 35 19 37 32 4 12 11 28 21 30 30 30 26 16 15 2 5 11 35 11 10 28 35 2 9 16 19 29 7 36 26 22 39 20 7 37
2570 4390 4342 4932 3473 3165 4763 3672 2888 4122 3937 3970 3847 4717 3828 3384 4199 4306 3816 4426 4405 4823 4058 4940 4997 4970 4673 4880 4307 4388 4295 3861 3348 4605 4212 4260 3535 3523 3077 3248 3070 2669 4547 3404 2843 3373 4065 2721 4894 4714 7 3265 4035 4289 2682 4408 8 3670 3778 3142 4645 2750 3336 4004 4200 4293 4074 4098 3471 3578 2633 4959 4864 4193 4683 2970 2660 3009 3029 4655 4359 3638 2675 4861 3663 4914 3504 3259 3239 3206 4959 3344 3271 3610 3435 4667 2742 4817 4809 2584 2878 3093 4476 3802 4239 3456 2792 3577 4955 2671 2928 3542 3443 2524 4699 2920 3686 3706 4297 4955 4258 2574 3822 2542 3933 4318 3445 3743 4880 3061 2867 3719 4982 3477 3111 4353 3116 4696 3932 2537 3476 4077 4911 2995 4831 4965 3212 4426 2751 4465 4949 3135 4549 3061 2605 3821 3207 2825 4331 4016 4180 3383 4533 4984 4110 4120 3799 3119 4703 2858 2621 3531 4818 4203 4142 2502 3636 2550 3799 3442 3075 4977 4273 4545 4650 2923 3797 3920 4017 4407 3234 4076 3436 4814 3273 2743 3069 4489 3671 9 3768 4331 4531 2869 2931 4966 4492 4022 2754 2621 2981 3399 3408 4258 2689 2955 4712 3985 4249 4332 2663 4377 3641 3764 3199 38 29 38 18 33 30 34 6 20 36 25 35 24 20 31 29 38 17 11 4 36 22 12 31 1 19 8 25 11 28 22 19 39 13 39 23 29 37 15 16 8 25 32 20 11 28 8 36 5 28 16 33 32 17 5 13 14 7 6 22 25 25 27 25 11 28 4 1 38 18 38 6 15 33 2 0 10 35 38 3 39 20 19 39 9 39 21 23 1 39 8 38 10 17 28 16 8 36 32 36 27 35 6 7 32 25 22 39 17 16 24 37 27 8 20 36 33 22 5 20 16 19 6 6 3 34 4 2 1 8 13 32 17 38 16 35 37 13 33 6 15 3 7 17 11 19 9 17 19 18 24 14 39 29 38 1 27 12 18 30 18 2 23 4 23 35 19 29 26 11 14 31 23 15 25 17 23 17 11 36 35 39 30 25 14 32 19 33 26 18 23 12 2 27 27 37 35 28 12 25 4 24 33 25 23 9 8 19 1 21 13 15 10 33 21 20 9 4 10 34 28 7 7 20 9
4891 3964 2854 4322 3941 4737 4837 3724 4605 6 2718 4273 4336 2521 3437 4008 4340 4046 4236 3934 4331 4530 3185 3458 3679 2948 3888 2608 4916 3058 3674 3304 4031 4442 3894 4998 4750 4611 3616 4791 4186 3695 2553 3424 2653 3053 3204 4170 2609 4670 3431 3684 4442 4905 2891 3903 4091 2868 3033 3909 4207 4599 3467 3893 4742 3661 3783 4114 4391 2708 4923 3738 2750 3825 4119 3779 4832 3729 4056 2647 2935 3230 3891 2566 3007 2533 4042 3155 3502 3789 2665 4458 3485 3167 3406 2508 2782 3866 2889 4099 3883 4770 4123 4419 4143 2752 3624 4772 3460 3723 2981 3459 4007 4666 3937 2854 2546 2792 4526 4839 4701 4510 2608 3564 2664 3721 3667 4688 3859 3997 3482 4478 3222 3702 4597 2819 3818 4740 4993 3220 2755 3279 4587 3095 4936 3406 3284 3394 3960 2614 3993 3461 4783 10 3939 4886 3918 3663 4326 4380 3489 4109 3785 4549 4982 4676 2932 3780 2873 2660 3024 3546 3499 3441 3854 4545 4535 4854 3157 3086 4080 3219 4550 4418 3029 3763 4998 4244 2589 4931 3405 4393 4376 4175 4841 2633 3726 3790 4338 4853 4066 3563 2565 3596 4466 3820 2931 2871 3042 3672 4438 3730 4883 4779 3236 4871 2760 4317 2861 4268 4661 4907 2936 4642 4679 35 30 31 19 19 35 17 17 33 8 18 25 11 25 14 35 8 26 34 26 14 2 14 23 37 2 12 33 17 25 18 28 22 24 21 13 35 35 8 29 22 13 8 30 10 33 11 39 29 13 13 35 39 34 2 21 8 35 26 11 18 16 19 29 39 21 27 14 9 23 39 24 3 18 6 27 0 20 21 3 12 31 19 11 35 3 30 21 13 15 17 25 4 8 31 15 1 18 7 5 1 31 29 11 26 35 5 38 39 26 29 13 37 31 11 4 7 4 3 4 5 33 24 17 23 39 12 4 10 11 2 38 1 10 15 27 9 15 14 4 16 12 19 31 25 13 3 16 28 20 15 33 28 7 30 27 8 1 23 8 6 2 12 7 7 26 35 27 12 26 33 10 6 21 19 7 15 34 17 39 28 32 32 15 5 39 14 18 14 6 8 32 35 27 34 26 34 7 25 23 13 39 26 22 10 18 14 33 39 6 18 18 9 3 37 6 23 10 35 29 6 3 30 19 36
3712 2506 4647 3476 4797 4970 2732 4495 3868 4184 4991 4938 3392 4379 4963 3476 2636 2555 4590 3271 3595 4050 3598 3270 9 3125 3957 2965 2744 4152 3965 2676 2847 3612 4932 3250 3244 4705 4464 3469 3261 2881 4372 2652 4447 4984 3319 4876 4049 4558 4383 3005 2895 4527 3453 3298 2808 2853 3122 3474 4979 4715 3804 4559 3140 4592 3785 2539 2988 3994 4114 3355 4134 2898 3774 4689 4582 2877 2837 3217 4631 3604 4568 4844 4947 3326 2607 3422 2916 2678 4624 3347 4695 2625 2882 2937 2515 3010 3604 2893 2506 4192 3784 4083 4186 4502 4710 4095 3283 4757 4947 3014 4574 3993 4255 3163 3436 3130 4632 3505 3239 3537 4708 4229 3163 3202 3310 4934 3319 3552 2720 3828 3283 4199 3546 3437 2803 2978 3957 3176 2549 4002 4701 3544 2658 4787 4561 4157 2892 2906 3067 4338 4719 2552 3003 3477 4668 4666 3742 4443 3537 4525 2967 4430 3092 2941 3959 3758 4686 4972 3806 4263 2603 4855 2853 3612 2831 4277 3431 3454 4918 3146 4208 4664 4129 3386 3440 2743 3159 4642 3188 4509 4833 4738 4976 3182 4710 4203 4570 3847 4004 4219 3020 3528 4375 4706 2714 3618 3123 4442 4094 3805 4982 4658 4401 3160 3414 4219 3421 4989 2887 4949 3328 3918 3644 37 35 24 12 38 32 17 35 23 5 18 35 12 6 31 22 24 11 30 31 36 32 37 37 24 4 1 25 39 2 3 19 28 12 26 10 16 13 5 25 16 11 4 12 21 39 1 9 28 19 36 11 11 9 12 11 22 36 8 22 16 37 36 34 22 5 27 16 37 13 39 5 16 13 39 28 16 0 6 25 34 33 35 13 11 25 34 2 23 11 28 18 10 35 29 38 21 30 34 39 23 26 34 24 8 35 34 30 17 1 14 35 33 15 8 37 21 1 3 4 39 29 1 29 21 27 8 30 12 27 2 14 27 5 3 29 34 15 23 1 7 29 20 39 20 20 7 9 16 39 34 9 3 12 30 22 11 9 7 2 38 13 9 4 21 35 38 21 4 34 21 15 2 33 7 12 27 23 1 8 12 22 18 7 12 38 5 22 33 16 11 21 29 2 37 18 12 17 8 34 20 28 22 33 31 27 2 27 14 29 18 11 14 34 39 18 8 13 19 3 37 7 31 27 21
4512 4045 3673 4899 3363 3150 3000 4899 3714 3913 2678 2921 3277 4576 3951 4175 4592 3432 3724 4218 2781 4620 4394 4073 3268 3535 4412 3268 3859 4705 4127 2579 3442 3885 2710 4103 3332 2615 4868 4739 2925 4843 2949 3192 3881 4842 2828 4949 3697 3823 3319 3154 4282 3233 2717 3492 3611 2500 3103 4533 3164 4897 4662 2725 3733 4243 3963 3195 2547 3063 4500 2580 2898 4392 3127 3209 3423 3860 4473 3596 4479 4859 4224 2556 4821 4457 2728 3714 3102 3127 4917 4335 4478 3917 3795 3241 4732 3264 3160 3624 4296 3570 2900 4990 3900 2855 4653 3214 3971 2580 3895 4852 4719 2731 4195 4771 3217 3580 3445 4470 3449 4283 2619 2722 4928 4718 3943 3627 3864 4814 2912 3615 3052 4167 3754 3626 2974 4052 4428 4603 3744 3648 4002 3814 2803 4461 4491 2802 2638 4272 4959 2809 4435 4497 2937 2516 4667 3264 4983 2700 4414 3675 3153 3308 4615 3936 4258 4136 3880 3579 4812 2912 3075 4018 2955 2748 4564 4768 3975 3867 4831 3106 3409 4326 2600 4338 3340 3442 3728 4263 4193 3129 4247 2904 3913 2700 4977 4373 4369 3824 3949 3969 3491 3827 3055 3307 3412 4967 4908 3588 3726 3071 4876 3410 2786 3135 3135 3638 3345 3549 4401 4862 4018 3427 3729 4 5 33 35 26 4 36 9 27 4 39 26 8 9 14 3 38 29 14 7 39 37 32 6 33 28 16 14 15 25 12 12 16 24 15 3 14 12 25 14 22 37 14 7 23 6 2 29 16 36 8 22 3 30 36 33 21 2 28 32 26 26 31 22 39 29 19 5 14 28 3 25 12 23 17 23 36 24 0 11 20 7 22 26 15 25 36 9 19 4 25 24 17 23 11 15 10 26 1 14 18 34 7 33 32 32 17 12 20 21 8 16 11 39 14 30 25 15 36 22 3 6 33 31 19 26 3 25 36 35 24 34 16 20 28 21 18 31 16 9 14 17 19 11 28 16 11 27 5 29 15 35 25 1 32 11 34 17 4 22 13 39 3 29 36 39 29 23 3 38 6 7 39 19 24 13 21 18 3 23 9 11 21 10 24 26 29 32 22 19 37 15 4 26 28 3 27 10 34 4 5 13 3 14 39 18 6 34 15 18 8 30 20 39 14 4 33 6 21 25 29 39 3 29 30
3520 4072 3029 2586 3882 3687 3962 3071 3939 2619 4307 3338 3488 4155 4391 12 3035 2858 2725 3635 4426 4021 4490 4767 4899 3532 4784 3969 4908 3499 4311 3837 2616 3838 4119 3124 4874 3909 3533 2850 4432 2594 3387 3579 2818 3738 3513 3992 2517 3634 2611 4911 4971 2694 4516 3401 3238 3203 4225 2963 3402 4057 3494 3422 4623 3547 2564 2975 4126 3098 3408 3760 4734 2581 4056 4289 3153 3510 2958 3402 3934 2605 4903 4961 3798 3601 2520 3093 4871 3125 4511 4144 2505 4860 4274 3351 4899 4030 4104 3101 4357 4393 4531 2790 4888 4521 4254 4345 3856 3009 3852 4413 3114 3347 4751 3549 4297 3249 4508 3751 4193 2813 3933 3444 4215 3245 4384 2995 4659 3704 3102 2915 2569 2535 3401 3709 4298 2682 4502 3179 2896 3202 4778 4798 3422 2808 4091 2941 4404 4383 4494 2509 3141 3977 4299 3999 3241 4366 4665 3552 4331 2524 2809 3663 4105 3728 3007 2849 2649 4089 2827 3465 4423 3167 3573 2706 4460 3608 4208 3616 4977 3006 2886 3717 4417 2815 4866 4399 3986 3008 3280 3818 3372 3984 3504 3917 4691 4681 2760 2846 3394 4619 4964 4840 3917 4071 2699 4834 3247 2680 3236 4890 4796 3373 3004 4118 2557 3880 4955 4647 2823 3430 2898 2714 4135 4 2 21 26 29 8 32 4 33 17 29 17 11 30 36 19 25 39 22 37 27 17 31 23 28 6 27 2 15 1 3 8 28 15 3 1 22 33 15 14 8 30 11 14 15 14 28 5 33 26 16 4 27 1 36 22 39 18 5 30 25 39 16 32 26 10 17 30 26 28 2 14 19 36 13 37 21 9 13 0 8 11 5 11 34 23 24 19 16 3 32 16 10 5 37 9 22 34 26 9 4 6 22 35 13 24 28 23 39 6 36 23 23 35 21 7 1 28 15 18 20 21 12 20 32 16 24 5 25 30 18 29 13 30 15 30 33 24 20 9 23 7 10 33 3 13 4 16 35 39 12 22 18 38 28 30 30 23 11 1 7 2 31 33 14 11 35 36 18 30 10 32 4 39 38 4 32 26 14 35 15 36 23 31 25 9 7 10 28 7 2 1 21 18 18 10 10 27 8 21 29 30 38 26 27 32 13 15 7 16 14 9 5 15 9 6 6 22 13 39 35 15 15 11 33
19 4908 2733 4784 3219 3217 3482 3769 3261 4095 4703 2875 3071 4608 4890 3954 2650 4306 3729 3068 4779 4226 2900 3826 3383 4445 3564 2749 4000 3226 3919 4745 2776 2618 3569 4817 2638 4794 2894 3159 3344 3268 3679 3908 3987 2924 4020 4657 4700 3307 3116 3983 3030 2921 2667 4740 3601 2719 4696 2850 4603 2600 4129 3805 4884 4529 3116 4175 4056 4768 3879 2611 3339 3339 2710 4160 3996 4700 4863 3153 4683 4395 4420 2982 3401 3889 3737 4683 2967 4464 4701 3828 3273 2599 2619 4886 3404 4116 2619 4257 3066 4431 4689 2794 4613 3062 2715 3770 4912 3992 3355 2577 3303 4718 2928 4589 4158 2805 2659 3245 4954 3400 3463 4742 3456 4550 3152 4090 4410 3373 2521 3886 4399 2847 3402 4394 4926 4402 4606 3930 3820 3128 3419 3709 3131 3318 4012 3873 3518 4246 3860 4545 4771 9 3446 2887 4582 4621 4381 3575 3359 4467 4950 3682 3162 3629 4589 4256 3756 4261 2916 3597 4106 4432 3678 4368 4139 4555 4174 3450 2797 3157 3845 3064 2751 4305 2751 2516 2895 4904 2562 4864 4193 4312 4713 4564 4460 2523 4345 4776 3950 3718 3048 4614 2959 2952 3387 3671 3694 4447 2908 4375 3968 4012 4570 4275 4024 4327 3126 3328 4960 3027 4348 4794 2772 37 31 13 37 26 8 33 32 6 18 28 10 24 24 35 35 10 26 7 8 2 16 7 34 27 37 6 2 10 38 23 24 17 8 21 20 13 1 38 20 8 9 5 3 18 7 37 19 33 19 5 22 3 18 30 17 21 7 19 34 33 39 30 9 26 11 10 30 13 7 30 28 1 23 17 2 3 8 8 33 0 7 33 3 36 12 33 10 11 24 29 2 24 6 23 19 28 25 37 21 4 33 24 24 16 37 14 28 12 12 35 26 18 37 14 30 4 35 14 26 19 30 3 26 35 32 4 21 9 12 18 16 3 10 17 37 3 23 21 7 30 27 4 2 22 38 20 4 33 32 23 19 28 10 16 18 31 20 12 29 31 37 32 10 22 37 12 12 33 1 10 3 8 35 29 11 29 31 30 7 7 8 34 11 25 9 7 10 8 15 25 11 17 33 28 25 7 32 25 27 2 10 1 17 2 35 29 7 37 25 8 35 19 28 36 22 28 27 7 32 27 18 35 30 19
4662 3072 4282 3272 3129 3089 4203 3114 3235 2735 4030 4973 4705 4529 4287 2584 2752 3384 3583 4803 3915 3240 3196 4138 4578 4474 3391 3820 11 4817 3448 3126 2979 4849 3298 3276 4178 4501 2580 4379 4658 4279 2809 4963 4346 4743 4482 4624 3611 3911 3001 3623 2604 4129 4888 3827 3164 3188 4235 4276 3450 3095 2834 3295 3900 4700 2849 4146 3220 3603 2757 4788 4208 3486 4007 4585 3186 2703 4829 2686 3349 3822 4043 3900 3689 3363 3150 2504 4601 3991 4654 4890 3138 4469 2670 3525 4063 2916 4233 3492 3534 3853 4729 4709 2901 4335 3217 4597 2810 2954 3173 2908 4970 4038 3511 4903 2772 3441 4400 2682 3622 4221 4832 2954 3308 4633 3170 4686 4873 4441 4982 4643 4648 3846 3960 3620 4910 4998 4500 3503 7 2582 4527 3241 2522 4469 3261 3183 4986 4100 4598 4571 3432 3034 2590 3204 2798 4141 3875 2908 4785 4007 3678 3568 2746 3738 2537 4353 3288 3782 3268 2733 3842 3786 4184 4143 3674 2628 4962 3655 4930 3261 3502 2578 4442 4286 3510 3059 4839 3538 4252 3313 3267 4872 2751 2512 4087 3547 3490 3727 2748 3882 4063 2937 4174 3549 3443 2829 4586 3934 4263 2548 2596 3261 4602 3264 4603 4859 2895 2848 2913 4800 3245 4123 4140 29 24 22 32 36 16 34 8 25 30 10 34 13 22 19 7 10 11 3 9 37 27 25 24 5 25 23 3 27 8 18 19 39 33 38 1 32 29 22 38 7 19 33 35 27 33 23 15 29 18 25 15 16 15 34 1 20 28 22 38 28 15 39 29 24 12 15 13 8 19 21 9 3 35 9 22 20 2 21 15 28 0 21 28 6 27 3 29 8 2 7 21 35 9 15 1 1 34 14 31 2 14 10 5 11 33 38 20 30 31 8 27 37 25 12 34 27 14 13 28 13 15 32 8 30 16 36 15 22 38 1 28 10 28 14 18 30 35 25 1 24 22 12 19 6 34 33 35 31 6 34 33 34 8 28 15 22 39 26 18 2 16 18 18 26 9 30 15 5 17 26 33 14 21 24 5 12 1 11 16 38 22 26 1 15 34 10 7 19 31 38 30 10 38 37 5 1 36 16 32 29 13 10 11 21 24 31 15 18 4 1 39 5 39 33 32 26 29 30 4 24 35 26 9 23
3252 4802 2638 4605 3728 2944 4721 4857 3036 3432 4936 4861 4067 4281 2976 2842 3513 2682 4640 2751 4996 3905 4098 3920 4030 4114 4475 3842 3264 3052 4349 4891 3577 4718 4782 4572 2973 2527 2891 4051 4153 2541 3478 3903 3298 3694 3210 3505 2827 4303 4309 4715 4363 4234 3720 4309 3277 4068 4040 4156 3761 3258 3727 3988 4492 3569 4392 4487 4559 3098 3435 2670 3234 4676 3896 2894 4224 2699 4497 12 3817 2601 2802 4372 4250 4615 4893 2772 4816 2735 3223 4020 4569 3867 3878 2540 3941 4591 3294 3324 3457 4818 4154 4126 4620 3779 3933 2602 2910 4310 4758 3807 3970 3344 2879 4437 4207 2563 3259 4698 4145 2505 4171 3936 3058 2880 3407 4730 2567 4999 3547 3118 4274 4401 3092 4272 4357 3013 2518 4431 3829 4434 4633 4069 4216 3510 4692 2770 4964 4358 3411 4496 3502 3293 4050 3150 4087 4597 4251 4510 4069 3665 2516 2570 3259 4957 3324 4956 3958 2889 3152 3644 3473 4056 4035 4625 4196 2866 2669 3484 3158 3485 3997 3595 4203 2679 4250 4194 3259 4051 4030 4992 3366 3204 3183 3914 4757 4363 3652 4681 3718 4373 4690 3553 3140 3000 4595 4132 3373 3703 2894 3723 3649 3444 4565 3906 2737 4270 3172 4280 3110 3871 3094 2560 4958 26 10 38 23 24 14 9 35 14 23 17 37 26 17 34 16 24 30 1 13 12 34 10 34 14 17 8 19 6 36 10 20 12 12 14 25 37 21 16 30 30 20 37 21 32 18 2 18 5 15 15 20 30 22 20 17 25 37 2 13 17 18 35 12 7 7 15 16 24 23 21 9 3 22 22 17 9 36 36 10 2 37 0 26 20 35 27 23 38 26 13 29 25 35 6 16 11 6 1 33 4 8 1 28 25 16 2 12 22 23 1 26 11 9 25 17 34 36 39 15 15 12 35 3 36 13 36 19 6 23 10 6 31 38 32 33 33 9 14 39 18 27 11 1 8 37 31 9 28 5 4 20 13 25 15 3 18 22 4 38 26 26 12 6 9 12 29 28 30 11 3 16 26 30 7 4 22 23 2 10 12 30 32 23 6 37 11 27 12 33 32 39 6 30 38 35 29 28 13 15 33 11 33 11 20 18 3 4 16 39 3 38 12 25 31 11 22 22 22 1 11 23 14 8 30
3314 2654 3636 3621 2811 4671 3249 4816 3997 3322 4576 4143 4516 4649 3605 2552 2803 4683 3176 3624 3675 3404 3175 4129 2776 3266 4212 3190 3649 3398 2995 4294 4580 3305 3344 2571 4735 3981 3786 2702 2529 2950 3658 3940 4641 4238 3071 3153 3058 2969 4053 3467 4762 4074 2631 4198 3596 4510 3136 4134 4415 4745 4645 2550 3833 2909 4651 3154 2595 3523 3905 3724 4186 3420 4496 3333 4344 4304 4489 4468 4847 2945 2827 3480 4019 3431 3223 4191 3433 2547 2846 2649 4975 2716 4577 4719 3921 2884 4851 4007 4894 2990 3389 15 4847 2677 2790 4619 4425 3374 2755 4451 3523 2774 3452 4042 4549 3720 4112 4118 3952 4960 3630 3496 4385 2845 3185 4034 4355 4122 3229 3722 2977 4515 4412 3200 4180 4123 4359 4478 2694 3170 4853 4628 3850 3125 3153 3423 2587 4104 4923 3379 3926 4820 3261 4611 4422 2870 4194 4263 3600 3419 4604 4913 3350 3970 4877 4004 3255 4831 4367 3739 4792 4201 2708 3458 4969 3057 3104 10 3886 3900 3036 3643 2752 4103 4512 3513 3121 2987 4486 3596 4245 4575 2953 4926 4747 2667 3991 4385 4015 4851 2638 4527 4968 4541 3195 4428 3186 4134 4771 4128 3890 4714 2502 3921 3649 3348 4995 3493 4428 4267 4300 18 3942 16 14 33 9 17 17 22 32 6 28 22 21 22 12 13 34 21 8 10 28 18 4 18 36 38 2 18 15 32 19 23 26 21 34 35 26 1 7 37 13 15 20 28 3 27 11 12 39 11 25 29 4 8 18 27 22 11 35 33 14 33 32 2 32 10 11 1 13 34 18 38 20 30 1 7 3 9 14 31 38 31 39 15 0 11 9 28 37 4 7 27 28 20 22 20 11 33 17 17 16 33 29 13 25 39 17 2 18 11 2 34 4 24 13 6 9 20 16 13 21 31 32 18 1 3 19 33 15 35 35 22 12 33 6 1 3 23 34 4 11 24 25 21 24 16 27 24 4 3 11 12 16 39 30 13 4 19 19 27 12 37 26 25 6 24 3 14 27 11 7 10 14 20 28 30 13 20 1 9 8 24 30 29 37 13 6 24 13 10 12 6 23 31 26 5 7 3 16 22 6 13 4 28 30 25 15 17 13 38 30 5 26 34 25 28 7 39 30 7 11 2 30 8 18 27
3476 4425 4865 4847 2809 4805 3699 4331 2708 3647 4558 4965 3497 2593 4514 4557 2581 4149 3896 4897 2501 3021 2518 2666 4446 2712 2692 3518 3417 3066 4229 2597 2670 3494 4727 4710 4351 4760 3811 4551 2803 4813 3017 3437 2519 4519 3254 4526 3853 4464 4932 4973 4780 3853 3417 4127 3454 3932 3238 4440 4204 3707 4683 3863 4247 3602 3207 3882 3748 3609 4760 4227 4100 3764 4457 2596 4447 2693 3538 4561 3907 4358 3597 4985 3326 3483 3488 3941 4955 4283 4447 4914 2857 3026 2799 4434 3597 3163 4142 3523 3857 3994 4637 4147 3498 3027 4016 4223 4857 2952 4072 4582 2758 4698 4772 4033 2994 2737 3711 3742 3744 3373 4602 4816 4305 3898 3192 3947 4818 4671 3545 3704 3868 3633 3032 2664 3049 2756 4457 3856 4264 3147 2976 3053 4132 3277 2553 4986 4444 4089 4400 4805 3809 4019 4589 2616 4990 2524 2715 4251 4206 2839 3011 4058 2994 2850 4714 3945 4026 3221 3379 3535 3738 2987 2961 2752 2799 4187 4800 4165 4666 4936 4578 4291 3084 3815 4442 4117 3801 4102 3182 3538 3338 2969 3834 2755 2665 3069 3069 4941 3077 3515 3050 4609 4502 3978 2947 4512 4031 4296 3647 4147 3658 4274 3357 4305 4209 2889 3241 3341 3834 3167 4395 2533 2930 14 21 27 16 4 23 29 13 27 15 4 35 37 13 22 15 29 32 23 1 7 29 20 31 7 31 22 16 38 19 24 33 9 10 13 1 17 13 21 27 24 34 33 6 34 27 21 13 23 8 2 29 32 24 23 23 22 24 28 19 21 22 32 4 28 30 14 14 6 21 7 17 21 20 23 8 4 17 32 24 4 26 24 26 0 15 6 30 15 28 4 39 38 11 35 5 9 3 19 1 26 18 22 9 10 34 29 12 20 38 17 24 14 27 5 5 18 15 24 12 18 3 32 33 16 3 28 23 21 10 14 18 20 10 31 30 34 21 26 31 13 26 36 34 1 33 15 33 37 27 22 6 9 14 27 18 31 32 28 16 10 17 20 28 37 10 34 4 1 25 29 39 3 37 32 24 23 39 13 32 11 17 28 6 34 23 33 31 28 36 16 36 20 15 3 38 10 37 25 21 23 36 38 12 30 14 9 35 20 3 9 8 5 37 6 7 11 13 27 24 19 8 6 37 23
4755 3118 4464 3785 3653 2505 2983 4339 4900 3668 3924 3928 3185 2526 4072 4255 4056 3952 4032 2834 3335 3107 3648 3388 3739 3728 4976 4627 3970 2736 4218 4218 3094 4714 4173 4771 4281 4529 4940 4100 3374 2730 3644 4392 4516 4094 4756 4634 3129 2576 3229 3622 4571 4931 3333 4362 3672 4340 4167 4945 3135 3813 3813 4124 2648 4202 3671 4075 4723 3562 3880 4771 2831 3238 3157 3402 2936 4363 3123 2851 3410 4459 3471 4605 3866 3212 4121 4454 3670 2842 2985 2769 3021 4925 4329 4785 3695 3982 4459 3436 3685 4131 2864 3767 2586 3649 4588 3416 4879 4807 2818 3186 2679 3073 4646 4011 2637 3536 3418 4857 2855 4684 3333 3114 3210 4838 3601 4383 4970 4207 2857 3946 3032 4309 4096 3986 2585 4916 4273 4736 3046 3888 4779 4286 4484 3073 3188 4649 3704 4961 4668 2727 3349 2670 4194 3818 2673 3522 3004 3987 3763 4928 4475 3653 3838 3181 4445 2976 3421 3041 2536 4042 3370 2967 3929 2574 3537 2508 3951 4800 3198 2602 3670 4395 2750 3054 3778 3170 4757 4470 3882 3299 3924 3716 2699 3337 4965 3719 4276 4560 3424 4826 4636 2876 4641 4129 2886 2900 4807 3144 3295 4579 4568 4194 2911 3267 4219 4711 3536 4742 2876 2845 3571 4196 4452 28 1 24 33 29 33 13 37 19 21 35 29 35 26 1 10 28 38 35 14 19 29 1 25 31 30 38 12 8 23 18 11 21 6 10 35 34 22 33 1 19 13 15 6 35 31 39 29 26 19 26 8 2 36 21 11 18 18 20 34 18 17 21 26 15 30 14 39 14 18 27 30 17 3 3 9 30 23 28 23 18 38 19 15 12 0 19 5 28 16 24 12 38 38 11 13 22 16 10 9 35 21 32 21 15 12 7 16 34 35 1 1 1 25 24 16 21 23 13 5 29 19 26 19 28 15 23 35 16 8 22 15 6 4 6 15 25 22 33 37 14 21 17 24 11 12 10 12 24 29 27 16 29 17 31 5 26 24 36 18 16 25 39 31 37 22 36 14 8 21 25 32 38 8 38 35 11 39 35 24 15 18 11 13 38 33 37 11 12 11 7 3 25 30 17 32 19 12 36 37 9 22 28 36 7 12 27 33 30 36 30 20 3 15 10 13 10 2 18 37 6 31 16 22 15
2878 4350 2596 3668 4233 3886 2996 4898 4003 4490 2879 3310 2571 4876 3709 3255 4253 3213 3486 4401 3192 2979 4023 4178 4437 3710 2984 14 4600 4203 4729 3569 4108 2818 3878 2637 3303 4603 4593 4867 4890 3142 4951 4379 3530 3821 4747 4189 4068 4712 2529 2725 3348 3167 3344 2672 2818 4055 4373 2682 4458 4601 4397 3650 4529 2705 3097 4269 4665 3727 2575 4394 2540 4774 2529 3757 3972 2674 3935 4278 4006 3978 4463 2986 3821 2567 4443 2901 3970 3998 4405 3458 3429 4890 3055 3277 3564 2921 4892 4497 3003 3009 4383 3544 2770 2560 2746 4364 2903 4553 3854 2930 2965 2586 2950 2750 4396 3506 4939 4416 3552 4020 3994 4206 3665 3867 3821 2928 3710 4941 3074 3846 3805 4424 4757 4281 4463 4187 4272 4435 4815 3030 4105 2515 2894 3489 3322 3210 3419 4737 4093 2788 2741 4899 3626 2969 4419 4162 3447 4281 3986 2674 3810 3485 3121 4275 4831 2689 4513 2725 4053 3587 2592 2946 3176 2516 3528 2821 3115 4248 2887 9 4291 2769 2570 3348 4712 3405 3643 4988 4852 4380 3126 4636 4828 3511 2842 4922 2625 3088 4934 2673 3199 2955 4825 3405 4264 4472 4409 3886 2991 3488 4968 3400 2919 4086 3170 2683 2760 4477 4043 2986 4387 3769 3733 3 27 35 25 39 36 23 1 29 23 3 12 20 39 30 21 30 30 21 22 12 22 7 6 24 18 21 35 14 9 39 3 29 36 36 14 22 30 28 6 2 36 26 38 33 30 38 37 30 18 5 5 38 22 4 15 12 33 19 27 13 21 26 25 28 24 38 15 12 7 6 1 32 29 24 18 20 16 17 22 9 28 1 4 16 12 0 32 38 20 23 2 39 19 34 38 25 17 11 23 12 9 18 36 16 7 19 5 21 18 27 16 5 13 9 30 14 10 34 23 20 29 37 34 2 9 21 7 17 37 17 36 14 37 32 15 11 28 14 5 11 23 28 22 31 39 33 2 20 37 14 1 23 2 20 14 29 22 3 22 20 31 2 28 3 23 11 32 6 7 37 5 23 26 9 8 17 5 37 25 28 4 25 35 31 11 26 16 39 15 37 31 39 3 30 31 26 39 16 32 5 25 27 3 3 17 39 39 21 32 35 1 4 11 28 8 6 34 7 38 36 39 21 19 16
2877 3235 3985 2553 3446 4550 3014 2774 4379 2831 3175 3805 4932 3782 3159 4225 3129 2568 4138 4332 2726 3531 3457 3563 3024 3069 2588 3907 3896 4462 3992 3937 3676 3288 3159 4770 4906 3903 4236 4298 4590 3816 4413 3191 4714 3441 2776 3488 4390 4974 4669 3556 4390 3140 3747 4527 2758 2551 4722 3586 3449 2773 2774 3397 4640 4700 4001 4855 3163 3847 4780 4191 3023 4544 4884 2906 3649 2624 3467 4041 2660 4085 3900 2534 4038 4755 4434 3687 3502 4816 4798 3207 3398 2774 3954 4247 4408 2795 4624 3010 4342 3720 4117 3845 3580 3514 3449 4564 3990 4317 4672 4322 4427 3301 4114 2514 3302 4980 4629 3475 3532 2548 2991 3746 4340 4929 4678 3838 3973 4615 4318 4406 4365 2647 3164 2798 4377 3531 2693 4275 3449 3540 4762 3061 4243 4290 4978 3172 4718 2870 4963 4769 4711 4778 3758 4806 2519 3125 2845 3182 4747 3272 3829 4345 3455 3190 3422 4873 4220 2501 2858 3615 3478 2984 4373 4038 3590 4509 4349 3478 3005 4647 2968 3089 3324 4981 2937 3416 4596 4820 3402 2565 3285 2926 2776 4421 3414 4632 4207 4747 3180 2857 3778 4218 4880 3299 4506 4269 4170 3442 3401 4364 3105 3099 2652 4831 3220 3646 4108 2678 4313 2701 4781 4673 4370 1 30 22 37 22 19 35 9 16 23 21 39 20 23 19 30 12 10 25 7 36 19 17 38 30 19 22 17 33 28 3 14 12 38 15 6 16 31 12 8 27 4 4 34 23 13 37 4 39 36 12 32 27 3 1 7 18 9 1 4 36 10 10 24 1 7 30 3 31 2 21 8 20 17 1 36 15 31 34 1 39 13 31 35 37 20 39 0 17 5 24 3 13 1 26 1 38 11 4 25 24 37 13 11 5 39 3 15 21 11 9 12 29 22 19 2 28 36 14 34 2 38 2 39 7 25 16 14 7 22 20 15 26 38 38 7 11 22 18 30 13 5 35 34 10 21 34 21 20 27 28 13 33 2 1 17 30 15 15 7 29 2 27 33 17 26 24 38 24 30 5 18 23 25 36 24 4 38 25 10 13 25 35 39 36 31 4 15 29 26 27 25 1 39 11 12 10 32 16 11 2 38 13 1 8 24 11 2 12 35 11 10 37 30 21 16 3 3 21 3 6 6 32 22 39
3465 2512 3369 3033 4556 2657 4874 3455 4176 4116 3234 3801 4062 3119 4591 3855 3713 3531 4059 2931 2795 2804 4871 3021 3147 3615 3823 2656 2743 3792 4283 2743 3620 3463 3776 4142 2558 4072 4151 2578 4323 4693 3507 3592 4112 3238 2929 4558 3076 4151 3834 4882 4251 4655 4015 2604 3837 4496 2856 2574 3259 3952 4979 4701 3079 2844 4676 2517 4764 3221 4285 3205 4523 2704 2576 3024 3297 3770 2601 2614 3927 3516 4382 2745 4565 3223 2545 2831 3776 2727 3896 3553 4275 3975 4155 2949 4840 2689 4802 4992 3184 4730 2741 2984 3244 4230 2870 4397 3720 2895 3502 2931 4464 3730 3549 2965 4908 3759 4985 3006 2823 4658 2804 4097 4070 4627 2603 2837 3455 18 3210 3451 4333 12 2537 2972 3059 4648 4162 4939 4263 3058 3175 3640 4765 4677 3102 4886 2506 4421 3073 4015 4442 4286 4281 4055 4137 3140 4329 3693 4758 4767 3096 4968 4183 2752 4042 3696 3854 2786 3424 4791 3096 3632 3570 4515 4778 4710 3046 4316 3725 4648 3018 4469 2898 3467 2947 4094 3355 2758 3122 3119 3613 3448 3910 2798 4016 3091 4663 3322 4883 4073 3694 4508 3715 4696 3735 4653 4702 2548 3667 4147 2759 2607 3924 4177 2899 4298 3049 4989 2691 2613 2505 3748 3687 28 10 18 18 35 12 29 30 33 27 6 21 18 18 36 25 26 1 30 17 3 34 37 4 34 22 34 38 37 39 15 13 9 39 35 22 17 7 34 17 27 23 31 4 11 7 5 37 7 15 9 30 15 22 25 30 31 31 33 29 6 21 12 33 39 15 39 21 33 2 25 34 34 27 25 28 27 39 11 12 12 29 1 33 1 32 18 34 0 7 7 1 14 30 20 22 36 32 15 21 31 36 13 21 7 17 11 19 1 7 21 24 15 4 39 22 16 26 6 33 12 29 39 32 36 14 31 32 11 4 22 21 24 5 5 37 6 36 1 7 30 30 38 25 31 26 35 6 31 34 8 11 13 17 34 8 39 2 7 38 32 19 4 8 12 17 9 10 1 31 3 32 34 27 32 33 29 14 13 22 12 8 17 29 38 17 2 22 34 37 12 1 24 32 28 3 4 9 34 16 2 33 28 14 24 11 37 27 35 30 11 21 10 1 1 9 21 8 31 33 6 16 25 19 30
3912 4143 4790 2514 3188 3993 2634 3863 2769 3793 3198 4229 3395 4777 3931 2713 4740 4204 3359 4840 4840 3690 3261 3769 2964 4473 5 4860 3375 4081 4798 4237 4900 2821 4473 4611 3892 3729 2603 3126 4170 3583 4361 2965 3509 3343 2853 2841 3323 3251 2876 3425 3753 2930 3086 4842 3766 3183 3288 4703 3378 4525 3109 3862 2865 3290 4383 3033 3759 4808 3551 4955 3668 3459 2760 3214 4801 4923 4379 4263 3222 3386 2779 3673 2631 4284 2823 3092 3248 2713 4891 3678 3269 4075 3913 2742 2596 3379 3411 4254 4215 4272 4680 3593 4642 3058 3031 2907 4374 4938 3151 4769 4088 4002 4540 2958 3981 4912 4755 2926 4265 3560 4973 4159 3136 2885 3498 3656 4188 4328 3481 2699 4446 4733 2925 4186 4151 4928 4781 2669 4999 3374 3823 2706 3599 3375 4175 4644 4225 3166 3153 3308 4558 3284 3389 4491 3042 2519 4989 3119 3989 3904 4464 3607 3765 3792 3784 4369 3210 3156 3530 3931 4663 3080 3240 3444 4012 3763 3016 3668 3235 3238 3796 3229 4607 4699 4106 4588 3405 4250 4508 3151 2876 3682 2723 4585 4263 3627 3582 3371 2621 4452 4974 2974 2811 3695 3663 4682 3656 3106 3478 2981 3149 4830 2831 4435 4834 2659 3158 3373 3317 2646 3070 3699 3870 8 29 1 6 13 22 15 39 2 32 35 11 6 18 1 31 5 12 30 25 27 9 8 28 7 9 19 6 12 6 21 32 13 19 13 3 15 24 11 9 39 15 18 16 35 1 27 15 9 29 24 3 39 26 15 3 30 13 2 1 27 4 8 7 29 16 14 29 33 1 6 34 1 14 22 34 39 24 34 24 14 20 17 8 32 18 17 31 1 0 31 39 30 9 36 18 16 37 33 2 7 39 23 34 26 5 18 35 29 21 33 8 1 35 37 39 3 11 14 5 29 29 36 23 4 12 14 35 13 8 21 3 7 24 7 30 12 12 35 34 20 39 11 38 31 3 3 25 1 7 29 16 2 29 13 17 27 6 24 24 21 38 3 13 13 14 35 10 35 39 8 1 34 15 2 25 2 36 33 39 25 33 30 23 35 29 27 5 12 27 13 33 9 5 19 25 29 28 15 6 34 18 2 23 9 34 1 25 20 27 24 31 8 18 2 31 33 38 25 34 28 9 38 15 38
2571 3473 4542 3512 4445 4847 4669 4697 3827 3285 4590 2977 3970 4993 4386 4262 3593 2795 3331 4466 4306 4986 4872 3976 3841 4686 3464 3689 3069 3692 4562 3606 4684 2902 3738 3451 3505 4234 3379 4185 3213 3004 3619 3329 3422 4202 2889 3499 3653 4123 4832 2550 2679 2662 4927 2858 2560 2747 2846 4495 3436 3278 4080 4869 2790 4920 2712 4545 4983 4287 4445 2742 3537 3068 2958 4761 4291 2923 2588 4189 4317 3882 4128 3811 2758 3058 4013 3680 3964 3002 4233 3543 2896 3688 2566 2862 4319 4849 3200 4578 4773 2523 3655 4981 3413 4559 3563 2583 2703 4154 3579 3689 2955 3481 3967 3860 2963 2966 4793 3735 3445 3181 3514 2722 4916 3071 3936 2753 3827 4378 3293 2560 4834 4311 3726 4898 3062 3642 2849 4019 4711 4384 4526 3903 4363 3551 4968 2949 2648 2977 3817 4141 3269 4903 2817 3603 2792 3902 4594 2988 3678 2671 3896 2513 2669 3102 3094 2860 2945 2616 4062 4094 3603 3490 4020 4566 4529 3237 2669 4306 2634 4281 4595 2571 2513 4354 2953 3192 3569 4016 3216 4272 3663 3859 4176 4919 3686 4981 2556 4041 3269 2643 4532 4897 2971 2773 2977 4771 4775 3605 4751 2535 3271 4258 4823 2866 3259 3905 3436 3763 2781 2780 3782 2650 4440 5 30 25 12 37 17 9 31 6 2 22 38 2 10 12 8 24 6 11 35 29 6 4 37 11 3 27 29 39 32 9 37 27 4 30 20 30 11 23 36 9 15 6 14 35 15 20 19 3 33 17 24 20 36 38 2 1 25 38 35 22 21 24 7 29 15 18 35 25 13 6 21 10 9 26 16 25 17 15 5 3 19 9 1 31 6 27 34 27 30 0 28 30 20 38 12 31 24 21 13 14 11 33 1 15 15 32 2 36 6 34 3 13 8 35 34 31 31 19 33 28 27 32 19 9 30 33 14 39 5 28 18 1 5 14 1 22 9 37 25 37 5 30 13 2 32 29 27 16 20 18 8 5 14 28 23 2 13 23 32 3 6 18 9 8 17 36 39 35 23 8 12 17 25 4 37 22 15 17 17 16 9 32 18 18 22 9 28 18 38 18 23 5 27 14 19 4 11 16 7 20 11 39 12 1 38 8 29 21 31 27 19 15 31 4 5 14 17 22 24 30 6 13 12 24
4877 2921 4403 4093 4379 3596 4452 3489 3922 2785 4312 3848 4527 3781 3779 3323 2887 4026 3266 4840 2730 3747 3352 2831 4127 4659 4400 2579 4921 3899 3018 4052 3139 4725 4361 2632 4027 4060 3617 4406 16 4694 4544 3634 3635 4887 2963 4987 4032 4994 3851 2540 2891 4264 4734 2632 2880 3178 4309 4147 4179 4036 3575 4231 2873 3669 3166 4986 2870 3269 3248 3525 4650 3542 3978 4637 2750 4918 2920 4502 3322 3194 4585 2959 4685 3292 4596 4193 4822 2544 3429 3508 4168 4716 4483 3181 4221 3243 3236 2512 3851 4111 4277 3663 2685 2622 3323 3663 4117 3827 2683 2691 2772 2795 4451 4742 3302 3279 3077 4609 4980 2569 3921 4534 3546 3186 4607 2589 3645 4868 4513 3502 4724 4549 2995 4173 3902 2953 3801 4791 2819 4747 3724 2859 4880 2585 3765 3350 3041 3988 2588 4837 2748 4988 3827 2978 3078 3087 2766 3382 4448 3000 4660 3752 3161 3732 4552 3465 4473 2737 4511 4168 3080 2562 3183 3296 4748 3369 4860 3565 4934 3706 2540 3148 4525 3247 3508 3748 2902 4098 2588 4537 4758 2570 3704 4199 3494 3303 4451 4963 2941 4428 4817 3407 4684 4706 3601 2965 2550 3909 4917 2900 3208 4323 3353 3092 3345 4374 4808 2945 3151 3987 3122 3893 3395 17 6 30 31 6 27 29 36 39 30 14 17 2 2 32 16 22 39 26 30 29 34 16 17 6 4 28 26 20 3 15 37 11 38 13 15 33 7 15 6 13 4 26 25 28 31 23 21 27 34 37 2 3 22 18 15 13 10 18 28 34 5 11 38 32 26 29 10 1 32 30 1 3 6 1 16 1 25 16 13 25 31 36 35 26 22 34 14 20 17 37 0 1 5 31 23 30 33 25 19 9 28 7 34 28 21 29 6 22 39 11 28 6 21 23 32 3 7 2 12 28 19 29 35 2 4 34 10 23 9 31 21 18 20 10 15 8 23 24 36 33 10 25 34 35 17 28 14 15 4 16 2 37 15 4 39 15 31 3 7 1 23 29 35 37 6 21 16 2 30 10 35 32 23 3 25 37 39 4 2 17 1 32 35 24 21 8 27 26 10 29 7 37 9 2 34 11 6 10 19 22 22 13 35 11 36 16 26 34 19 32 9 13 15 15 20 9 17 30 25 7 32 39 10 29
4616 4381 4420 7 2831 3382 3710 4490 3708 3523 2666 4955 4174 2817 4526 3856 4303 2622 4664 3443 4983 3806 4956 3509 2767 2652 2690 3209 3051 4748 3349 2776 3277 2611 3441 12 4224 2630 9 2627 3521 2829 4572 4447 4654 4990 3994 3901 4238 4740 3981 3739 3673 3442 4481 4772 4921 4475 2616 3610 3509 3580 2547 4215 4473 4116 4330 3143 3667 3418 3552 3622 4019 2772 4405 4602 2959 2759 4980 4073 3517 3200 4311 3939 3631 4197 2501 2666 4522 4535 3695 4593 3736 4028 3038 4738 3209 4381 4694 4354 3876 4032 3972 3490 4717 2732 3858 4268 4022 4998 4783 3511 2689 2577 4366 4754 4777 4659 2672 3660 3040 4369 2592 4915 4963 3017 2503 3727 3022 3879 3331 3967 3183 4072 3219 3477 4661 3041 2668 4063 4971 3570 4170 3498 4644 3838 3492 2621 4713 4145 2729 3326 3982 3272 2774 3468 3303 4585 2928 19 4172 2902 3907 4304 3786 3630 4435 3396 3944 3856 4704 2584 4006 4523 3517 4075 2875 4893 3425 2583 4942 3456 3225 4779 4633 2952 3220 2919 4156 2953 4426 3602 3697 4079 2859 3941 3317 4759 3367 3159 4340 4972 4152 3037 3777 4336 4799 4809 4721 4323 2868 4439 3665 3660 2710 3307 4818 4838 2804 3894 3004 2693 4688 4852 2689 2 1 18 5 6 9 8 25 2 6 31 25 31 28 3 5 5 8 4 17 31 18 32 18 27 19 38 23 35 26 27 33 26 30 28 10 28 34 22 8 25 25 17 17 15 21 30 9 17 2 18 29 39 10 2 4 30 6 21 3 9 17 4 38 6 33 7 38 34 20 4 24 1 30 26 32 31 10 31 9 19 39 9 18 4 32 16 8 32 36 37 2 0 2 35 17 28 33 4 39 6 39 34 13 6 23 27 3 18 15 34 38 15 10 25 35 4 37 33 31 38 21 31 15 21 39 33 3 37 10 17 19 9 20 6 26 39 3 27 34 5 2 9 32 9 6 14 7 1 25 27 8 17 39 35 15 33 35 34 33 29 14 16 5 18 15 5 3 9 33 36 33 17 34 32 26 8 36 20 7 31 18 36 19 10 4 18 31 18 15 39 3 3 6 31 25 27 18 19 11 39 9 9 16 12 23 17 27 5 11 11 35 23 34 11 1 19 9 15 21 21 31 11 16 39
3683 2909 4243 4368 2672 4179 4357 2542 3737 2778 4321 2724 4615 2874 4385 3972 3323 3130 4719 3075 2847 3799 2737 4899 3752 4081 3506 3639 9 2910 2582 12 4753 3349 2819 3050 4064 4389 4110 3683 4842 2988 3778 2855 3872 3143 2679 3706 3603 2564 4072 4334 2569 3122 4901 4546 3806 2780 4780 4077 2724 3539 2965 2622 2828 4385 4705 4345 3587 3146 3953 3335 2924 4553 3165 4984 4000 4403 3325 2674 3297 3765 3995 3629 2587 4890 4676 3900 3771 4120 3122 4233 3635 3287 3638 3162 4263 3729 3538 4121 3763 3843 2842 3254 4865 2760 3055 4937 2732 3997 4507 4981 3856 2930 4230 3623 2991 4484 3790 2903 4158 4700 3087 3019 3267 4400 2761 4069 3022 2785 3676 3321 3986 2651 4763 4589 13 4576 3094 4326 4512 2935 4841 4281 3106 4395 2977 4883 2872 2619 4731 4783 4963 4889 4413 4032 4148 3200 4191 4383 2866 3991 4283 4597 3720 12 3390 4265 3704 3735 3526 3032 3813 4154 3129 3844 2845 3761 2814 4718 3336 4989 3569 4598 3158 3047 3710 3706 3285 4217 2786 2715 4193 4534 2987 3918 2541 3312 3767 3274 2504 4549 3050 4781 4396 4286 3291 3246 3252 4384 4440 4453 3867 4363 4506 4984 3899 3286 4689 3728 2577 3537 3550 4821 4479 30 12 13 11 24 13 15 39 16 21 29 5 13 10 33 36 10 31 16 20 20 15 16 31 33 32 3 15 30 32 5 39 7 2 14 26 23 39 3 5 8 33 9 11 24 12 16 4 2 15 25 13 35 35 8 25 19 23 37 32 39 34 14 35 15 14 9 27 18 27 30 2 20 11 31 33 8 37 7 34 11 18 31 20 29 30 24 38 31 23 32 28 36 0 16 21 15 13 30 20 17 32 36 33 26 9 39 15 13 13 39 38 37 22 2 38 32 22 6 20 7 7 2 5 7 18 15 13 33 18 7 12 9 13 32 12 21 19 31 14 14 21 14 32 35 24 34 38 10 32 39 25 23 5 39 36 11 36 25 33 18 12 15 1 37 37 21 2 30 28 25 30 15 6 5 17 28 11 10 34 5 26 3 27 21 30 4 20 22 27 26 16 20 14 27 28 16 17 33 3 1 24 19 23 14 5 17 26 36 22 33 15 10 17 9 21 28 31 6 16 7 25 28 11 23
3922 2561 2676 3571 2701 4138 4039 4344 4957 3485 4780 2717 4794 3093 4114 3475 4860 4488 2981 4637 4079 2947 3040 4991 2632 2559 4812 3993 2715 4607 4338 3876 3089 2556 4042 4789 2876 4445 3344 4853 3022 3431 4119 2687 3690 3664 3733 2913 2992 3621 3525 3507 2745 3879 2882 4568 4394 2846 4083 2902 3614 3251 2871 2521 4679 4614 3741 3512 15 4264 3516 2588 2645 3663 4070 2983 3965 2779 3676 4445 2756 4775 4664 2876 4319 2902 4871 3822 4682 3371 4000 3190 3146 2886 2847 12 2573 3890 3346 4347 4667 2687 3316 2989 2994 4801 4002 4631 4882 4186 4803 4651 3789 2822 2514 4850 3057 2614 10 3605 4016 2536 2572 3563 2810 4188 2648 3444 3827 3862 4478 3646 4557 3386 4095 2634 3593 4543 2593 4867 2594 2784 4945 4618 3652 3401 4172 3502 4314 3509 4352 2828 4664 3459 2716 4431 4872 4553 3862 3400 4054 2744 4551 3875 3701 3118 4123 2787 4377 4537 4630 4754 4696 3338 3546 2846 3149 3064 4731 3816 2791 3961 4675 3372 2725 3911 4506 4016 2829 4796 4503 3966 4387 3305 2656 4190 3447 4293 4294 2697 8 4768 4019 3889 2935 2599 3151 2889 4357 4166 4564 4806 3929 4087 4786 4957 3497 3571 4823 2623 3779 4306 2529 3837 4713 9 3 37 24 11 33 12 36 35 27 11 21 21 1 11 9 38 34 5 37 23 2 13 33 21 37 39 28 8 16 25 17 31 33 34 26 29 5 16 9 29 31 8 32 10 29 32 36 36 8 28 35 4 19 37 18 11 3 14 10 19 30 13 27 6 20 39 31 34 24 16 31 7 20 9 31 35 32 18 35 10 31 4 13 35 34 39 14 39 19 37 24 15 18 0 22 14 17 11 11 35 39 19 24 21 11 36 25 7 18 18 19 16 36 15 5 35 16 8 28 5 8 18 24 2 16 12 25 36 30 14 38 16 13 4 37 27 22 36 12 10 32 36 37 34 19 38 33 20 15 28 15 39 15 12 39 17 12 31 23 30 2 28 14 22 32 9 2 4 10 36 20 16 10 38 7 13 23 6 38 11 25 27 23 5 19 26 6 12 4 22 13 3 20 15 23 12 36 4 23 3 25 7 36 20 18 28 12 21 4 37 35 32 31 26 13 22 23 18 21 4 39 11 31 8
2798 2825 2563 4317 4990 4440 2549 3239 3527 3785 4657 2933 4260 3624 2933 3414 2734 4514 2767 3157 4534 4398 4403 3086 2904 4986 4008 4210 3047 4656 2944 4221 3957 4645 4004 4066 3774 3460 3849 2812 4923 3640 2804 4033 3932 4016 2556 4924 3322 4367 3864 3123 4322 4128 3342 4001 3195 4931 4697 3653 3282 3411 3268 3562 4558 2583 4464 4571 3805 3307 4452 3750 3832 2575 3333 3006 2794 3977 3641 4475 4730 2612 3088 3551 3732 4726 3062 4089 4426 12 4375 4118 3061 2967 3556 3734 4098 2941 4895 4212 3089 3053 3974 3182 4157 4424 3146 3105 3524 2964 2997 2972 3771 2687 3727 3024 4429 2729 2991 3909 3490 3491 2659 4745 2698 3489 3909 4991 3700 3966 2787 3822 4530 3097 4078 4322 4226 4893 3853 4208 2581 2867 3081 4973 4795 4113 3105 4583 3164 3148 4732 4458 2812 4435 3810 3747 4798 3977 2891 2842 4476 4848 3063 4961 2572 3879 4298 2987 2575 4716 3551 3284 4583 3978 3048 2731 4477 4137 3408 3983 4245 4294 2697 4230 4801 2829 3135 4087 4069 2989 2895 4690 3772 2604 2897 3710 4380 4231 3567 3088 4146 3707 3624 2908 3391 2708 4416 2992 2555 3719 2501 3021 4673 4671 3183 3279 4757 2733 4637 3432 4697 4971 4027 4070 3490 31 17 1 39 34 9 10 37 37 8 9 4 8 27 36 2 14 19 28 24 31 1 33 38 31 21 6 24 39 35 9 31 22 15 18 16 31 19 36 2 1 35 17 24 24 3 22 36 34 39 17 23 19 21 9 13 16 7 39 32 23 26 24 28 28 8 27 36 12 15 34 19 27 1 34 18 12 33 26 26 32 7 10 5 12 27 25 34 7 35 4 6 4 36 8 0 1 12 5 6 9 18 1 16 24 12 22 9 38 12 28 11 36 33 3 25 15 33 25 22 28 33 32 39 16 26 5 10 27 34 18 4 35 1 32 27 21 38 4 32 20 35 38 6 21 39 36 36 34 30 8 16 3 33 7 17 35 18 21 18 9 39 11 14 22 17 38 31 34 25 37 18 34 36 31 31 8 31 16 11 15 12 13 25 24 6 23 23 8 2 38 35 18 8 31 7 15 29 2 6 39 30 25 18 18 27 32 1 27 11 37 39 35 14 10 10 9 24 7 32 19 30 31 35 33
4552 4569 3903 4112 3622 3423 3749 2842 4964 3451 4020 3447 2517 3717 4628 3953 4384 4675 3903 3807 4244 3450 3722 3359 3855 4476 4016 4190 4630 3487 3841 3041 3607 3556 3755 3947 3940 3693 2741 4100 4003 4293 2628 3289 3347 2797 2584 3221 4460 3139 4143 2630 3626 3070 3605 2732 4380 4528 4701 3141 4190 2654 3864 2559 4721 3903 4556 3119 4437 4473 3330 3077 2833 3591 2878 4350 4863 4164 4111 4867 4572 3476 3776 3549 2585 4700 4396 4390 4686 2913 4829 3710 3987 3201 4176 4707 4865 3116 3334 4480 4937 3849 2762 3682 2890 4685 4593 3393 2708 3623 3243 4578 3693 3313 3299 4847 4305 4440 2586 4683 4315 3613 3315 3314 3545 3480 2673 4398 3201 3856 2713 2556 4711 3549 4741 3512 3062 2979 3694 3480 4652 4271 3696 4045 2954 3048 3372 4550 4996 4600 4798 4821 3322 2896 4540 15 3246 3497 3170 2944 4905 3128 4396 4565 4526 3841 2678 4042 4922 4351 4217 3593 3998 4607 2912 3845 4506 3881 3299 3199 4285 4555 4071 3867 4382 2717 4203 3907 3174 4604 4542 4706 4893 4203 3753 4195 3884 2719 2908 2952 3886 4051 3874 2611 3444 4660 4084 2922 3856 4524 2650 2805 4901 2681 4311 4662 2564 2654 4771 2675 4109 3896 3573 3257 2509 13 35 39 15 22 38 34 30 39 24 25 10 27 24 10 8 8 17 30 7 25 38 8 31 29 7 4 28 17 30 28 34 39 26 31 11 31 10 12 36 14 34 12 37 35 16 22 13 21 21 9 24 21 17 24 13 33 21 24 23 7 34 3 37 8 13 9 19 34 15 24 5 30 12 18 21 19 4 12 30 5 39 28 1 16 7 15 23 17 1 22 27 24 14 27 19 0 26 25 17 33 19 9 23 35 14 33 32 22 15 15 17 19 15 24 2 23 18 30 35 13 27 34 14 29 29 29 16 25 30 2 13 9 32 20 3 15 39 4 14 6 27 20 27 10 27 6 15 27 19 19 33 39 30 37 7 16 19 24 31 37 27 4 37 15 25 32 23 16 26 38 6 11 18 13 35 12 9 18 3 2 33 30 14 3 31 9 23 1 13 39 38 26 23 18 38 9 10 11 23 27 34 9 2 10 33 22 25 30 19 3 38 13 33 6 22 3 32 10 18 8 2 36 19 20
2866 3593 2776 3578 4061 2987 2689 2987 3888 3610 4390 2518 3295 2964 3047 3923 2969 2972 3353 2745 3846 4113 4604 4394 4425 3474 4155 3222 4206 2674 2644 3823 3628 3118 2644 4006 4989 4574 3670 4625 3592 2933 2673 3587 4358 4989 3446 2536 4543 3719 4004 3972 4544 3384 4463 2955 4212 4884 2769 4588 4566 4189 2515 3356 3927 3214 3345 3360 3213 3133 3067 3807 3372 3505 4479 4456 2803 4704 4762 3813 4360 3039 3548 4793 3690 4508 2509 4891 2829 2732 4287 4322 3492 4844 4915 4532 4742 4421 4804 4765 4194 3643 2912 4577 2887 4631 4733 4882 3722 4734 4292 2776 3076 3201 3476 2869 3843 3484 3394 3200 4349 3149 4164 4567 2949 4687 3251 4452 3422 2965 4890 4924 3965 4200 2574 3582 4462 3650 2701 3300 2860 4877 4128 3714 3910 3172 3666 2765 4131 4282 3746 2702 4261 4398 3108 3843 4061 4846 4494 3395 2960 4178 4341 3035 4402 4506 5 4668 2862 3885 4668 4685 3386 4046 3226 3413 3312 3177 3167 3084 3861 4251 2867 3119 4335 2717 3177 3306 3777 2877 4261 4801 4462 4442 2580 3128 3762 3091 4872 2782 4639 3540 4764 4316 3852 4240 3153 3121 3066 4024 3869 4449 2825 4564 3531 4035 3040 3238 2633 3349 4246 3540 3353 3347 4080 21 32 4 31 25 35 10 15 31 34 27 15 13 24 31 38 38 36 24 16 17 10 29 20 33 14 24 18 33 17 34 12 39 7 30 5 18 37 21 28 7 16 1 7 35 15 23 11 16 1 26 30 4 22 8 28 36 20 18 11 11 9 12 37 19 7 5 10 28 18 8 32 15 2 20 27 7 26 19 36 33 29 20 26 26 10 30 1 9 25 6 34 20 12 38 13 29 0 7 2 10 16 5 39 32 11 1 22 37 23 7 8 33 36 38 11 39 3 18 32 11 32 2 21 7 10 10 33 39 32 24 35 34 26 37 18 33 35 13 2 21 33 5 3 7 18 24 38 19 15 31 23 29 32 31 3 32 15 28 35 39 25 32 33 6 31 10 29 19 9 39 18 14 35 13 6 6 29 1 39 6 5 29 30 28 6 3 9 26 34 1 25 26 36 6 14 31 25 21 37 18 31 39 39 28 13 16 22 24 17 2 13 14 17 16 26 5 14 32 9 39 24 20 10 5
4232 3573 4480 3096 3853 4192 3104 3976 3507 4375 4326 4492 9 4415 4380 4152 2536 3874 4763 4574 3951 3959 3250 4800 4955 3464 4876 3419 3862 3478 3857 3248 4054 4504 4726 4714 4241 4359 2957 3855 3988 3764 3287 4133 3227 3832 3855 2881 3926 4232 3163 4461 3100 4741 3970 4305 3087 2988 3998 3879 4725 3785 2843 4530 3474 2506 4994 4015 4109 3838 4098 3179 3776 4040 2553 3482 4661 4726 3572 3159 4811 3723 2628 3739 2827 3670 4648 3832 3859 3745 3274 3249 2658 3314 2655 2861 3402 2731 3411 4155 3647 4252 4783 3936 4248 4397 3326 3180 3891 2534 3025 4809 3625 4160 4009 2862 2801 3656 3637 3179 3749 4174 3310 3644 3161 2500 4674 3401 3513 3720 3170 3484 3244 2767 4312 3801 4286 3034 4276 4777 2750 3958 3530 2684 3206 4449 3650 3499 3872 4304 3572 4383 2918 4764 3947 4611 3114 4756 2996 4029 3029 2628 4424 2811 4154 4982 4857 2888 4631 3848 4020 4849 2668 3651 2932 3798 2630 3136 4067 4644 4127 3798 4712 2859 3631 4165 4652 3440 2874 3148 4436 3500 2943 4266 3747 4674 3885 2601 4801 3654 3724 3771 3766 3048 3726 4646 3824 4314 3549 3101 4003 4272 4630 4408 3710 4310 3773 4435 4545 4578 3621 3184 4786 3415 3674 12 3 11 31 4 14 8 27 18 11 23 23 29 33 36 21 32 24 22 22 34 9 28 7 25 35 4 5 20 31 3 37 7 3 10 23 36 2 31 33 26 17 14 39 8 28 12 34 3 32 20 11 25 28 3 4 5 33 17 18 36 1 1 16 33 39 10 4 29 29 14 5 32 13 23 17 18 38 14 30 6 33 6 27 6 6 30 13 21 36 24 15 32 2 2 14 20 2 0 20 25 26 29 39 26 11 16 15 26 9 14 34 13 23 4 29 17 33 29 16 17 29 24 1 8 6 36 28 10 10 29 26 32 32 28 18 7 9 16 1 29 21 6 32 21 17 14 31 9 7 37 32 11 4 23 3 27 37 12 6 34 19 30 30 2 22 20 32 3 34 34 6 12 28 33 39 39 6 3 26 20 1 17 13 23 16 14 8 2 7 28 10 1 30 30 3 32 39 4 30 31 18 11 7 4 1 36 20 20 6 28 12 28 7 19 15 22 19 10 26 27 5 23 36 34
3955 3465 4764 2674 4413 3698 3419 2693 3717 3011 3518 3498 3231 3445 3603 2760 3817 3671 3523 3378 2828 3665 4107 4457 3659 3673 4039 3363 3031 3365 3138 4785 4669 4263 3616 4047 4433 3297 4298 3057 4831 3452 3154 3048 2884 4163 4261 2809 3640 2918 3123 3545 3808 3996 3127 4046 4227 4135 4938 3580 2674 3053 4643 4010 4567 4119 3400 4591 4871 3824 2911 2588 4137 3352 2781 4345 4305 3978 3634 4772 3292 4131 3140 4829 4259 4542 4379 2677 3727 4396 2808 2788 4780 4990 4781 3393 3618 4181 4960 4330 3338 4012 4836 2660 3942 4302 4175 4566 3370 4433 3437 4549 3558 3916 4772 3470 2588 4257 3381 4581 3953 3878 4848 3991 3787 3406 4150 3192 4081 4362 4782 3748 2834 3939 3351 4811 3411 3947 4411 4353 3412 3830 4061 4227 4887 4365 3056 4888 3128 3242 4847 4201 2829 4958 3777 4761 4953 3182 3847 4290 3514 2738 4263 4868 4479 3783 2923 4648 4058 4419 2605 3813 3137 4591 2840 3470 3586 4151 4864 3616 2535 3382 3731 4645 2505 4587 4913 4506 4848 3767 3293 3485 3026 3761 4360 4490 3183 4612 4217 4800 3338 4234 4449 4729 3201 2856 4582 2672 4206 4469 2977 3692 4092 4970 3707 3222 4210 4811 4972 3062 2654 4185 3757 3841 3614 29 1 22 21 7 2 35 6 36 31 34 31 4 6 5 31 19 9 22 36 5 4 32 36 24 4 31 35 31 39 32 22 14 4 31 8 3 12 25 3 35 23 11 37 30 5 37 8 7 35 28 28 17 21 2 28 33 30 29 32 36 1 27 36 25 35 10 9 24 4 36 27 6 37 34 1 35 21 27 19 39 23 4 23 24 2 38 36 37 23 19 15 14 38 8 37 32 28 14 0 21 6 22 2 23 18 20 4 20 12 21 33 18 14 25 16 10 5 17 24 32 14 34 29 11 1 14 32 6 16 17 14 5 23 37 35 26 8 34 38 33 5 25 5 15 29 3 19 32 39 39 2 2 32 24 4 25 11 22 13 5 29 31 1 5 6 23 29 32 35 28 15 34 20 21 21 32 12 23 16 23 29 10 29 24 3 39 24 15 13 2 19 26 29 5 2 39 19 24 24 1 8 11 7 39 39 9 27 14 20 6 6 15 9 16 11 29 6 24 9 16 29 18 19 29
4625 4821 2999 2554 4370 2559 6 4405 3416 2965 3902 4869 4604 4113 4548 2611 3248 4068 3388 4485 3982 3269 4329 2768 4360 4101 3023 4608 4474 3823 4720 3811 3341 3658 3848 3517 2882 3508 3690 4399 4868 2578 3521 4977 3721 4267 2720 3311 2574 4363 3893 2624 4106 3226 4975 4984 2907 4090 4120 2655 4468 4787 3566 3377 3716 4398 2616 3058 2817 3812 4053 4586 4963 4146 3577 4249 3702 2673 4075 4767 3626 4360 4360 2968 4808 4612 2810 4621 4489 4911 4709 4413 4423 4071 2800 3317 2506 2948 2843 2570 4897 2730 4506 2624 3488 4945 4173 3170 4227 4659 4768 4836 3342 3943 2513 3808 2812 4611 2515 4981 3304 4963 2903 2831 2501 2774 4125 3030 3659 3730 4099 3909 4597 4351 3163 4917 3092 2765 3579 4095 3850 3458 3204 2990 4690 3738 4353 2546 3624 3746 4303 4603 4711 3730 4874 4453 4490 2763 4128 4423 4925 4266 3892 4515 4168 3824 3962 4761 3571 4032 4121 4632 4523 4695 3981 3361 4502 3355 3035 3744 3990 8 4621 2684 4248 4590 3661 3241 4246 3221 4041 3834 3298 3640 4763 4832 3639 4500 3675 3500 4658 2537 4580 4498 3424 4230 4185 5 3550 2741 2566 3664 3527 2759 4698 4105 3996 4686 4173 4379 2996 4593 4383 3125 4622 11 23 12 12 8 7 21 39 19 1 9 32 11 20 33 21 19 24 17 39 34 19 33 33 24 7 34 2 32 13 28 37 15 28 10 32 13 34 36 39 23 12 10 9 30 9 19 36 1 31 30 1 37 22 32 16 23 30 35 10 4 11 18 13 30 22 5 7 24 23 34 30 24 33 18 24 36 11 19 5 8 2 14 30 14 18 10 22 27 4 16 19 9 36 22 38 36 18 39 2 0 10 29 8 8 12 2 4 7 24 27 4 17 32 6 10 36 31 35 15 15 38 21 37 2 16 32 16 9 30 3 39 27 27 30 31 8 18 34 35 9 20 17 14 26 17 18 23 27 8 10 33 18 1 27 18 1 19 15 2 3 6 1 16 29 34 19 36 9 7 3 9 2 22 4 1 19 26 4 27 19 6 31 2 9 10 35 34 13 39 21 24 35 11 23 24 39 27 34 4 37 25 37 21 19 1 39 10 3 31 25 21 11 17 21 19 8 26 5 27 14 32 28 16 34
3746 4200 4666 3824 4395 3456 3683 2579 2887 3086 3292 2666 4944 3230 2558 3864 3987 3321 2855 2916 3223 3248 4095 4053 2672 2510 3378 3024 4375 2756 4022 4080 4563 4545 3438 3786 2743 3888 3324 3360 4005 3785 3423 2964 3557 4408 3792 4731 2748 2586 2737 4686 4851 3382 4770 3616 3907 4201 4569 2662 4119 3486 4522 2856 4784 3922 4544 3756 3115 2628 3817 3172 2837 7 2608 3673 4699 2533 3712 3561 3770 4466 3913 2756 2812 3796 2920 2886 3135 3336 4680 3745 3373 4360 4034 3673 2646 3259 3264 4312 4790 3270 4591 4501 2963 3129 2920 3153 3592 3007 3387 3533 3958 4387 3331 2867 3049 4285 4331 4262 4275 4592 3054 4067 3008 3058 2529 2741 2584 3786 2833 3615 3974 4076 4955 4236 3839 4764 4646 4791 3275 2719 3737 3543 3753 3759 3920 4265 2735 4210 3660 2930 4430 3276 3686 4105 4992 3818 3810 3562 3270 2733 3052 4562 3887 3774 4358 3390 4885 4070 4798 4148 2811 2542 3641 3167 3567 4245 3148 3376 4758 3178 3648 3564 4601 4383 4877 3256 4148 4663 3495 4389 4301 3875 4359 2666 4497 3727 3437 4177 3770 3041 3996 4687 4645 3806 4180 4116 3130 2557 4794 4859 3616 4537 4020 4472 4870 3631 3745 2679 3446 4497 3807 4536 4544 23 15 34 32 4 35 1 9 21 35 17 21 5 6 13 3 38 26 16 33 2 10 25 1 27 35 36 17 2 25 15 1 10 33 8 22 14 31 15 17 30 5 33 39 2 9 1 33 14 9 2 29 13 25 7 36 33 6 4 9 17 20 17 3 16 19 33 16 21 4 25 11 8 10 33 10 6 12 21 3 10 1 32 14 12 31 19 31 2 26 34 25 32 30 22 24 14 38 10 21 9 0 9 39 2 39 5 27 29 24 28 37 16 6 29 39 13 26 8 39 16 14 39 20 3 31 16 7 14 29 19 6 24 16 38 21 10 16 14 18 23 15 17 36 34 27 2 33 18 34 34 4 14 2 32 30 27 30 38 7 36 27 29 25 13 11 10 22 35 25 8 13 15 20 28 34 6 11 33 28 3 28 2 33 17 39 29 11 1 5 1 20 6 36 36 27 37 39 9 25 33 22 3 23 16 34 38 22 25 32 4 4 35 29 9 35 8 16 3 7 3 28 7 30 35
4637 3176 4325 3442 3093 3431 2516 3983 3195 4910 4516 4363 2682 3010 4342 3868 4174 2920 2598 3758 4322 4820 4609 4976 4615 2571 2665 4233 4979 3183 3721 4327 4837 3447 4380 3934 3793 4827 4410 2808 3579 4251 4377 4573 2573 3269 3135 2674 4538 3223 3859 2575 3397 2883 2556 3991 3580 3853 4410 2575 3183 4098 3450 4501 3256 3796 2600 4088 3532 4651 2945 2784 4227 4143 4644 2601 4581 2946 2746 4509 3680 4633 4977 3498 3120 3969 4931 2942 3210 3221 4207 4363 4998 2913 4853 3317 3977 4805 4810 3900 3048 4656 3014 2577 4106 3147 3973 2663 3950 4193 4191 3521 4929 3162 4281 4054 3867 3243 2588 4539 3538 3916 4577 2785 4076 2524 4088 4843 3119 2518 4852 3535 2805 4409 4581 2619 2926 3453 4862 3739 4289 4584 4185 4876 4684 3215 2606 3382 4981 4058 3358 3742 3878 4174 3144 2981 3705 4147 4655 4770 3737 3185 3313 2874 4576 2523 4590 3004 4965 4049 4167 4935 2778 4320 4923 4118 3936 3529 3491 4372 3620 3923 3633 3182 3119 3274 3680 3696 4746 4410 3171 3153 4113 2924 3688 4606 3495 2691 3308 3928 4585 4296 2559 4348 3206 4368 4183 4902 3552 3686 2621 3880 4640 4589 2703 3710 4799 4626 3060 4442 2861 4421 2749 3386 3183 34 13 4 38 34 3 7 24 38 29 26 6 20 19 39 34 38 23 26 30 19 15 22 21 3 22 17 22 8 4 14 2 18 22 2 35 18 9 33 7 10 36 26 9 33 10 39 32 5 37 37 24 10 18 31 36 13 7 9 20 36 10 5 18 13 36 14 16 22 3 17 16 17 8 16 36 29 14 35 21 6 14 6 35 30 4 7 4 29 32 17 29 5 18 28 7 15 2 11 3 16 28 0 35 17 25 36 33 33 12 13 30 16 11 31 13 37 31 17 5 33 18 5 10 36 36 17 14 39 31 5 21 21 39 31 25 30 36 4 39 3 8 3 13 25 7 37 36 6 26 31 25 1 26 10 18 15 9 21 34 19 27 32 20 8 4 23 17 9 30 21 37 22 18 21 36 32 23 31 37 33 38 39 25 32 18 25 11 38 16 8 21 4 22 39 16 7 6 25 22 30 2 37 28 2 13 16 4 32 34 8 30 3 21 29 5 5 4 18 16 20 19 32 29 32
2723 4611 4111 4638 3344 4551 4935 3151 2888 4494 4809 4750 3769 4618 4245 3697 2646 4465 4745 3109 2916 3375 3786 3870 4142 4712 2877 3407 4706 4103 4127 3179 4139 3454 2673 3314 4447 4349 4686 3618 3934 4698 4996 3002 4776 3598 3017 4304 4480 3770 4454 3676 4950 4103 3917 3862 3996 4727 4815 3110 4933 3752 2737 3653 2574 2658 4558 4548 4866 2927 3892 3028 4800 4729 3662 2687 4951 3205 4123 4517 3041 4040 4609 3970 4725 2679 2779 3954 2731 2898 4702 3461 4271 3228 2941 4725 4027 3119 3428 3531 4574 2826 3818 4058 3709 4897 2682 3244 3470 4841 4269 4800 4514 3475 4267 4127 3831 2946 2906 2533 3809 3764 2932 2588 3038 4975 4481 4979 4892 4972 3486 2579 4654 3910 2946 4282 4533 3543 4644 4795 4046 4863 3970 3182 4151 4081 2526 4134 2904 4174 2707 3209 3580 2772 3829 4907 4808 2564 4040 3138 2760 4292 2573 2711 3971 3642 3996 4709 4337 3352 4483 4917 3907 3361 3253 3926 3250 3774 3898 2944 4026 2694 4960 3606 4300 4265 3255 4542 3688 2600 3068 3298 4813 3675 4079 3263 4319 4580 3601 4960 2553 3671 2656 3149 4998 3794 4451 3487 4090 3934 3338 3529 4188 3637 2613 3996 4636 4662 4934 3146 3594 4960 4783 4418 3107 14 9 22 11 18 17 26 34 5 8 2 4 9 36 3 28 29 32 14 36 1 1 4 1 36 17 3 37 8 16 12 16 35 13 32 6 24 14 2 15 22 33 2 4 10 30 30 24 15 28 7 17 38 17 33 18 15 13 11 25 11 19 39 36 17 30 15 17 4 38 7 3 4 25 29 7 30 23 19 10 8 28 32 17 5 24 28 25 26 1 27 33 8 11 5 32 22 16 9 7 19 37 32 0 23 18 14 16 25 22 10 25 29 6 30 36 31 10 39 20 7 12 23 8 38 33 14 35 7 22 2 31 24 18 16 28 19 13 35 22 27 16 18 1 17 29 35 37 39 25 17 8 25 30 34 30 29 33 1 21 4 30 16 18 6 15 9 31 31 23 31 9 36 24 2 28 30 6 21 24 23 30 1 37 29 23 19 17 37 27 27 31 35 8 38 24 22 13 5 34 26 7 6 33 36 18 34 35 16 13 3 29 12 33 17 19 8 5 6 39 25 22 12 25 7
4098 2568 3125 13 4556 4715 4064 4099 4839 4580 4178 2669 4985 4345 4146 3376 2674 3692 2740 4685 4281 3677 4112 4356 4925 4227 3057 3770 4234 3848 3729 3339 2770 3890 3625 4354 4781 3056 3741 4003 3985 3113 2890 4582 4887 2657 3270 4836 2777 4545 4813 2713 3967 4444 4063 4185 4837 3469 3813 4302 2962 4594 2549 3083 3482 3199 3927 4118 4472 2525 4533 2555 3945 4206 3093 3446 3787 4566 3746 3045 4151 4875 4025 4506 4654 4878 3477 4485 3638 3475 4646 4534 3766 2729 2652 2594 2590 4551 2545 2582 3815 3261 3544 2959 4429 4994 4174 4049 3106 3086 2740 3459 4286 2537 2875 4676 4827 2738 3146 2824 3923 2737 3810 3032 3451 4365 4160 3634 2746 4784 4476 3430 2732 2690 2911 4769 3667 4534 4348 3414 3060 2616 3392 4455 2521 3093 3805 4262 3271 3635 3075 3296 3320 4354 4468 4170 3269 2526 4223 3978 3755 4966 3679 3049 4300 3718 4046 3492 3612 4730 2710 4201 2787 4785 4500 4170 4238 4174 4150 3518 2764 4750 4119 3698 2930 4157 4200 3077 3513 4797 4945 3862 3404 4217 2835 2630 3441 3447 2977 4025 2785 3685 3895 4720 4649 4409 3143 3158 4624 4501 3448 3689 2913 2908 4491 3393 2901 3747 2788 3626 2828 4180 3447 4544 2769 5 29 26 18 12 23 39 28 25 34 36 4 16 4 1 17 1 20 7 26 14 33 21 11 26 3 39 27 2 33 25 15 19 18 25 32 22 6 35 26 7 18 23 9 9 19 1 6 28 34 31 14 19 19 24 5 18 9 32 6 13 18 35 9 32 6 27 32 30 38 5 35 23 20 37 7 18 29 9 20 18 7 8 24 37 3 9 3 5 10 7 35 8 4 13 2 28 7 8 30 25 30 36 12 0 27 11 10 13 10 7 26 12 23 23 32 15 26 29 39 12 35 30 6 22 11 13 26 16 24 13 19 3 30 36 33 18 37 1 20 29 38 19 26 26 23 21 1 25 30 11 35 22 15 32 12 35 9 38 26 20 33 6 34 21 23 10 33 7 21 1 19 8 8 35 27 1 10 31 8 28 13 30 13 18 7 32 22 17 21 11 30 34 2 34 22 22 33 24 10 7 36 34 13 12 8 16 8 18 34 3 27 39 23 32 9 22 19 21 34 39 38 2 22 28
4893 4413 3632 4930 3184 4374 2655 3272 2862 4590 3636 2718 3846 4670 2551 4484 4839 3559 2790 3527 3979 4098 3272 3068 4319 3510 3415 4284 2611 4190 4152 3493 3427 2751 3556 3813 3019 2980 3406 3558 2653 4278 4660 4961 3240 4377 2815 3291 2649 2541 3318 4701 2697 4401 3097 3520 4822 3130 4763 2563 3742 4238 4873 3434 4782 3491 4206 3916 2682 3450 4913 4479 3994 4835 3025 3347 3933 3040 3930 3417 3954 3959 3537 4739 4499 3099 2594 3574 2541 2655 4735 3377 3763 2702 5 4781 3592 4823 4768 2805 3112 4818 3271 2589 2683 4926 4281 3126 4044 4145 4110 4977 4139 3919 3715 3897 4685 3066 4585 3961 4669 4442 3347 4372 4897 3745 4725 3903 3065 4547 3526 3341 3890 3013 4057 3642 3465 4212 4735 3706 4902 4158 3667 4832 3586 3410 4868 3199 4914 4846 2805 3218 3938 3825 3006 3097 3057 4503 2678 2739 3969 2938 3645 3367 2633 2682 3077 4127 4208 3729 3229 4573 3327 2540 4846 4796 3936 2960 3700 4091 3873 4998 2845 4719 4143 3561 2958 3522 3049 3491 2697 3637 3569 3169 3481 4303 4279 2946 3730 3953 2995 3788 3782 4701 4329 2992 3701 2576 2543 4486 2724 2549 3686 4765 3052 4484 4097 4069 2683 2765 4968 3990 4087 3619 3864 27 5 1 21 29 35 28 1 8 12 22 8 27 31 31 35 1 27 36 23 15 1 32 30 21 15 25 33 16 14 30 14 26 10 23 34 13 32 10 5 3 23 39 16 2 17 27 5 26 3 6 31 11 5 8 4 6 33 18 30 9 36 18 37 30 26 30 6 22 27 33 9 5 2 23 39 6 16 32 17 29 38 12 19 36 12 2 11 7 16 20 15 10 4 20 39 8 15 23 3 4 38 33 23 29 0 22 38 37 23 37 17 21 20 35 20 16 20 28 2 7 26 25 36 37 1 29 34 14 27 3 1 31 4 6 1 4 30 33 30 36 27 15 19 5 15 39 2 8 39 18 3 26 13 23 4 9 36 28 29 18 8 15 34 32 23 24 20 37 19 37 14 5 2 29 6 34 18 29 19 34 10 19 20 10 4 13 16 15 24 18 34 22 38 13 13 16 25 22 19 33 34 6 7 7 17 17 15 22 30 32 4 3 25 30 31 25 9 9 10 26 35 3 22 5
4928 2868 4926 3516 3732 2536 2556 3295 2535 4340 3451 4040 2508 2777 2778 3943 4737 2700 2754 3244 4901 3738 2984 3235 2976 4263 4372 4582 4154 3837 4496 4302 4382 4613 3497 4666 2574 4312 3956 4761 3061 2803 2785 3830 4189 3332 3872 3905 2905 4052 3835 3507 4348 4901 3301 3114 4705 3044 2549 3025 2659 2815 3426 4307 3610 3772 4637 2817 4255 3178 4262 2574 4819 4973 3234 3637 3709 4620 3406 3398 3437 4553 4791 2698 3680 4089 4519 3139 3092 3045 3740 4413 3568 4051 4282 3304 3566 3941 3708 4114 2510 4576 2842 2696 4197 3848 4187 3110 4339 3223 4051 3369 2873 3791 2910 3901 2744 4357 4962 3196 2850 3607 3260 4746 2528 3293 2679 3967 2684 2677 2689 3103 4230 2521 3654 3368 3449 2597 4991 2916 4505 4322 2674 3609 3730 3503 3630 4638 3914 3009 2970 3033 4310 3321 4088 3090 3835 3201 4345 3909 15 4951 2620 4468 3903 4205 3950 3692 4428 2538 4822 4315 3785 2660 3741 4589 2501 3815 2787 3477 2506 4851 2504 4780 2699 2869 3624 4789 4297 3545 2562 3101 4936 2642 4025 2598 4130 2835 4333 2625 3486 4954 4610 3474 3663 4122 2617 2586 3265 3876 2927 4055 3486 4059 3987 4156 4649 3800 2731 3426 4129 3870 4046 2839 2719 27 39 3 19 17 26 17 20 7 20 17 13 24 25 36 39 9 24 5 11 19 19 1 5 14 14 28 18 23 30 3 14 1 5 30 32 16 12 38 27 18 38 27 17 32 36 26 38 36 29 1 18 9 19 22 14 14 39 24 31 16 33 28 32 7 39 27 19 14 19 7 34 22 8 17 21 5 23 9 11 12 22 21 6 15 37 34 13 14 28 16 13 8 19 39 20 19 28 5 28 19 31 1 23 21 21 0 4 11 23 12 27 11 6 29 35 14 2 33 1 22 2 7 31 13 4 7 11 18 17 15 18 19 36 37 14 1 23 17 38 17 3 30 21 1 5 25 30 5 29 8 9 29 8 34 10 30 7 33 37 28 22 1 37 33 15 3 3 35 12 17 11 26 22 7 22 22 5 25 18 10 8 1 17 20 8 21 16 8 14 34 24 34 4 22 12 20 7 33 29 30 23 6 3 19 19 7 29 14 34 2 24 32 35 34 25 11 18 23 18 2 15 21 29 36
3212 2926 4679 3461 3354 4982 3404 3235 4712 3600 3742 3849 3307 2745 4177 3323 2818 3614 4465 3559 4776 2631 2880 2591 2508 3285 4119 4131 4054 3083 4584 4227 2649 3688 4622 3402 3969 2794 3582 4120 3326 4145 2867 3339 4265 3289 2824 3607 4333 3004 2934 3567 2958 3064 3066 3781 4978 4861 4166 3280 3265 4405 3963 4572 4033 3930 3865 3238 4720 3849 4215 4855 2867 2783 2646 4691 3740 4837 3160 3250 3306 2690 4522 4476 4171 3900 3827 4496 3044 2653 2687 4267 2672 4917 3689 4477 4341 4107 3790 3904 4030 4304 2867 3911 4814 4731 3076 2703 3748 4275 4589 4150 4366 4093 3391 3405 2979 4601 4852 3898 2787 4307 2865 3636 2907 2764 2513 4409 2622 3271 3195 4345 4186 4455 4819 2736 4013 3746 4267 2677 2572 4350 4453 4736 4273 2884 3704 2810 2516 4107 4511 4595 4745 4665 3664 4470 3347 3389 4751 4341 4901 4909 3669 3166 4195 3757 3677 3228 2880 4459 4387 3331 3523 3239 2748 3657 4904 3785 4239 4478 4029 4592 4479 3295 3575 3237 4951 2888 2975 3191 3055 3606 3706 3568 2549 3237 4289 3867 2772 4407 4260 4297 3748 3213 3107 2757 4866 3005 4520 2838 4553 4740 4555 4997 4612 2994 4249 2770 3911 4079 4814 2628 3081 4501 3929 35 23 30 30 28 8 24 12 30 9 14 24 24 16 5 32 34 4 9 2 29 23 7 32 8 27 30 24 15 26 38 3 24 4 10 34 3 12 2 8 21 27 24 2 32 12 6 5 20 35 35 35 5 10 2 39 16 34 18 34 1 7 5 33 22 24 14 18 39 38 27 8 34 3 5 22 12 21 22 38 39 5 4 2 34 26 33 13 33 13 36 9 22 22 5 39 15 23 32 6 19 5 8 35 30 33 9 0 14 4 6 24 2 3 30 7 9 15 22 27 6 15 18 26 6 35 11 22 26 25 4 16 1 16 26 5 11 8 36 38 14 27 24 39 35 2 37 3 10 9 36 14 38 13 25 25 33 18 9 11 36 25 20 35 19 12 7 17 9 36 37 13 3 3 5 14 22 20 7 25 32 12 29 32 12 12 1 34 39 9 39 12 21 6 35 9 12 31 26 21 22 11 11 6 37 20 36 20 26 21 33 6 32 37 22 10 1 2 30 12 15 35 27 10 1
3530 3637 3096 3651 4973 4862 4649 4697 4482 3098 2546 4887 3048 2754 2546 4512 2577 2819 4846 4042 3870 2788 3623 2923 4236 4724 4588 3582 4671 3177 3015 3875 4984 3491 3149 4119 4647 4003 4490 4545 3270 2823 4935 3849 3514 3310 3792 4514 4260 3522 4227 3256 2997 4782 2603 4080 3142 2916 4796 2631 4488 3749 4833 4046 3640 3057 4331 4066 4774 3728 2811 2725 3008 3346 4850 2610 3842 4976 3686 3364 4608 2502 3193 2988 2664 2939 2762 4546 4813 3847 4089 3460 4840 2598 2678 3784 2574 4471 3738 4610 4738 4587 2678 3113 3558 4690 4737 4863 3754 4727 3341 4602 3157 4714 2947 4885 4774 2791 4531 3164 4044 3640 2892 3142 3691 3032 3262 2685 2789 2820 3287 3374 3065 3153 3859 4048 4425 3261 3725 4821 4971 4293 3437 3811 4049 4628 3130 4097 4220 3648 2552 4147 4875 4405 3287 4225 4179 2865 4464 4236 3031 3769 3663 3870 3961 4547 4413 4207 3174 2531 3065 4915 3819 4856 4947 3519 2742 4563 3693 2975 4396 3313 3375 4341 4848 3105 2783 4986 3792 2956 3584 3258 3142 4842 2850 4448 3809 4012 2582 4377 3638 2815 4916 3974 4905 4502 4021 3080 2633 2578 3536 4068 2912 3741 3697 2785 4475 4272 3349 4376 2837 3462 3917 4460 4281 20 33 27 19 16 8 16 5 30 26 29 7 29 15 22 27 29 8 15 10 11 13 8 9 10 27 36 13 4 29 12 18 37 1 13 11 32 22 25 33 5 9 32 28 15 5 23 11 18 31 30 19 33 2 19 7 32 33 17 27 36 34 21 29 39 8 31 21 33 23 1 17 27 29 23 16 21 3 8 8 10 22 20 18 19 2 25 33 7 31 27 39 18 30 18 5 19 22 33 18 38 17 25 7 35 19 11 25 0 15 26 5 11 5 36 14 9 6 24 17 35 20 17 22 31 3 28 8 20 10 30 15 2 35 29 3 29 18 9 12 38 38 35 29 3 15 18 22 9 39 11 3 29 36 18 29 31 17 6 17 15 39 27 25 8 31 39 37 1 25 34 34 32 26 5 18 28 9 32 11 31 23 35 1 28 26 34 21 3 27 2 38 34 33 13 30 24 28 26 25 27 38 9 20 17 28 6 4 9 21 9 16 5 8 32 32 38 23 33 17 27 22 18 18 38
3672 3575 4865 3897 3883 3215 3241 4875 4301 3439 3440 4996 2673 3920 4831 4087 3637 4137 4280 3200 2942 4356 2697 2975 3845 3611 2750 4784 3519 2849 4553 4841 4516 4366 3416 4672 4430 4051 3998 2618 4053 3646 4560 3431 4126 4893 4251 2807 2977 4624 2872 3676 4500 2975 2592 4291 3805 4511 3187 4662 3001 2516 2886 2953 3830 3863 2852 4131 4622 4041 3633 4943 4277 2807 2699 4580 4064 3395 2627 4841 2886 3733 4063 4456 3536 4114 3524 4423 4046 4033 2787 2948 4454 3940 4276 3563 4810 3784 4580 2560 3417 4888 3531 3561 2824 3909 4610 4900 4500 3665 3201 3924 4857 4756 4909 4883 2888 4233 2509 4111 4025 3331 3396 3266 3415 4552 2951 3839 4372 3418 4879 4539 4254 3510 4140 4995 3818 2658 4356 4257 2957 4230 3955 4442 3851 4673 3307 4430 3270 4179 2817 3430 4990 2816 4973 3071 3118 3459 3961 2975 4355 4889 4038 2654 4611 4684 2638 4686 4581 4986 2969 3464 3487 3291 3452 3995 4498 3048 2666 3154 4159 3670 2729 3405 2925 3853 4830 4396 3085 2888 3204 3518 4937 3604 2575 4536 2987 3929 2943 4318 3347 3222 2746 3139 4954 2988 4332 2571 4396 3348 2894 2984 2549 4690 4894 4769 2769 3909 3022 3172 3866 4703 2644 4578 2637 14 5 25 39 31 1 3 10 16 5 19 9 23 14 36 5 1 16 16 38 20 10 1 12 19 17 13 24 23 8 38 28 5 13 35 23 35 37 33 33 24 10 1 19 30 9 24 32 7 26 27 23 18 21 3 29 18 13 17 38 22 39 17 8 26 9 22 17 31 24 3 25 37 10 4 6 21 7 15 4 18 35 2 1 22 35 36 2 32 20 29 29 13 38 2 27 17 21 30 32 35 1 38 15 39 30 15 33 11 0 35 39 34 37 39 17 3 22 2 4 21 3 23 36 21 10 5 31 10 21 15 21 6 17 11 12 24 33 11 14 14 2 38 17 31 32 22 21 16 38 21 6 16 8 32 34 21 13 20 9 8 13 36 23 3 13 33 31 18 37 39 37 7 27 31 14 10 38 27 10 38 36 20 9 39 11 16 30 36 32 20 26 22 12 4 1 2 15 9 7 17 19 8 11 34 25 36 32 32 13 31 24 2 34 7 37 8 10 7 9 22 35 8 35 21
2564 2872 4624 4461 3064 4664 4570 4740 4497 2915 3414 3103 4700 4488 3446 3903 4913 3473 3347 4035 4439 4642 3619 3677 4837 4427 3166 2778 3156 3182 3859 3966 2914 4776 4776 4824 3258 4563 3260 2969 4478 4532 4972 4789 2559 3786 4601 3641 3154 3154 2885 3824 4672 2595 3994 3352 2697 4551 2518 2763 3777 4133 4437 3768 4719 3683 2800 3605 4781 4675 2521 3161 2767 4791 3347 3879 2868 2617 2908 4275 4273 2948 3273 3171 3127 4002 3917 4957 4839 4808 3591 3072 3268 3080 2751 2711 4121 3679 3889 3740 3590 2859 4138 4889 4227 2540 3007 3349 4417 4955 2780 4881 4562 2702 3417 4387 2584 3179 2510 4387 3004 2974 3106 4576 3289 3986 4189 4346 4377 3492 2755 4342 2940 3592 3734 3125 4722 4666 3319 3289 2583 2631 4846 4991 4386 2534 2750 3417 4650 3748 3286 4463 4527 4822 4334 3500 2755 4321 4827 3633 4760 4910 2801 2842 3966 3728 3630 4688 4743 2755 4812 4054 4855 4124 4826 4613 4489 4414 4250 3850 3706 2700 3856 3211 3615 2552 2784 3978 3409 4431 3570 3036 3270 2937 14 4839 2925 4092 4832 3797 3079 3304 3122 3502 3823 4131 3952 4836 4054 4496 2924 4558 3909 3420 4347 3330 4596 3257 4704 2700 2947 3714 2904 4808 4674 4 38 2 14 37 11 31 14 19 18 1 38 4 13 15 16 37 26 25 8 7 8 2 39 39 1 18 17 17 12 9 26 29 29 37 34 8 8 30 12 6 6 2 34 37 22 7 7 19 26 26 9 39 8 14 28 33 24 12 28 6 11 15 36 27 21 30 16 23 29 36 18 21 22 19 34 16 34 17 31 14 17 37 19 22 2 37 3 22 27 39 37 17 35 27 37 3 29 37 33 7 9 15 32 31 30 8 38 16 18 0 15 34 24 8 8 16 9 11 8 26 26 18 39 17 6 14 13 26 23 13 20 13 21 38 1 2 29 7 39 32 19 38 39 9 8 11 25 39 5 4 29 10 6 30 7 35 9 29 12 14 10 36 31 29 2 5 22 37 30 39 12 34 24 21 4 35 23 32 6 26 18 17 27 5 22 18 32 25 15 26 24 28 15 20 12 35 9 39 36 36 15 15 33 23 20 9 34 7 38 9 20 3 34 37 20 21 36 13 5 8 17 23 15 18
3641 4299 3808 3149 3914 3320 3203 4791 2549 3957 4311 4393 2551 3284 2611 4734 3078 3020 4319 3628 2878 4942 4719 3163 3641 4279 3032 4627 3611 4231 4585 2572 3474 4452 3454 3534 3640 2624 4995 3876 4666 2887 3893 4682 4964 4704 3248 4681 2685 2754 3085 12 3000 2956 3495 4553 4427 3199 2555 4224 4610 4197 4588 3332 3576 3411 4533 3173 4301 2865 4543 4630 3259 2915 3050 4764 4288 3801 3459 2855 3946 4504 2895 3871 3123 4394 3414 2772 4862 3828 4073 4520 4675 4541 3698 3153 3068 4464 4071 2923 3204 3133 2513 4255 3380 4416 4724 2779 3219 3004 2632 3802 3088 3543 3583 4275 4214 3452 2804 2501 2897 3096 3962 4555 4527 3950 4439 4906 3772 2679 2830 3743 4825 3824 4710 4680 3521 4162 4866 3348 2526 3999 4720 3331 3562 2765 2782 3425 3225 3946 4548 3457 2977 4060 4668 4727 2739 2617 4208 4243 4230 4799 3637 2806 2603 3965 3779 4880 3931 4525 3700 4342 3831 4571 3445 4213 4181 2767 3862 4427 3497 3246 3904 3329 2754 2776 3454 4042 2912 3320 3641 4193 4020 4133 2503 4342 3240 3277 3887 4817 4061 4332 2972 4959 4250 4411 2625 3388 2633 3451 4071 4158 2511 3406 2600 4828 3490 3302 4637 4211 4983 2959 3352 4957 4052 4 15 26 21 20 36 15 37 10 30 26 5 8 18 16 15 23 37 19 26 3 3 24 36 4 12 15 13 9 7 31 7 14 39 36 25 35 16 19 11 30 24 35 32 35 30 15 27 31 33 31 17 22 25 22 1 33 28 25 15 21 30 8 27 17 13 17 28 23 30 26 11 32 11 11 4 35 16 25 24 17 15 18 25 1 1 37 35 17 25 21 19 26 3 25 15 27 3 17 3 29 34 21 22 37 37 21 35 3 33 22 0 9 10 22 33 37 13 17 20 36 39 22 34 39 38 36 37 30 5 16 25 37 38 17 29 23 36 39 6 1 38 25 2 21 10 3 14 7 7 19 23 23 10 9 15 26 28 22 14 16 33 14 19 1 6 34 18 19 12 38 7 23 38 30 20 24 34 28 23 20 17 13 20 17 36 21 11 1 28 25 10 35 34 36 5 3 15 12 8 35 32 25 18 31 2 4 26 29 10 3 10 6 3 4 15 6 15 18 35 21 9 29 1 38
2834 4922 3013 4267 4931 3221 3354 3446 3597 2746 2941 3696 4250 3363 3233 2696 4135 4325 2898 4513 3247 4217 3295 3955 3658 3874 3978 4907 3793 2634 4594 3452 4155 4553 4140 4769 4069 4562 2719 3089 2617 4247 3789 3866 4791 4249 2736 4150 3442 3828 2821 4569 4779 3319 2951 2859 4034 3895 3852 4722 4916 4291 4785 4056 4192 4003 4488 2926 3654 4883 4781 2720 3583 3110 2771 3514 3261 4812 3286 3819 3016 4067 3942 3504 3580 3322 2837 3347 2647 3306 3480 4668 3864 3149 3285 3572 4914 2968 4526 3987 3268 3666 3790 2998 4287 4588 4278 3178 3185 3930 3563 2756 3322 3346 3365 4127 4305 3300 3075 4039 4158 4312 2807 3353 3575 4522 3264 4047 4935 2605 3636 3163 3884 3946 2913 3616 3501 4541 2850 4452 4044 4304 4173 4773 4595 3452 4547 3090 4725 2562 3095 3910 12 4940 3424 4535 3273 3642 4123 2679 4218 3712 2646 3640 4942 2941 4502 2610 3386 4340 3404 4057 4555 4448 3105 4604 4975 4138 2959 4808 2735 4859 3390 3009 4537 3724 17 2512 3806 15 4796 4259 3013 4979 2566 3387 4707 4409 4036 3370 2902 2597 3533 2991 3586 3490 3372 3510 2750 3226 4992 4726 4515 3201 2747 3880 4482 4894 4223 3179 3146 4824 4649 3991 4108 23 17 25 6 35 37 7 22 29 12 27 13 14 7 27 36 13 31 10 17 28 3 24 27 30 14 39 37 35 37 33 39 16 31 6 3 39 16 31 12 36 33 33 22 19 37 2 30 33 24 24 6 24 10 9 35 35 21 20 31 16 37 18 39 16 31 24 9 32 34 18 8 11 6 16 7 36 4 1 27 33 15 21 32 34 37 18 26 12 6 26 35 5 14 14 24 38 23 39 22 33 27 11 18 9 5 30 1 16 24 22 12 0 5 34 21 3 27 39 23 11 1 39 20 30 20 29 1 12 33 19 9 36 19 20 6 8 23 10 20 20 27 3 17 36 14 23 20 9 19 14 22 3 19 2 13 6 19 15 4 35 20 15 24 25 33 6 14 32 23 37 24 36 12 21 27 4 6 25 1 11 33 39 4 32 12 23 17 7 37 5 28 32 29 26 9 37 28 38 30 11 35 28 11 22 27 13 14 18 34 6 35 38 36 2 5 7 5 16 1 15 13 6 28 26
4575 3814 2546 3099 2850 2658 3081 3480 3897 3147 4026 3958 4108 2981 4977 2758 4389 3137 2572 2990 4070 2816 3119 2883 3703 4549 4707 3354 2824 3993 4797 3990 4110 4226 3404 3435 3324 4277 4968 3820 4421 4287 2883 3067 3636 4527 3064 4350 2659 3128 3273 3283 3674 4870 3400 4581 2951 2871 4164 3584 2877 4124 4900 3355 3596 4914 3833 4379 4388 4960 4920 3134 4278 3282 4702 4369 4899 4989 3093 2622 3930 3055 4395 2679 4214 4391 3296 3342 4081 2920 4594 3104 2857 3222 4782 3573 3677 2874 3492 4099 3663 3981 3724 4491 4335 3420 3104 3697 4208 4286 4427 3851 4764 2958 4652 3273 4358 4960 2870 3385 4240 3337 4838 2757 3979 4190 4943 4371 4592 2815 4028 3551 3210 3310 4922 2987 3028 3605 3446 3400 4667 3233 4637 3994 3142 4120 2888 4041 3222 4741 4134 2546 3463 4017 3763 4347 3786 4542 4608 3468 4121 3234 4715 3742 2506 2854 3519 4622 2983 3349 3056 3651 3790 2560 3300 4384 4487 2569 4551 3420 4641 3891 4237 4643 3261 4028 2779 3123 2500 3378 2687 2909 2832 2598 4700 4105 4167 3095 4420 2614 3087 3799 4921 4921 4593 3148 3734 4865 3966 3216 2874 4842 3668 2646 4622 4774 3994 3388 3430 3506 3840 4161 4610 4244 3443 10 26 36 38 29 28 21 17 10 14 28 25 25 31 18 31 6 9 36 5 32 8 31 18 35 31 31 26 8 37 14 25 8 30 21 8 27 4 28 39 13 7 12 22 22 39 34 5 9 30 8 1 13 6 7 11 14 10 35 12 8 16 26 39 20 3 16 1 11 26 5 29 22 20 17 21 24 38 37 12 30 22 4 4 16 12 12 16 1 16 3 1 12 31 16 10 26 17 17 32 33 38 37 37 11 3 17 17 28 36 30 26 18 0 9 24 18 9 35 27 9 33 2 38 30 31 17 14 1 8 2 37 30 18 6 26 23 17 22 1 34 15 36 15 39 9 5 16 8 11 19 10 10 34 3 38 35 31 17 39 23 10 9 28 30 26 30 8 25 32 24 39 34 32 10 10 14 16 21 30 10 39 2 30 5 31 9 31 25 13 4 9 38 15 10 36 37 19 38 28 30 14 27 27 17 26 17 8 21 36 18 28 39 1 36 31 29 20 36 6 24 21 21 38 1
4881 2508 2578 4035 4868 2956 4423 4055 3150 3256 4114 3961 4711 3913 2999 4292 4491 3964 2857 4853 2577 2997 4584 3784 4453 3257 3354 3275 3901 3725 3413 3112 4576 3102 4416 4350 2975 2914 3197 3903 4408 3115 2658 4989 3606 3032 3135 4965 4590 4030 4696 3622 3545 3819 3014 4940 2646 2832 2670 4313 3714 2829 2976 3644 4271 4861 3544 3635 2559 4594 2837 2559 3044 3125 4141 2950 2504 2581 3813 4184 4486 3611 4208 4519 3731 3421 4223 3798 4720 2798 4973 3763 4025 4997 2968 3948 4665 2506 4578 3320 4613 4546 4688 4477 2757 4000 4030 2896 3726 2659 3284 3266 2853 4479 2563 4702 3739 4974 2896 3224 4792 4832 2702 3873 3280 3561 4384 3501 3833 4178 4512 3155 3724 2922 4993 4979 2841 2670 3539 2735 3731 2651 4495 3416 3939 2705 4595 2617 2971 3173 3018 3728 4619 4239 4882 4399 3542 4588 2557 3487 2780 3163 4074 4250 4041 4318 2819 2930 4690 2835 3301 3823 2618 2758 4453 4343 3380 4245 3073 2775 3992 3486 3583 4545 4861 3538 4617 2834 3453 4099 2757 4018 3563 2940 3318 3196 3788 4568 2703 3008 3459 4813 3536 4892 2943 3280 4061 4265 3895 4114 3828 3983 4392 2933 4558 4127 4078 3666 3100 4312 3675 4475 3979 4029 4238 20 11 37 38 4 23 14 13 15 9 18 14 32 16 10 5 7 32 14 7 38 28 17 27 36 3 24 39 4 12 23 33 3 22 24 1 27 4 9 16 31 19 13 37 17 20 25 27 35 22 16 32 2 39 25 21 38 24 9 26 38 15 35 5 10 34 2 14 19 19 20 8 22 4 2 21 38 4 7 13 28 35 38 32 7 39 12 13 5 34 21 32 7 18 3 9 12 37 19 32 15 9 26 21 14 37 7 39 4 20 11 18 2 14 0 13 22 26 38 23 11 5 18 1 27 12 9 17 12 25 38 20 29 18 39 5 19 19 11 38 39 26 1 2 4 16 37 38 24 6 38 36 36 21 9 22 34 16 29 37 11 21 25 25 39 30 32 8 7 24 8 8 8 34 8 19 9 24 12 26 29 31 23 7 32 32 1 23 26 27 5 11 3 37 16 32 33 2 29 8 11 26 27 29 27 16 33 37 35 31 17 14 35 12 16 27 12 28 9 1 25 16 9 33 36
2875 3818 4400 4488 4419 3834 3053 3046 3948 3381 2729 3419 4381 3482 4179 2730 3625 4781 4191 4468 3981 3877 4428 3709 3428 3157 4208 3829 4535 3268 2872 3303 4611 3876 4768 3751 3589 3064 3685 4446 4292 3148 2831 4548 2703 4605 4409 3301 3502 3272 4232 3988 3356 3867 3826 4798 2699 4624 3343 4989 2859 3297 2953 2739 4465 3665 4498 4442 3013 3788 3488 4453 4863 4532 4119 3639 2655 2932 3570 4459 4593 3686 3415 3046 4046 4340 3124 3845 4342 3790 4250 3131 2675 4811 4517 4521 3839 3703 3054 3375 3463 4664 4876 4423 4599 2630 4035 3579 4544 3145 3806 4229 3604 3672 4454 2593 4641 3179 2711 3256 3392 3246 3871 2950 4203 4808 4914 4838 4747 4743 2772 3796 3375 3121 2639 3066 2694 4915 4801 2666 2782 2769 3970 2642 3864 2673 3062 3945 4666 2756 2841 3948 3319 4617 2889 4006 4326 4225 4448 3182 2986 4785 3433 3075 4837 4402 4166 3335 4637 3078 4473 4911 4517 4928 3332 4606 2744 2667 4183 3836 4314 4565 3051 3669 3799 4205 4840 4571 4021 3950 3649 3281 3045 2571 3775 3581 4780 4953 3285 4980 3354 3867 3206 4197 3123 4549 3512 2866 2893 3476 4732 4366 2927 3103 3608 3716 3843 2971 4655 3822 4881 4287 4690 3465 4178 30 38 31 15 28 1 1 31 24 31 9 8 34 32 19 3 27 11 29 6 30 31 21 12 12 14 15 4 6 29 33 20 4 22 39 11 36 25 18 17 29 13 39 19 28 20 24 10 37 2 20 20 27 30 1 19 37 9 15 13 29 39 19 15 4 32 34 33 39 17 19 11 15 11 9 26 3 15 35 6 22 29 16 8 18 12 9 23 6 8 14 30 1 22 39 8 4 17 10 36 25 38 39 6 11 7 13 24 1 30 36 4 11 3 30 0 39 33 31 35 25 30 28 24 3 1 5 11 10 18 5 10 10 31 36 38 1 26 13 38 32 29 10 5 4 1 12 22 9 16 31 4 4 33 14 9 15 34 34 21 6 28 19 25 10 34 39 8 30 27 27 38 25 22 7 34 31 36 24 1 37 2 8 7 20 37 2 12 11 38 14 11 1 7 25 13 29 4 14 1 37 33 23 30 1 16 24 17 3 24 22 34 7 38 17 6 28 23 24 15 30 30 13 35 22
2896 3986 3278 3657 2726 4986 3481 3534 3575 4341 3842 3984 3823 4180 3470 3580 3235 4745 4954 2651 3172 2757 3568 3342 2686 4846 2942 3583 2710 4735 4167 4973 2802 2704 3224 4362 4695 3187 3353 3922 4251 4612 3397 4595 2637 3410 2934 3416 3121 3051 4208 3831 4247 4960 4299 4898 3998 3511 2947 2885 4641 3357 3355 2693 3382 4416 4651 4943 3588 3386 2706 4795 3438 4267 2692 4078 2959 3078 2830 3541 3192 4325 3307 3292 2736 3885 3443 4367 3447 2870 4083 4675 3992 4802 3674 4263 3737 4641 4381 3602 4411 2637 4899 3893 3951 4578 2683 4791 3783 4423 4431 4189 4358 3537 3810 3721 3914 4644 4993 3196 4154 2636 2666 2792 3496 3694 3519 4764 4462 4527 3982 3294 2652 3124 4963 2886 2631 4992 4095 4035 2998 3181 3819 2866 3009 3000 2978 2603 3765 3960 4949 4518 3766 4562 3508 3050 3836 2794 3276 2500 4128 3583 3490 3944 2774 3388 3153 3255 3601 3015 2723 3509 3413 3513 3541 4223 4184 3670 2509 3521 3751 4537 3690 3147 3701 3516 4780 2786 4930 4488 3723 3562 3975 3400 3747 2745 3028 3985 4744 3725 3985 3481 2704 3509 2523 14 3187 2714 3666 2580 3801 4449 2517 3982 4988 3798 4421 4173 3018 3882 3317 3390 4899 3154 4374 8 21 38 2 26 8 26 37 20 14 17 9 33 18 8 15 18 4 11 35 16 9 25 29 32 11 6 38 11 15 28 39 20 24 7 10 10 32 37 28 6 4 21 35 27 7 11 4 1 30 3 34 12 13 22 27 29 32 32 27 12 22 10 29 5 24 11 28 1 30 11 13 1 5 17 5 22 16 7 26 2 32 4 31 1 8 11 1 32 35 11 16 25 34 36 11 3 14 22 25 4 13 2 32 4 10 6 23 37 27 28 18 22 36 34 10 0 30 16 3 11 17 16 31 19 17 30 2 33 29 12 6 23 26 18 3 36 16 15 21 33 14 5 16 23 30 1 1 39 14 38 30 12 35 17 33 32 1 31 2 16 37 1 37 16 1 7 39 39 15 27 38 21 35 36 23 29 28 37 2 5 9 28 3 24 15 13 19 7 37 35 15 9 19 18 5 23 11 31 29 35 15 4 36 12 19 22 36 15 24 35 30 19 29 6 27 9 8 16 24 34 31 28 30 3
3285 4366 3233 4491 2541 4168 4109 4341 4265 3348 2869 4441 2548 4547 4951 3481 4435 3964 3759 4841 3522 3624 4121 3415 2582 3269 3531 4050 4622 3289 3373 4543 3377 4080 3849 3222 3277 3483 3612 3292 3055 2979 4044 4754 3593 3151 3547 4840 3238 2675 3563 4609 4614 3661 4371 3652 4923 4226 3466 2993 2861 4505 3023 3804 3645 3228 2502 3959 4722 4394 2683 3046 2982 3104 4373 4761 3490 2671 2982 2587 4411 3078 4074 3556 3466 3160 3674 2621 3280 4086 3250 2971 2948 2928 4457 3971 2774 4406 3770 4851 3504 3924 3210 3445 3504 4226 4596 3359 3046 2606 2997 4282 3845 4841 4381 3311 4286 3860 4168 4507 2569 4918 3035 3700 4947 3056 3780 3575 3417 3155 2989 4489 4547 3397 2923 3251 3256 3986 4631 3759 3090 3271 4602 2657 3790 4319 4651 4863 3798 2927 3202 2977 3260 4648 3533 2607 2753 4069 2537 2862 4827 4967 3648 2949 4819 2806 2656 3474 3235 2973 3137 4307 2903 3200 2595 4065 2807 4638 4472 2571 4939 4493 4500 4548 2910 4475 2524 3958 4090 3258 3741 2776 2798 4284 4154 3562 4861 4567 4480 4543 3161 3520 3829 3258 4863 4278 3841 3038 4163 3801 3992 3400 4872 3124 3865 3943 2750 3506 3211 4496 3254 3951 3005 2712 3549 21 35 7 18 17 30 15 27 2 29 23 2 3 34 10 35 31 18 15 34 22 18 3 5 28 33 7 3 2 3 16 20 1 29 33 25 28 4 11 35 37 36 23 20 1 13 26 13 30 26 11 13 31 32 12 35 26 22 20 16 23 8 30 22 33 30 21 17 12 32 7 33 17 29 35 13 37 6 12 16 6 13 23 28 18 4 28 35 27 14 16 38 4 1 12 21 27 14 32 11 31 33 34 10 18 2 23 31 14 12 19 10 23 39 8 30 21 0 37 34 18 6 30 13 38 11 22 36 8 35 36 2 16 29 18 2 37 6 2 35 30 11 4 18 30 26 22 6 11 5 12 9 28 32 7 27 20 32 39 38 37 37 39 38 16 20 19 10 36 7 25 14 35 15 16 27 21 30 35 6 20 21 36 15 4 7 7 38 36 39 33 22 25 15 24 7 24 9 38 19 22 20 16 4 31 2 32 22 13 2 26 18 22 24 13 36 16 27 26 8 36 34 4 8 37
3452 4293 4911 4015 4250 2795 3907 2529 3544 4278 3996 4081 3387 2914 4859 4174 3255 2695 4187 4290 2771 3217 3748 4801 3368 3748 4846 4220 3788 3423 3045 2800 4405 3839 3886 3780 4423 2915 3220 3143 4415 4281 4462 2889 4629 4064 2786 4326 3227 3710 4448 4977 3765 2650 3114 3660 4819 3802 4617 4836 3600 3501 2914 4623 4167 4977 4490 3991 4872 4569 3713 3289 4220 4044 3730 2669 4169 4520 4706 4453 4691 2503 3142 2866 3866 3043 3164 4414 3874 4453 4890 2578 3345 2909 4649 2589 4454 4842 4416 3945 2705 3490 4010 2718 2768 3920 4540 3782 3818 2903 2685 3193 3440 4163 2671 3680 4919 2637 3554 4314 2732 3620 2658 3392 4801 3406 4680 3347 3215 3904 4097 2571 4154 3543 2963 3101 3907 3720 2548 4875 4467 3243 3188 4028 4055 2848 4633 3059 3144 3965 4108 4879 4169 2570 3552 4706 4607 4855 3263 2936 2620 2585 4369 3311 4268 3266 2631 4640 2760 4890 4225 3936 4234 2810 4487 4693 3276 4266 4385 4999 2698 4106 4590 2592 3696 2725 2679 3499 4899 3574 4923 3099 2766 4057 3662 2877 2510 2513 4331 3312 2667 4926 3267 3856 3040 3920 3759 3594 2965 2891 2639 4306 3636 3373 3644 3195 4628 2615 4817 2617 4980 3494 4068 4922 4092 18 22 39 4 34 22 25 37 22 19 19 39 16 10 30 11 11 21 27 15 4 3 6 39 38 26 30 28 38 35 17 26 34 12 23 13 27 9 23 12 32 1 32 22 28 5 8 37 22 38 8 29 11 1 39 20 13 6 12 33 26 35 13 31 26 36 10 23 11 6 8 26 33 26 31 36 22 23 34 14 1 33 26 8 33 37 8 10 23 34 13 25 26 8 17 36 38 9 26 20 10 19 2 19 4 21 2 32 24 31 10 7 15 12 5 33 10 20 0 37 33 21 3 6 36 6 30 39 8 31 16 29 13 25 17 29 8 12 8 39 11 32 23 8 12 3 5 5 19 17 19 29 7 13 18 30 23 37 31 36 26 37 4 32 7 22 5 25 2 18 9 39 31 2 25 5 24 27 17 27 7 23 29 22 23 10 33 3 1 36 15 35 15 15 28 18 31 31 15 15 13 6 26 28 23 16 5 14 9 19 24 2 8 15 35 5 11 29 26 32 24 17 23 14 1
3430 3775 3880 3785 2966 4232 3291 4148 4788 4041 3147 2762 4325 3871 3045 3816 4253 4838 4439 4512 4340 4758 4751 4298 3390 2680 3657 4331 2876 4215 3235 3882 3457 4612 4674 3620 4722 4497 2500 4223 4002 2581 2829 2967 4756 3573 4450 2882 4266 3445 3373 4732 3121 8 2630 4297 4782 4894 3615 3805 2987 3813 4436 3666 4876 4444 4616 2734 3340 3998 3481 2574 3260 4624 4741 3338 4392 4344 4437 4837 4798 4576 4378 4257 4898 2923 3547 4453 3572 3278 4680 2512 3065 4844 3611 2958 2834 4214 3579 4469 3002 3534 3076 3524 3598 2892 3070 4267 3670 3328 4611 2917 3960 3544 3393 4910 3664 4078 3666 4908 4902 4077 3314 4026 2754 4214 3309 2884 3529 2909 4100 3374 3965 2828 4996 4273 4239 2854 4556 3729 4116 4258 4875 3622 2676 2610 3401 3898 4561 4890 4581 4719 2538 3595 3830 2595 3972 3290 2862 3658 3502 3033 3274 2648 4371 3554 4435 4691 3181 3392 4210 4084 4944 3736 4299 2669 3856 3364 3592 2798 3005 3755 3267 4380 3367 4748 3386 3931 2560 2698 3172 3199 4886 2884 4092 3951 4529 3711 4447 3985 3638 3585 3716 3018 2613 4156 4940 4881 4329 3579 3592 3693 4179 4607 2830 2654 4768 4845 3719 2995 3132 3903 3143 4038 3024 38 4 32 14 13 21 3 35 30 17 19 19 39 2 16 21 14 19 33 27 38 16 5 4 13 5 38 12 8 32 35 24 33 35 9 6 31 4 34 12 22 10 15 35 27 31 16 21 18 33 30 8 13 9 36 11 21 18 1 2 8 7 34 35 35 11 25 21 32 29 27 14 25 34 31 32 37 30 30 3 38 31 22 6 36 27 16 28 27 3 36 11 28 26 27 3 25 7 11 31 15 38 27 21 15 16 13 39 28 27 21 5 4 14 25 13 6 38 9 0 11 12 8 2 38 23 37 11 22 5 22 10 2 7 38 31 3 4 32 7 14 6 14 29 39 17 24 10 31 1 12 33 26 16 26 21 6 27 14 6 39 5 15 16 4 36 36 28 3 5 26 34 13 14 3 26 25 1 26 30 7 31 1 15 9 4 33 29 7 34 17 35 39 21 24 18 27 23 36 33 1 32 24 29 34 25 19 20 31 28 9 11 17 23 26 10 18 8 12 20 26 6 13 31 2
4941 2725 4812 3465 3886 4670 3252 3438 4142 3938 3687 2649 3055 2760 4705 2677 3003 3024 4977 3128 4670 3178 3275 3419 3242 4512 4029 3340 2844 2549 4491 3351 4154 2672 4764 2756 4453 3370 3288 3684 2675 4389 4658 4972 3548 3679 4261 4386 2605 3503 4650 4478 4856 4802 4568 2721 2798 4872 2904 4683 2835 3404 2771 2520 4234 3796 3551 4907 3250 4259 4694 2679 4548 3036 3881 4071 3789 2531 4794 2691 4681 4892 3546 2613 3592 4955 4110 2884 3381 4643 3600 4731 3272 3039 2746 4865 2626 2764 2695 3585 4697 4560 3277 4822 3096 3159 3597 2682 4860 2720 3179 4609 3516 3123 3447 3042 4177 3893 3331 2539 3720 2686 4363 3887 3933 4266 3605 4193 4645 3210 2782 3373 4845 3492 4449 4966 3375 4298 4290 19 4249 4603 3201 3457 3099 4634 2592 2676 4865 3700 4747 2976 4766 2590 3694 3603 2564 3665 3471 3362 4690 2814 2688 4848 2663 2852 3602 2861 2627 3435 4176 3837 2791 4329 4507 4330 3519 3073 4172 3736 4817 4864 3373 2819 3992 4312 4041 4949 4435 2695 3040 4184 3823 3177 4807 2991 3728 4300 3525 3850 3740 3912 4231 2532 3052 4824 3842 4199 3064 3665 3162 3595 3017 2511 2621 3691 3471 3880 3943 2668 2715 2529 2746 4493 3632 28 5 22 23 29 34 18 25 17 22 18 24 26 31 8 18 5 13 8 39 33 3 3 22 11 12 29 29 22 22 31 17 7 15 11 6 11 19 32 21 3 9 29 16 12 37 10 30 36 38 11 32 32 39 3 25 30 16 33 9 15 14 17 2 12 10 6 23 22 29 3 36 7 18 18 19 39 28 38 13 30 33 35 27 10 5 15 2 11 2 39 28 20 29 14 6 2 4 31 6 15 26 39 5 24 5 38 24 20 22 18 32 5 3 1 34 23 36 10 39 0 5 1 20 6 31 14 30 7 20 21 14 15 1 28 28 3 22 24 13 3 1 17 38 13 1 16 22 29 30 11 30 38 9 14 31 38 22 27 21 35 3 1 26 8 12 31 38 15 25 20 23 35 35 3 23 27 34 13 4 30 29 8 7 14 12 34 23 23 6 4 2 36 16 23 23 13 26 28 32 17 26 15 31 17 34 37 10 15 7 10 5 29 1 30 24 11 37 38 6 32 19 10 36 30
3261 2599 4232 3204 4216 4303 4774 2757 4601 3734 3706 4288 3078 3471 3519 4459 3108 2626 3426 4016 2791 2764 4687 4465 3406 4298 4010 4539 3321 2543 4578 3234 3604 4418 3636 4261 2692 4477 2574 3890 4745 3926 2558 2614 4951 3451 4389 3178 2817 3956 3231 3107 3887 2588 3231 3030 4297 4851 2568 3432 2620 4634 4470 3118 3455 4472 3412 3210 3693 2968 4563 3739 4872 3324 4043 3491 4878 3235 4516 2970 3141 3341 3927 3889 4555 4399 3390 3355 3839 3509 3539 4039 4701 3304 4325 4169 2574 2750 3235 4507 3118 2593 4998 4596 4531 3994 2502 3532 3067 3411 3595 2964 4612 3018 3661 3325 2555 4096 3765 2910 3864 3535 2865 4400 3301 3813 3283 4353 3431 4076 4481 4246 4987 3183 4114 3135 3109 2643 4778 4048 4705 4963 4183 2536 2680 3884 2781 2681 4602 4905 4101 3584 2506 3729 3015 2910 2993 2963 3183 4503 3720 3440 3795 3885 2969 4766 4939 4765 4718 3141 3922 2551 4158 4405 3982 4738 4807 3021 3334 4764 3126 4201 3890 2731 4328 4088 3958 3828 4538 2979 2683 3802 4289 4611 3236 3954 4786 3191 3627 4488 3755 4804 3246 4386 2922 4217 4983 2761 4825 2644 3456 4979 3375 4842 4446 2706 4461 3540 4912 3679 2509 3753 4249 3622 4589 16 11 34 36 34 29 23 4 1 26 33 23 2 38 1 34 25 7 25 24 11 38 24 20 29 35 31 10 11 37 6 39 29 39 3 39 27 26 32 22 17 12 8 21 3 39 11 22 33 5 5 2 39 15 19 24 19 27 19 8 23 24 34 28 18 36 36 32 9 14 36 9 8 9 23 2 5 36 35 26 10 23 26 36 12 36 16 24 1 19 8 27 4 17 34 9 26 33 5 5 39 20 16 18 21 31 11 6 26 17 13 16 9 4 33 7 29 16 12 6 20 0 38 1 34 39 4 32 14 14 12 4 27 5 5 32 12 10 14 10 15 19 1 13 27 8 27 18 30 35 25 20 37 14 23 33 4 24 34 10 16 11 23 3 28 15 39 31 4 34 6 8 14 18 28 35 1 37 14 10 12 36 28 25 31 17 21 1 27 2 31 36 4 4 20 16 29 24 24 39 20 8 37 19 12 17 19 14 8 10 38 9 30 10 26 2 22 12 13 26 11 7 13 20 18
3593 2864 2666 3191 4734 2802 4847 3174 4214 3164 2775 4605 3268 4545 2736 4079 4058 2600 3190 3026 3128 4143 2576 4300 2635 4844 4311 4392 3364 3168 3997 3029 3043 4650 4886 4598 2606 4358 3240 3776 4170 4605 9 3543 3362 3764 3411 3106 3815 3382 2609 4886 2668 3336 4365 4265 4980 2824 3557 3868 2710 3911 3591 3949 4977 3992 4089 4591 4106 4778 3071 4634 2747 3684 3703 2687 3534 3502 3317 2967 3910 4706 4136 3704 4038 4792 4758 3399 3083 3267 2724 3186 2961 4677 3287 3596 3852 2892 2901 3849 3687 4547 2808 4938 3948 4343 3363 2630 4367 4351 4774 3287 4962 3684 4331 4005 3335 3875 3250 4199 3143 2502 2529 4747 2850 4003 3224 4611 3419 3976 2643 3858 3914 4229 3102 4850 3002 3539 4565 2608 3637 3245 3500 4199 3626 4270 3697 4347 2618 2884 3094 2596 4316 3853 2631 3229 3292 3056 4455 4845 3049 4061 4152 4496 4341 3015 4911 2793 4766 4218 4977 2860 2596 3383 2774 2636 3001 3926 3636 4715 2755 2790 2713 4669 2991 3797 4881 4751 4095 2579 4647 4261 2902 2974 3901 4896 4366 3159 3090 3880 3564 4268 2765 4784 2539 4926 4673 4377 4401 4917 4933 3831 4225 3361 4179 3782 4737 4272 4975 4206 2796 3292 2773 4335 3687 19 36 9 28 10 16 25 31 3 23 10 17 3 37 17 9 5 14 21 1 19 23 9 15 22 8 18 17 9 36 17 31 34 11 25 17 6 2 5 4 22 23 31 13 35 25 3 8 18 32 23 29 11 35 21 8 18 15 16 26 9 14 6 18 3 9 11 12 20 14 3 15 6 31 22 12 27 22 31 12 33 7 38 6 34 23 34 33 27 29 35 28 37 14 22 30 36 7 30 26 29 37 12 16 37 37 39 8 24 38 12 27 25 14 3 5 11 39 37 28 29 18 0 34 14 23 21 6 7 32 10 14 10 12 26 10 23 3 1 14 38 37 28 2 1 36 9 31 15 23 5 21 23 3 13 21 16 19 35 14 28 25 17 35 16 4 39 9 20 36 3 30 4 14 10 39 9 10 6 6 25 33 14 16 16 26 33 30 5 23 31 28 28 32 27 32 2 23 23 21 18 20 11 28 6 30 39 4 15 2 4 12 3 20 36 17 4 18 27 8 8 6 27 9 38
2701 4558 3681 4254 4317 2989 3951 3890 3075 4945 4496 3464 3870 4829 2503 2684 4827 3491 2918 3202 4091 2507 3574 4971 4439 4103 3728 4712 4508 4317 3762 4744 4663 4663 4642 2613 4262 2520 3170 3434 3234 3652 3533 3808 2887 3696 4874 4323 4355 2681 3080 2620 4665 4153 3942 2576 3427 4289 4095 2580 3884 3388 2607 4687 4336 4012 4009 3920 3948 3976 2918 4292 4376 3939 2791 2637 2949 4460 2605 3480 4147 2805 4548 2967 4660 4337 4852 4827 4669 4287 2815 3647 2849 4059 3009 4701 2980 4092 3928 4458 3016 4255 4626 2610 3711 2732 3229 4184 3897 3410 3609 3301 3426 3986 4402 3993 3709 4092 4032 4195 2708 2949 3673 2740 3823 3553 3076 3440 2545 2612 3689 2917 2958 3052 4331 4920 3356 4387 2673 3212 4599 3322 3548 3869 4620 4885 3565 4661 2561 4507 4657 3318 4524 2745 4251 2889 3584 3921 4373 4866 2734 4238 4643 2988 3466 3425 2700 3475 2599 4048 3195 2534 4659 4996 4539 2763 4035 4204 3659 4852 4700 4889 3736 4753 4191 3649 4798 2886 3058 3197 4074 4328 4753 4925 3118 3689 4000 4850 3316 3337 2739 4314 4953 3796 3262 4316 4095 8 4527 2933 3772 3120 3218 3592 3502 3275 3221 3915 3103 4105 3800 3516 4742 3254 4926 14 21 15 20 14 21 36 28 19 18 35 27 6 39 21 32 1 11 33 26 1 1 9 5 29 19 2 23 7 31 5 1 27 3 39 21 36 22 4 24 29 25 3 15 8 5 36 28 1 23 12 6 5 25 38 2 28 15 35 18 15 7 15 5 32 7 8 2 28 4 1 6 14 15 23 12 24 20 20 5 26 9 11 39 33 7 31 21 27 2 25 8 17 18 17 7 21 39 13 27 7 23 23 30 15 12 8 29 8 17 36 17 9 27 11 13 15 18 30 19 17 32 8 0 38 14 26 3 39 9 26 34 6 37 33 11 35 12 13 1 12 30 31 33 10 12 33 31 25 23 37 36 23 24 29 33 14 9 21 9 4 29 24 39 23 22 1 11 24 7 1 16 27 26 3 34 22 6 13 2 18 17 22 10 1 17 12 27 23 35 38 34 33 34 1 17 37 14 21 5 13 21 38 26 27 1 28 12 10 13 27 7 36 35 9 29 25 35 30 15 1 23 16 5 24
4287 4639 4734 3311 4308 4854 3883 4121 2873 4728 2674 4723 2644 2719 3770 3604 2925 10 3120 2683 3647 4398 3012 4478 4686 4434 3063 3364 4831 3559 3238 4210 3033 2945 4118 3472 2820 2707 3862 2736 3548 3040 3151 4058 3454 3575 2980 4188 4966 2790 3633 4304 4767 4445 4736 3601 4115 3419 2902 3774 3308 4430 4074 2965 4309 2767 3457 3821 3139 2968 4751 4405 2563 4416 2547 4835 4709 4623 4369 4279 4723 3275 3290 2681 4022 2754 4968 3197 4670 4660 4146 3788 3760 2820 3630 2567 3120 2719 3194 3526 3047 3182 2855 2840 3502 4618 3920 3900 2532 4823 4467 3257 2524 3552 4370 4404 3015 3244 4366 4263 3608 4171 4249 2845 3959 3255 3992 3428 3290 3320 3162 3899 2526 4756 2569 3804 2770 2515 3195 4296 3754 3850 3405 4006 3045 4192 3797 3116 2703 4196 3215 4761 3370 3975 4582 3322 3048 3352 4396 2880 2652 2500 4966 3576 3132 4287 3268 3324 4059 3834 4737 4945 2676 3178 3495 3176 4477 2714 3051 4111 2604 2764 3256 4462 4025 3996 2576 2587 2681 3060 3492 4710 4453 2609 4542 3406 4973 4842 4777 3057 4536 4103 2613 4515 4546 4998 4981 3462 4774 4973 3138 2832 3336 4476 3794 2916 3035 4964 4679 3393 3392 3207 3298 3486 3247 26 19 30 36 4 23 31 25 30 37 4 27 37 3 30 38 34 2 10 34 3 34 8 6 24 19 11 20 35 1 38 25 25 22 26 24 6 25 14 30 14 17 36 32 32 16 3 29 25 5 1 5 25 20 39 25 5 18 22 29 20 38 9 23 4 32 8 15 29 1 27 36 22 1 5 25 18 31 5 12 37 28 36 14 3 16 26 19 4 24 28 36 19 9 18 20 38 26 3 15 11 22 5 23 32 8 8 3 26 15 33 27 8 25 4 17 21 20 29 18 7 31 21 19 0 12 36 36 10 18 20 13 11 26 28 36 16 19 10 6 9 26 23 32 28 11 33 32 16 21 23 21 36 9 37 3 23 30 18 23 15 19 29 8 31 6 18 18 21 33 30 32 31 6 20 15 34 8 3 11 38 22 23 37 4 8 19 22 18 14 4 34 6 11 33 10 24 23 13 37 34 12 25 14 2 20 2 12 3 22 14 37 19 31 39 38 5 37 27 9 38 10 25 9 30
4588 3841 3739 3238 3666 2574 4657 4911 3915 4390 4437 3117 3072 3167 4969 3381 4499 3248 3494 4063 4016 4388 4306 4282 4733 4109 4904 3859 3430 3106 4840 4279 4870 3417 3707 4758 3518 3962 4870 3220 4390 4683 3587 3029 3647 3429 4884 4289 3445 11 3551 4293 4069 3200 3639 4054 3064 2520 4339 4037 4277 4297 3547 4011 3125 4659 4256 3808 3979 4684 3412 4122 2878 4322 3610 4067 2637 3420 4804 4462 4585 2731 2694 3155 3113 3798 4115 3610 3415 2703 4858 4775 3668 2810 4890 4563 3315 4334 4485 3466 4241 3819 4671 2670 4144 4980 2535 4161 3469 3199 3729 4015 3366 4146 4325 3689 2848 4358 4794 3791 3519 3828 3510 2959 3462 4729 4404 4620 4033 2866 3138 3126 3093 4461 4040 4409 4435 2698 4832 3278 4858 4825 5 3511 3331 2601 3431 4115 3679 2654 4681 3617 3017 4325 4244 4773 4429 2908 2528 2833 3659 2941 3253 4823 2757 3573 2609 3629 4215 2723 2969 4507 2535 2967 4905 2960 3457 2537 2669 3663 3696 3401 4653 3751 4411 2802 3676 4865 4528 2673 4511 3975 4706 3746 2819 3155 4995 3192 3334 3046 3634 4717 4088 4754 3691 3213 3306 3403 3600 3402 3958 4580 3200 3522 4970 3138 2804 3192 3165 3183 3032 4062 2955 4154 3543 32 18 1 25 20 26 17 6 32 29 7 26 27 3 9 19 35 17 3 16 13 18 31 1 5 10 35 3 35 35 7 17 11 3 21 12 19 7 14 15 34 20 30 5 17 7 21 29 27 35 1 30 29 19 32 28 34 27 5 6 7 29 18 2 35 3 25 9 30 5 30 33 5 21 33 3 34 23 18 34 29 35 38 11 10 15 2 22 8 33 33 20 30 13 39 39 29 33 15 27 23 26 23 5 11 10 31 8 20 15 9 32 2 22 24 36 35 14 31 39 8 15 4 8 1 0 2 25 12 1 3 24 8 7 7 26 39 2 23 6 32 25 9 10 7 11 8 31 20 15 20 33 17 21 13 9 30 34 26 23 20 30 20 23 22 6 29 6 15 12 3 29 32 32 22 35 34 39 18 17 34 11 23 1 8 15 4 34 21 37 37 23 18 32 9 28 37 18 31 31 23 24 7 14 6 26 27 28 38 17 8 29 17 28 12 28 6 39 27 13 20 9 7 19 12
4949 3993 4213 3582 3730 3255 3295 3763 4820 3830 4630 3705 4195 4753 4438 3322 3802 4934 3054 4770 3234 2857 4295 3155 4115 4211 4461 4549 4859 4017 2870 4802 4739 2923 3068 2789 4576 2862 2932 4244 2611 3360 2923 2606 4672 3616 3243 3173 4538 4073 4233 3913 2679 4966 3813 4425 2715 4949 4560 2946 4877 3119 4068 4209 4796 3747 2531 3114 3308 4557 3123 4788 4691 4523 3000 2943 3401 3143 2838 2894 4307 3281 2954 3371 4152 2721 3608 2969 3000 2955 2701 3811 3417 3362 3304 4296 4537 2550 4808 4285 3389 3742 3746 4085 4660 3970 3202 4386 2881 2751 2814 3521 3775 2814 4366 3112 4559 4884 3674 3782 3762 2917 3826 3610 4261 4750 3542 3117 4706 4388 4325 4616 2647 4756 4036 3150 2553 4339 4724 3827 3416 4968 4903 4846 2547 3285 3900 4785 3437 4538 4309 4378 3044 3700 4391 2678 3184 4628 3445 3502 4813 4466 2909 3157 4441 2977 3523 3560 3418 3216 4825 4707 4348 2842 3165 4435 4825 3693 4555 3485 4668 3812 4298 3963 3306 2828 3264 2701 4224 4476 2719 4258 2967 4254 3393 2655 4474 2937 4697 4363 4091 4931 2786 3113 4423 3650 3114 3000 3712 4589 3684 2745 4474 3323 3179 3218 4581 3504 2751 4725 3296 2949 3645 3328 4329 10 39 10 32 8 15 22 26 20 30 29 2 32 24 9 35 23 5 18 8 25 16 33 30 21 24 39 23 23 4 7 34 13 26 27 10 4 20 11 3 21 18 28 10 37 18 21 34 23 9 32 31 33 7 25 30 12 38 38 39 1 17 15 34 14 3 29 39 9 19 12 26 8 28 27 2 4 15 34 31 27 20 18 39 20 15 35 34 11 23 36 31 12 6 9 14 35 20 2 36 23 3 33 17 6 12 24 31 2 18 28 17 7 12 26 16 17 2 10 8 38 23 13 1 7 5 0 39 23 13 28 7 15 14 25 11 7 22 29 22 31 23 28 25 3 25 1 5 31 34 2 23 33 7 28 35 11 5 31 5 31 7 8 8 35 19 36 1 26 6 31 24 22 27 33 24 3 33 37 32 8 12 5 20 21 32 33 24 6 16 33 27 25 7 3 39 4 1 35 22 30 1 35 36 21 2 31 19 7 20 15 4 22 23 14 30 20 33 35 11 36 28 18 39 15
3852 2943 2525 3872 4524 3773 3218 2662 3060 3353 3612 4834 4003 3599 4531 4382 4405 2665 3100 2690 4030 2743 4530 3282 3439 4555 4980 3104 4322 4448 4938 2590 3078 2939 3197 4543 2581 4937 3200 4040 4214 3014 3131 3148 4742 3452 3900 2685 3200 4954 2793 4335 4266 4792 3548 4593 4597 2707 2626 3976 3106 4002 3850 3762 2546 3271 4487 4429 3845 3156 2861 4596 4948 3892 4829 3338 3586 4219 3193 3578 3172 3517 4209 3538 4675 3430 4085 3692 2786 4590 4698 4703 3121 4567 4446 4835 3507 3906 2852 3665 4235 3885 3677 3442 2543 3035 2725 3997 2937 3553 4564 2622 3371 4097 3240 3341 4545 3805 10 4613 3494 4326 2809 3146 3768 4293 3883 3063 4545 2695 3928 4969 3994 4072 2646 4109 4431 4109 2537 4110 4318 4134 2990 4380 4508 3556 4683 2863 2734 3627 4806 2550 3191 3049 4556 4417 2909 2515 4160 3576 9 3585 2768 3125 3889 4460 4591 2548 3055 3208 3418 3595 3835 4151 3121 4768 4120 4563 4678 2857 2905 3806 3730 3098 4626 4975 4677 4661 3366 4443 3371 2923 4030 4962 2859 2524 4795 4228 4833 3354 4050 3639 4225 3262 4232 4033 3883 3851 3161 3393 3469 4264 4950 3462 3756 2651 4846 2664 3815 3108 4330 4537 2516 4411 4340 26 24 13 14 5 21 28 27 18 16 39 19 12 8 25 19 39 2 14 18 18 25 14 5 25 20 8 32 21 20 37 19 17 6 20 29 18 8 8 26 4 29 7 16 25 2 20 20 26 12 36 10 17 20 17 2 8 14 34 31 9 15 29 27 36 8 39 37 3 32 30 6 37 34 1 11 25 15 36 35 31 36 8 21 28 35 12 27 21 6 38 1 15 31 28 21 21 26 4 15 34 7 29 2 10 13 20 7 35 4 28 3 38 26 7 25 17 13 21 31 21 36 14 15 23 17 32 0 14 28 38 28 22 10 18 18 39 16 29 34 16 34 20 10 8 13 21 12 10 32 15 17 15 23 31 13 23 31 20 14 22 7 8 31 15 28 21 33 19 18 15 19 2 35 28 34 17 29 17 24 5 17 16 9 27 29 38 13 33 16 27 24 28 24 2 35 19 9 32 14 17 18 25 36 9 14 33 12 27 37 27 11 8 28 32 21 31 18 35 6 16 31 38 39 5
3798 4109 2572 4887 3069 3683 3620 4483 3745 4746 4354 4545 4834 3364 3757 4805 3741 3316 4894 3667 4420 4351 2541 3520 4930 4282 2839 2669 4089 3903 3714 4780 3538 3336 4489 3982 2774 3482 4142 4435 3226 2887 2760 4901 4656 4003 3623 4337 4323 4717 4599 4441 3984 3624 4616 2854 2901 2528 4066 4942 4627 3282 3443 3680 2819 4296 2729 4724 4367 2552 3037 4908 2562 3490 3144 2532 3317 4530 3836 2997 3139 3397 4195 3020 2670 4059 4235 3385 3549 3976 4039 4711 4586 3127 2661 3851 3459 3342 4384 3004 4175 3749 2587 3217 3468 4400 3659 3702 3999 4352 3851 4852 4224 3093 3456 4078 4858 3266 2634 3730 4966 4918 3363 3017 4620 3839 3417 3384 4353 4125 4062 4033 4788 3603 3320 2930 3308 2843 4425 3014 3326 3467 4233 2515 4429 3684 4888 3759 2735 3490 3697 4321 4945 3644 3122 2775 3685 4984 4098 2870 3637 8 2560 3824 3304 4557 2684 3883 4073 2582 3887 3398 3991 3826 4395 3983 4001 3631 3988 3767 2522 4044 2842 3555 3494 4598 3085 4380 4146 2977 2729 4395 4136 4461 4811 3614 4110 4271 4560 4438 2626 3085 2739 2902 4985 2759 4915 2947 4927 4234 4906 3646 3858 2698 4889 4434 4726 2677 4075 4793 3285 3028 2895 4437 2691 12 28 19 10 28 13 7 1 38 34 11 20 18 17 26 31 2 2 33 10 14 12 10 26 9 21 30 37 24 10 5 17 3 13 39 10 15 6 35 3 26 30 22 7 14 37 6 8 4 5 10 5 14 7 5 35 34 22 39 30 7 39 24 23 23 20 11 17 27 7 25 27 22 21 37 28 39 26 2 18 32 20 29 3 8 16 39 33 8 15 30 5 6 17 37 8 32 11 37 18 27 21 12 23 33 26 20 10 23 5 4 39 27 19 9 19 22 6 36 34 39 35 7 7 10 34 34 33 0 18 35 14 35 25 35 28 16 25 20 9 35 7 27 17 5 21 22 14 4 25 8 23 32 21 16 29 13 27 34 17 29 1 8 31 18 21 9 22 8 18 38 31 23 23 7 21 9 12 1 38 17 29 9 21 33 35 31 29 21 30 25 39 23 3 37 20 18 13 10 3 39 5 32 23 10 23 2 8 4 18 37 20 30 18 28 36 7 39 9 19 39 29 24 12 14
3125 3769 3582 3053 4317 4020 3388 3776 4049 3000 4188 4013 3384 2640 2715 4918 3806 3747 2896 3066 4068 3433 4972 4262 3389 4141 3121 4013 3770 3601 3322 2728 4998 4575 2791 3650 4842 3871 2700 4093 2542 3587 4298 3842 3604 4126 4675 2954 4592 3168 4597 4201 2928 3376 3220 2964 2516 3422 4473 4063 4575 3628 2782 2967 2838 4181 3986 4668 4461 3285 4958 2999 4124 2854 2864 4421 4848 3376 4654 4107 3141 3279 2854 3428 3212 3192 4997 3292 4364 2959 3018 4723 3510 3470 3662 4063 4352 2880 3769 3980 3886 4671 3916 4677 4667 4177 3981 2931 4818 3177 4837 4549 4144 2750 2755 3366 3989 3505 4999 4759 4292 2563 3126 3506 3668 4963 2525 4715 3769 4329 4249 4301 4491 3237 4144 9 2775 2972 2579 4061 3236 4282 3597 3694 2881 2798 2739 3323 4335 3135 3298 3953 3215 4478 3623 4178 2901 4902 4549 2740 4656 2515 4797 3434 2968 4324 4531 3293 3851 4364 3844 3759 3890 3056 4444 2924 4822 3368 2735 4866 4766 3166 4038 2746 2625 3562 3201 3765 4757 3786 3346 3139 4133 3514 4619 3934 4002 4373 4702 4963 4197 3453 4006 4535 3196 3557 3209 3526 4040 3448 3766 4757 2550 4282 3464 2716 4045 4325 4417 4049 4417 4089 4839 3068 4109 14 12 10 26 3 26 13 39 5 5 25 21 21 10 31 11 3 38 10 28 31 25 7 15 39 20 10 39 22 27 35 10 2 8 12 9 31 10 27 13 35 24 4 23 23 4 30 13 20 5 8 38 20 21 17 16 38 3 35 25 12 9 9 29 19 25 19 18 12 37 38 12 13 22 3 5 29 12 11 23 24 20 34 31 36 14 9 2 5 38 28 32 5 19 25 29 16 29 2 37 30 18 24 10 12 28 2 31 4 19 2 1 4 23 28 9 18 12 34 10 34 13 8 22 5 27 8 9 14 0 19 10 38 5 24 36 28 11 3 19 7 7 13 23 7 14 15 13 12 29 7 5 6 1 18 18 30 20 30 37 37 36 9 27 35 38 32 34 30 5 29 10 13 17 14 12 22 9 17 27 14 31 24 1 2 28 33 38 20 38 37 11 11 1 10 16 23 38 36 27 31 22 35 8 25 21 9 21 13 26 8 2 24 10 16 38 11 34 26 15 30 9 2 30 34
3462 4127 3340 2861 4914 4966 2653 3305 3344 3287 3465 2956 3355 2856 3232 4342 3256 4248 2877 3814 3742 3606 4015 2954 4214 3410 4998 3309 3329 3278 4479 3340 2820 4070 4827 3725 4438 2719 3331 4624 3130 2965 2667 3501 3483 4873 3117 4423 4627 3109 4373 4899 4862 2528 3192 3716 3043 3862 4878 4165 3967 3939 3361 3994 4046 3102 3090 4663 3345 3878 3583 3168 2524 3701 3278 3433 4976 4476 4759 3143 2957 3297 3740 4897 3301 3080 4400 2514 4021 3515 4125 3501 3548 3974 3287 4512 3394 4010 2986 4024 4551 3018 4438 3201 4112 3186 4199 4075 3568 3027 4728 4451 2795 4268 4873 4230 3371 4976 4936 4718 4688 3746 3923 2824 4926 3992 2646 2653 4879 4236 2859 3045 3187 2643 4339 4923 4892 4006 4213 4244 4422 3590 3117 4799 3205 4376 2740 4141 4145 4901 2550 2862 3887 4962 4843 2578 2798 2575 4851 4929 3528 2800 3304 4879 4448 4549 3892 4537 3878 3231 3914 3388 2514 2992 3844 3322 2802 3589 3719 3337 4671 4064 3285 3363 2927 4731 4685 2854 3183 4805 3319 4798 3425 4390 3600 3017 4878 15 3691 3372 2672 4659 4166 3685 3979 4669 4343 4501 4142 4681 4369 3550 4273 2654 3243 3206 3454 3058 2879 2963 3003 2507 2713 4987 4075 8 25 36 38 6 13 5 6 35 9 12 24 29 20 14 2 15 23 38 33 27 20 33 7 38 9 39 10 21 31 15 35 31 21 10 4 27 34 39 25 8 22 19 2 2 23 11 1 24 15 25 20 22 15 33 23 5 37 28 6 24 4 17 26 12 31 28 10 37 7 12 8 39 15 11 17 10 28 1 29 18 18 34 39 35 6 34 34 20 33 38 10 2 25 20 13 19 22 24 2 6 20 13 19 14 16 29 22 37 30 22 13 2 25 31 32 11 34 13 28 6 34 19 7 20 7 38 36 6 1 0 7 7 23 22 19 24 18 7 25 33 4 16 22 11 10 19 3 5 18 14 20 9 3 32 38 20 4 6 28 26 3 29 34 6 10 4 20 8 34 10 27 35 34 15 6 14 33 8 1 31 32 5 26 29 7 38 35 10 4 9 15 6 26 27 12 5 16 35 11 36 2 16 11 15 31 1 20 36 5 8 38 18 24 26 7 27 36 26 23 10 3 21 12 24
3692 4850 4003 2876 4516 3764 2857 3206 4253 2676 4552 2750 3835 4113 2600 3517 2883 3965 3454 2649 3052 4434 3833 3079 3412 3585 2684 2554 2752 2808 2730 3973 4378 4534 3716 4318 3195 3294 3215 3072 2640 2634 3856 2541 4020 3737 4199 2980 2596 4743 4627 3996 3500 3898 2559 4554 4723 3114 3728 3510 2536 4623 4423 4116 2574 4036 2820 3207 3912 3211 3069 4012 2655 3467 3219 3778 2804 3204 3064 3270 3371 4782 2667 2563 3066 4320 4276 4561 4151 3734 3033 3549 2860 3509 2733 4404 3713 3181 4156 2992 4920 4515 2662 3778 3174 2948 4630 3364 4838 4861 3274 2527 4603 4510 4931 3097 2974 4402 4318 2518 3049 4061 2961 4857 4854 4927 3634 3229 3356 3578 4343 4277 4305 3785 3525 4217 4102 4294 4052 3701 3295 2752 4789 4288 3048 4188 3509 3226 4790 4364 3201 4421 3722 3721 3067 2987 3333 4099 3920 3279 3867 3499 4162 3489 4405 4581 2896 4288 2829 3166 4201 3709 3012 2807 2567 3863 3467 2655 2609 4249 3186 2782 4499 3490 2656 4365 4390 4139 3164 3430 3371 3767 3894 4120 3276 3826 3092 4880 4786 3956 2760 2892 3025 2625 3877 4329 3837 3794 2644 2514 4722 4041 4141 4581 4291 4853 4289 4913 3363 2877 2975 2824 3343 4614 2953 38 23 15 9 12 29 1 25 14 22 5 17 39 33 16 26 1 5 20 36 34 10 23 3 27 3 18 31 22 34 7 17 14 24 12 24 1 13 29 14 22 29 15 13 37 19 1 39 7 14 10 1 28 28 22 1 24 3 8 26 26 33 13 2 8 17 22 12 7 29 37 38 23 6 30 15 2 21 12 25 28 26 29 28 25 16 4 6 33 36 36 21 6 31 29 25 2 27 18 16 23 17 2 3 1 3 32 21 22 28 2 30 36 23 6 12 5 17 35 17 36 3 21 29 38 24 21 17 29 8 10 0 4 18 11 35 12 12 36 27 1 36 34 20 10 16 8 8 33 24 35 11 32 28 31 29 7 12 20 11 22 6 13 38 32 3 24 36 11 17 2 29 25 30 35 36 39 24 20 23 38 16 32 36 10 1 15 26 19 33 35 23 22 7 30 33 27 25 3 5 13 19 15 36 28 13 15 11 2 16 31 21 10 20 26 29 28 17 30 32 19 30 5 6 6
2668 2735 2967 4637 4284 3767 3264 4317 4884 3200 3776 3374 4451 2552 3358 2978 4161 4515 3951 3584 4590 2621 3377 4713 3940 3494 2732 4022 3297 4922 2806 4312 3997 3365 2928 2848 2573 4527 4301 4628 4842 4271 4016 4663 4375 4242 4013 3440 4619 3719 3728 4544 4470 4719 2663 2516 2925 4892 3577 2627 2587 3439 2910 3086 4703 4973 3489 4235 11 2578 3825 4639 2595 4490 3911 4371 2955 4513 4515 2804 3037 3050 4410 4935 3668 4627 4661 4786 3304 2961 4432 4288 3206 4312 3842 3419 3144 3054 4357 4038 4540 4627 2552 4673 4131 4384 4979 3219 3997 4095 3045 3642 4804 3595 4532 4998 3036 2610 4086 3870 4198 3023 4277 3347 4888 2677 4711 3826 3690 2743 4885 4975 3267 4326 4182 4376 3485 3709 4376 4609 4668 4465 4964 4135 2632 3793 4426 4007 4124 4351 4101 2827 2976 4282 3631 3473 3354 3837 4993 3673 2817 2575 3587 4022 4128 3559 4358 3650 2791 2895 4745 4959 2762 4686 4144 4053 3136 3460 4275 2509 3269 3269 2993 3236 4429 4956 4698 3107 3208 4953 4371 4984 4065 3355 4862 3042 3832 3111 3013 3269 4798 3955 2510 4660 4292 3923 3551 4033 3442 3352 3805 3666 4922 4254 4639 3071 4609 3648 3970 2749 2589 3318 3783 2891 3274 4 16 15 34 11 16 20 16 27 5 24 18 28 17 8 4 7 17 13 7 26 27 28 38 11 35 38 7 3 13 15 21 21 35 37 31 13 15 17 3 29 19 3 35 31 6 4 38 19 16 26 22 13 11 21 3 5 35 37 21 32 9 36 1 17 24 3 14 13 30 37 14 11 12 27 38 11 9 10 11 39 32 16 3 11 39 28 13 33 4 3 23 24 19 24 12 35 7 27 15 17 10 28 8 3 39 36 11 1 7 2 22 25 9 3 37 20 35 31 36 18 34 38 16 18 6 39 29 19 3 9 24 0 30 33 28 14 19 14 21 20 11 2 8 39 8 6 29 37 12 23 33 11 31 13 34 9 35 30 22 3 12 31 4 26 10 37 15 21 10 9 7 29 15 36 9 38 15 13 23 31 15 20 10 28 20 32 15 38 1 20 30 13 28 2 27 15 6 1 11 19 32 32 25 31 2 4 17 33 3 23 18 20 6 34 35 38 6 35 13 25 6 20 2 14
2747 4388 2638 2529 2901 3567 3978 2606 4947 4328 4563 3114 3969 3763 4986 3507 3482 4596 3683 4488 3853 4312 3046 4403 4140 3652 4622 3433 2684 4469 3468 4901 4039 3084 4390 2887 2978 2732 4726 4105 4782 4467 3908 2924 3665 2882 3104 2555 3843 3288 3387 4599 3236 2551 3440 2666 3956 4267 3338 3107 4794 4009 3210 3378 2940 2544 4885 4057 3116 4244 3559 2694 2745 3922 4036 4257 3028 3557 3271 4367 3744 3040 3080 3798 4112 4844 3224 3211 3349 4379 4406 3263 2741 4585 3630 3466 3165 4206 4967 2712 3400 4506 3368 3177 3734 4889 4157 4568 3388 3511 3195 4096 3019 4842 2623 3548 4275 3382 4054 3766 3877 4234 3886 3695 4091 3038 3598 2569 4523 3759 4513 3736 3134 4994 4117 4216 2846 3031 3647 4785 2689 3876 4064 3294 3003 4290 2834 3808 3802 4892 3397 3297 3395 3584 3477 3878 2831 3501 4795 3106 3514 4781 4006 3107 4407 2580 2709 4396 2661 2828 2540 4576 3145 4805 4336 3979 4772 4687 3434 3052 3879 3115 4769 4690 3374 4722 3940 3151 2945 3913 2660 3979 3340 4110 3719 4286 4539 3377 4344 3028 2904 2640 2753 3665 3492 3115 4197 3992 4119 4880 4895 4066 3040 4638 3958 3972 2726 4606 3830 3875 3393 3812 3336 3149 3246 5 28 22 16 22 27 2 24 30 22 16 10 16 36 7 31 6 28 14 11 32 27 32 14 36 21 26 27 16 28 7 38 35 20 3 25 35 35 36 7 22 3 4 25 11 17 16 33 11 25 30 36 39 26 22 33 14 38 5 27 25 28 36 16 31 3 15 37 30 13 39 21 3 28 10 28 12 34 13 11 8 10 6 32 10 39 31 28 29 6 13 19 30 38 36 34 24 5 39 28 3 33 30 31 37 9 21 28 12 16 21 37 20 38 23 35 7 22 13 34 2 21 25 36 7 36 18 38 24 23 4 24 19 0 38 8 5 29 16 26 3 5 15 33 30 23 38 31 2 23 3 18 10 37 19 14 36 14 10 18 36 32 19 12 1 11 17 36 29 31 22 31 3 39 32 30 9 21 19 20 1 17 13 4 2 26 11 20 19 14 39 15 35 15 33 27 24 32 38 9 11 13 14 3 26 6 4 22 9 8 3 38 38 36 36 27 25 30 37 7 36 37 26 19 24
4341 4207 2753 4690 4517 3119 4256 3137 3374 3206 4410 3639 3086 3422 4958 3684 3592 2518 3286 3630 4446 2867 3357 4400 4647 3485 4371 4216 4851 3287 3953 2598 2948 3036 3393 4459 2875 4357 4574 3810 3344 3948 3580 4655 2853 4743 3758 3961 2830 4855 4105 2880 4382 2810 4882 3283 3248 3006 2915 3376 2955 3808 4683 4071 3863 3764 4631 4443 3272 4885 4685 3761 4917 4773 4740 3346 3173 4497 3889 3418 4214 2502 4956 3687 3579 4585 3277 3178 4569 3778 3454 4146 4632 3488 4429 3285 2976 3013 2999 3537 4808 2619 4390 2585 3553 3060 4556 2574 4662 4969 4029 2544 4193 2880 2765 4824 4420 2744 4407 4507 3896 3868 4962 3852 3071 4924 4870 4673 3605 3548 4999 4712 4375 3286 4756 4528 4279 3970 3807 2577 4775 4474 3521 3467 2745 4159 3345 3326 3209 4063 4967 4379 2875 4212 2849 2930 3740 3382 4436 3313 4690 4576 4027 3218 2841 2545 3921 3423 4293 3446 4704 3858 3045 3364 4420 3969 2739 4542 3293 3486 3731 3832 3792 4597 4705 2875 4479 3665 3077 4422 3368 2986 3767 4797 4495 3054 3397 4995 4276 3662 4101 3118 4464 4017 4378 3602 4028 2731 4620 2699 2851 3632 4889 4323 3034 4022 4549 4837 2913 4844 3427 3353 4838 3745 4420 26 3 11 7 21 13 5 3 25 27 33 14 39 15 19 19 34 19 17 17 11 10 20 3 26 17 35 13 38 9 18 34 5 3 20 26 36 32 35 30 36 19 28 23 30 8 38 4 7 37 23 33 11 28 8 37 35 10 13 1 19 2 29 21 8 22 9 14 10 17 14 21 20 30 22 9 34 2 19 14 11 37 18 37 3 10 4 10 6 11 22 3 39 5 28 28 23 12 28 1 23 12 17 25 8 17 17 34 22 20 13 5 3 24 17 31 4 15 20 27 5 34 5 7 30 10 24 7 2 4 3 24 30 30 0 5 12 9 26 14 27 3 31 38 37 33 30 12 15 35 25 31 12 37 20 4 17 34 11 36 8 12 20 22 37 11 1 39 23 22 37 5 13 32 39 26 12 28 35 8 34 16 9 17 13 15 16 24 9 22 26 32 6 4 20 19 25 14 31 17 36 18 21 17 36 5 23 34 36 37 6 11 17 14 18 28 22 9 14 19 15 17 31 16 31
2991 4956 4063 3640 4553 4963 4859 3293 4754 3357 4667 2816 3231 4356 2681 4521 2527 6 4423 4167 2559 3350 3148 2547 4482 4903 3012 3766 4119 4980 4005 2820 4447 3961 3054 3619 3188 3585 3040 4481 3549 3556 3459 4277 3734 2728 2505 3589 3098 2976 3270 2963 4999 3653 4583 3759 2663 4711 4258 4593 3742 4100 2603 2645 3509 4692 4727 3721 2665 4951 3785 4868 3034 2878 3719 3712 4495 4891 4164 4279 3019 3102 3380 3171 2907 2502 3574 2941 4281 2646 4249 4228 3890 3490 3961 3717 3283 3772 3772 2788 3880 4604 4650 4675 4392 3284 2687 3889 3421 2657 3296 2623 3516 3098 2970 3681 3100 4914 3290 3029 3688 4112 3002 3568 3548 3380 3959 3528 2502 4364 2711 4855 4185 3790 2920 3075 3539 3084 4608 4753 3456 4565 3436 3270 3826 3865 4073 3552 4189 2652 3762 4420 4746 4184 4690 2645 3613 4120 3546 4768 4670 4433 4009 2533 3772 4757 4735 4814 3017 4827 3076 3429 4223 4574 3571 4730 2855 4511 4544 3526 3675 4197 4184 4291 3171 4988 3693 3688 3378 3734 4985 3850 3501 4571 4455 3179 4785 3648 4193 2622 3923 3378 3594 4618 4630 3542 4780 4318 3239 3835 2740 3527 3763 3261 3843 3137 3924 2751 3698 2714 4558 4322 3717 3356 4876 6 34 5 34 36 28 11 12 2 13 10 16 24 29 25 12 24 4 15 25 10 15 32 20 5 11 16 24 39 28 12 10 37 21 36 32 4 28 24 3 30 8 13 4 35 13 21 33 29 4 23 15 29 6 7 11 20 4 38 8 26 39 14 21 26 27 17 11 31 7 23 18 9 38 15 6 6 22 10 1 32 26 14 28 33 6 31 19 30 19 4 28 30 3 25 13 24 22 23 6 2 14 3 32 8 39 39 19 34 9 27 21 37 11 13 20 4 26 7 21 32 35 4 21 29 18 10 3 9 18 18 38 28 29 12 0 26 17 31 5 23 26 18 24 22 38 29 39 19 4 14 2 15 10 39 21 29 23 38 13 24 34 24 2 31 36 10 7 11 39 31 18 33 17 17 13 13 5 5 21 34 36 2 32 7 27 30 9 16 20 2 30 38 10 12 8 6 34 7 17 20 12 22 8 5 28 39 16 32 32 30 28 5 34 30 30 17 14 23 23 33 10 29 23 27
3379 2804 2577 3185 4439 3969 3901 3884 2789 2636 3770 3018 3036 4019 4047 3185 3566 4788 3397 2603 3996 4616 3714 4717 3467 2689 2701 2828 3059 2952 3015 4016 3304 4899 4739 2591 2700 2634 3267 3571 4266 4169 4788 3673 4567 2929 4304 3637 3494 2685 3241 2725 2914 3339 3731 4285 2913 3075 2643 4527 3908 3805 3205 4425 2763 4403 4475 4458 2679 3935 2519 3498 4539 4499 4389 4820 3847 4458 3629 3084 4093 4143 4100 3673 2566 4127 3506 2556 3485 3016 4193 3614 2778 3838 3768 3636 2823 2948 3199 3397 4844 3484 3925 4036 4225 4354 4669 2968 2696 3579 4696 4436 4913 3058 3467 2856 2923 4382 4280 4186 3802 3605 3140 4728 4515 3317 3322 4282 4421 4698 4285 3647 3573 4270 2984 4672 3529 4416 3933 3847 3387 4608 3472 3409 4589 4750 3525 3732 2704 3421 3057 3190 3486 3570 3482 3733 2525 4817 4295 4711 4475 4672 4215 3166 4620 4596 2732 2680 2646 3247 2899 4283 3600 3133 4851 3992 3198 4291 3783 3795 2815 3734 4089 3206 4994 4794 4242 17 4164 3818 4158 2806 3307 3609 2550 3015 3474 3847 4740 3306 3297 4290 4550 3704 3346 2914 2698 3415 4697 4888 4605 3717 3761 2639 4330 3176 3304 4688 4770 4977 4460 3089 3999 4428 3818 1 35 25 21 32 24 4 1 13 28 27 12 12 30 15 39 23 35 6 32 19 20 1 6 12 23 26 31 7 9 10 3 30 6 26 31 20 29 21 5 11 6 16 23 25 5 9 33 13 6 37 15 10 2 35 21 19 33 26 11 23 36 9 32 34 12 15 14 34 2 12 25 33 33 20 1 8 16 10 38 28 31 13 32 29 24 1 31 16 6 30 24 30 7 27 36 8 36 34 36 16 2 16 26 38 4 4 22 33 22 24 33 32 5 32 15 31 23 23 36 13 2 15 13 9 26 25 6 10 26 25 12 2 20 29 1 0 26 30 34 11 9 18 18 35 15 28 2 16 19 14 25 30 24 13 7 18 17 22 20 6 4 10 7 29 37 30 14 39 33 16 12 23 1 23 16 25 26 27 7 16 39 36 25 11 4 23 14 29 5 14 31 34 27 26 22 3 15 25 18 26 29 27 34 22 29 20 31 17 14 19 5 37 6 28 21 30 8 25 28 14 3 33 26 26
2729 4381 4071 4981 3892 2606 4083 3643 4631 3904 3305 2510 2778 4492 3053 3142 4594 4735 2513 4247 4439 2724 2594 2839 2559 3404 4671 3234 4954 4463 3593 4453 2627 4134 4677 3824 4389 3734 3328 2590 4795 4014 2950 3932 3953 4526 3802 3274 3072 4565 2854 2720 3072 4689 4961 3480 4263 3299 2857 2744 3047 4602 3876 4463 4103 4459 3003 3405 3792 4611 2737 2507 3820 3603 4003 3651 4136 2878 4193 3249 4457 3564 4873 4464 3284 4279 2542 2565 3138 3891 3388 3137 4495 4103 4803 3585 4569 3541 4358 2550 3227 3237 4911 4031 3447 4920 3398 3865 3487 3771 3124 3399 2754 3036 2709 4762 4796 2519 2820 4534 2971 3514 4757 3042 4969 4208 2947 3101 2779 2598 2804 3003 2850 3618 4498 3983 4121 4147 4678 3485 3416 2580 4214 3488 3294 4935 4174 3098 3528 2683 3256 2779 2987 2789 4664 3427 2875 3204 4688 3863 3442 4977 3916 3958 4577 2593 4192 4893 2757 4535 3471 3774 4372 3339 2911 3898 3173 2968 4278 3033 4091 4439 2573 2621 3575 2743 4881 3657 3785 2803 2852 3527 3372 3744 3324 3861 4469 3271 4265 4011 3376 4833 2535 2697 4097 4797 4195 3573 2948 4450 4479 4580 3710 3941 3465 3569 3976 3128 4547 3736 4181 3774 3230 2930 2555 8 32 2 7 17 24 32 16 26 21 31 26 30 15 7 26 16 15 19 39 29 10 8 33 38 29 33 25 8 27 1 3 8 35 28 31 31 14 19 7 27 5 1 7 19 18 31 14 12 38 19 25 14 27 28 37 13 22 10 9 33 23 6 5 18 35 27 38 23 22 25 7 32 9 34 4 8 11 20 27 27 35 7 37 34 17 20 16 25 8 20 26 14 13 23 35 28 25 16 11 36 27 15 16 28 5 19 14 14 16 21 20 13 35 32 6 5 32 13 30 23 17 1 3 39 22 33 37 20 10 13 29 15 31 25 26 36 0 6 39 39 7 36 29 26 25 23 30 33 4 22 23 6 10 34 25 15 18 18 14 20 1 19 6 22 14 28 17 38 15 21 23 25 31 8 15 6 19 7 5 5 32 31 38 29 9 5 36 15 34 17 21 4 19 13 23 8 32 31 27 32 38 15 33 20 30 13 25 34 11 15 1 37 28 21 13 10 19 21 28 34 31 8 7 31
2524 3817 3853 4413 4997 3087 4786 4045 3454 4358 3716 3008 2564 2869 4569 4309 4384 4552 3042 4765 4532 3552 3075 3228 3153 3982 4919 3372 2739 3674 2721 4129 2996 4192 4075 2761 4867 4365 4516 3411 3958 2773 4631 4595 4034 4562 4099 4923 3123 4450 3518 2710 4631 3781 4543 3734 3696 2686 4383 4993 3039 4505 3011 3666 3899 2802 4024 4643 2601 2576 4489 4997 2527 4058 4491 3704 2937 3447 2635 2553 4613 4513 4522 2974 2825 4195 4814 4282 3095 2710 4027 3298 3925 3785 3378 3722 3747 4997 2618 3336 3470 3996 2644 4112 3123 4803 3302 3485 2727 3372 3882 3571 3251 2771 4965 2632 3980 4087 3015 4315 4548 3511 3446 3528 4080 4067 3622 2968 3951 4927 3899 4148 2734 3220 4228 3304 4817 4187 2924 3998 3339 3441 3514 4727 3885 3006 3720 3787 2757 4888 3949 3486 3506 2614 2930 4738 4349 3085 3254 4963 4392 4599 3296 4101 4951 3123 4939 2552 3982 3241 3181 4087 4734 4353 4089 4707 3670 3869 2777 3899 3668 4905 4633 2986 4221 3152 3027 4546 3837 4326 2675 4561 4184 4278 2589 4053 3109 2654 3015 4572 3646 3302 2945 4978 4788 4183 4639 3407 4488 4819 4656 3929 4916 4255 2733 3169 4147 3630 2716 4071 4964 3553 4896 4391 3132 9 39 2 13 38 19 22 31 26 37 23 31 21 18 25 36 29 7 25 37 10 31 15 14 29 27 10 3 36 14 32 12 27 38 7 23 10 5 14 23 3 30 11 8 20 4 38 33 24 20 30 25 32 33 28 15 15 11 14 3 36 37 37 18 39 37 14 12 25 18 30 23 18 16 31 27 38 36 32 19 16 7 21 22 34 1 14 2 15 18 25 15 37 35 7 33 12 3 13 39 29 33 2 14 32 1 28 7 4 21 18 10 22 6 4 20 2 38 9 16 16 9 31 38 10 8 32 37 5 17 12 7 35 29 1 25 14 16 0 37 4 12 36 30 23 1 23 6 37 36 38 33 25 10 36 34 36 22 39 2 35 25 35 8 16 13 7 3 36 32 11 5 4 6 8 10 31 2 36 3 17 2 38 25 4 20 10 26 20 27 1 27 22 26 2 4 24 23 23 7 37 5 18 34 14 26 24 34 30 3 14 16 23 1 17 30 11 7 36 1 27 8 8 18 19
3851 3682 3110 3073 3100 4999 4087 4938 3572 3432 4456 2798 3670 3497 2691 11 4277 3186 4447 3112 3749 3546 3979 3111 2797 3954 4899 3306 4378 2753 4836 2651 3300 4778 2540 3709 3253 4636 4445 4014 2825 4679 3172 4122 4857 4454 2638 2939 2787 4882 4860 4725 3377 3649 2767 4041 2502 4340 3220 3083 3022 2863 3063 4431 2511 3623 2844 2853 4409 3948 4423 3049 3872 3864 3610 2976 4152 3295 4660 4244 4284 4037 4838 3787 2895 3976 3973 3386 3133 4801 3556 3183 3219 3381 4534 3869 3728 2853 3040 3334 4935 4551 3077 3898 3336 4346 3548 4499 4387 3858 2834 3593 4381 3743 3359 3884 4157 4452 2539 4876 3308 2881 3197 2546 4485 2888 3772 4400 3020 4941 3757 4151 2918 2580 4056 4361 3895 4855 4859 4259 3824 4598 3197 2538 3841 4062 3974 3396 4018 3392 2651 3838 3717 3204 4288 2685 3092 2870 3511 2977 3885 4041 3645 3797 4352 2661 3618 4830 4704 2797 2577 3587 4356 4212 4923 4211 3992 4396 4752 4955 2761 2993 2922 2929 3540 3577 2701 3308 4395 2962 4186 2979 4612 4949 3491 4697 3334 4123 4393 4167 3792 4212 3329 4046 4768 4164 3089 4727 4121 2870 3550 4043 4209 2724 3603 2647 3471 3669 3626 2519 4019 3977 3687 2708 2815 16 34 5 5 26 29 10 23 2 25 17 5 25 27 36 2 5 15 34 1 30 3 14 34 30 26 10 23 26 25 11 10 36 13 13 35 8 7 36 21 27 31 22 20 37 4 34 11 25 6 37 37 33 4 8 38 32 12 11 15 18 16 13 5 19 28 17 14 38 22 28 7 35 8 16 22 24 15 2 34 23 14 6 31 3 24 39 18 20 24 7 30 28 34 31 15 19 28 20 34 13 34 2 38 35 31 36 27 37 6 5 26 30 38 7 34 14 12 12 11 26 17 16 39 6 26 36 20 13 32 1 37 33 8 10 15 34 5 4 0 26 4 5 36 30 10 27 26 20 13 1 14 30 11 35 2 21 20 36 33 5 38 29 25 3 25 33 13 36 37 34 38 27 22 18 9 19 25 10 28 30 30 37 4 17 20 7 11 39 5 7 1 12 22 2 32 20 8 13 23 34 11 32 17 39 1 32 8 34 21 1 5 29 6 26 5 26 7 24 22 21 26 2 5 25
4704 3689 3517 4626 3745 3422 4515 3858 4948 3815 2933 3630 3968 4255 4070 3180 2525 4734 3929 2711 3549 4822 3021 2514 4644 3117 4774 4367 2987 4899 3665 2596 4812 2643 3942 4290 3823 4722 3789 4617 4580 3009 3816 3576 4400 3911 4705 3854 4399 3100 4309 2825 3315 3599 3389 4784 4422 4599 2507 3591 3152 17 4638 2672 2634 2704 3759 4978 3501 4077 2690 4742 2618 2946 4940 3745 4684 3454 4696 3353 3250 4237 3578 2770 3073 2600 3909 2750 3671 4875 3510 4306 2936 2897 4781 2988 4285 3137 3003 4359 4894 2589 3042 4107 3288 4906 4872 4112 3335 3970 4670 4731 4540 2853 3208 3934 2731 3558 4552 3547 3497 3101 4722 3130 4622 3732 4164 3203 3693 2907 3926 4028 3324 3211 4398 3093 4470 4155 3875 3179 4039 4064 3194 3178 4542 4689 4392 2695 2557 2852 4857 4341 3482 3312 3912 3298 2540 4068 3534 4312 4472 2829 4749 4697 4677 4723 3744 3478 3963 4961 4653 3750 4534 16 2542 3858 2851 4410 3748 3841 4278 4836 4133 3001 3139 4416 2778 4995 2796 2662 3735 2814 3658 4276 4124 3334 4171 3176 3977 4410 2680 4918 3718 3937 4367 3250 2992 3713 3800 3299 4706 2882 3844 3244 3854 4188 3373 3649 3887 4775 3728 3715 2878 3215 4249 32 13 11 17 13 19 8 38 26 9 32 15 14 34 11 36 7 12 11 27 16 36 32 24 37 8 13 15 37 17 22 22 18 4 36 27 37 25 20 38 37 37 39 2 1 13 27 6 17 8 31 28 20 10 38 39 17 8 8 31 26 17 17 6 30 23 34 36 7 33 22 9 35 27 5 17 8 13 35 10 29 37 13 6 10 24 20 2 13 32 18 29 3 38 15 18 37 10 1 1 9 14 33 2 38 8 1 19 10 36 28 33 20 26 30 34 31 12 13 31 10 22 23 15 1 29 27 27 32 24 29 19 19 33 10 38 6 5 8 29 0 25 30 7 1 7 19 31 28 26 31 33 25 26 5 26 31 38 1 37 31 39 10 20 14 12 22 35 13 4 8 35 25 36 34 18 33 2 36 3 30 6 29 26 30 27 6 20 25 7 30 19 4 34 22 16 31 14 24 27 13 6 36 33 7 20 2 6 18 22 12 21 37 9 29 23 10 4 35 26 32 33 31 23 36
4229 2932 3131 4156 2802 4950 3566 4602 4526 3219 3756 4448 3713 3238 3211 3418 3701 3613 3750 4204 4435 4766 2904 3637 4179 4028 4412 3159 4115 3963 4276 3585 3047 2807 4748 2523 3446 4031 4387 3743 3941 2505 2581 3333 4045 4991 3814 3856 2794 4377 4904 3425 3575 3067 3952 4935 3093 4369 3039 2914 2799 3016 3221 4139 3812 3449 3955 2930 4369 4635 4480 2553 3492 2508 4670 3091 3859 3770 3261 3651 2872 4732 4278 3574 2860 2804 2803 2665 3809 3978 4068 4475 3740 3648 3006 2961 4116 3317 2689 4958 4362 4080 3442 3714 3618 3736 2515 4646 3957 4967 3701 4968 3250 3147 4232 3736 4603 4711 2903 4984 3922 3064 4755 2513 3573 3950 2552 3646 3805 3849 3467 4579 4431 4763 4389 3394 3412 3686 3203 4395 3044 3191 4210 3072 4105 2619 4777 4175 4032 3868 2665 3229 4019 2924 4429 2625 3677 3259 4910 4732 4262 2697 4698 4698 2579 4062 2796 4147 3574 4326 4581 4970 3775 4379 3069 3371 2535 4898 4631 4091 4596 4469 3909 3766 3923 3135 3006 4508 4223 4686 3340 3966 2660 4125 2528 3848 2757 4962 3875 3788 2704 4193 3471 3698 4516 4440 2538 4348 2809 3718 2856 4618 2510 4992 2566 3348 3330 3727 4967 3893 4353 3615 3111 3963 4156 26 39 27 22 37 33 14 16 23 36 8 32 34 19 22 35 10 25 22 9 14 28 11 38 37 30 36 31 34 6 15 11 34 4 21 11 12 38 22 39 30 14 22 11 23 25 26 18 36 3 31 35 12 1 35 1 29 25 34 31 22 16 10 33 3 32 27 28 6 10 37 9 2 6 11 3 12 16 23 3 26 15 4 23 16 2 24 7 24 23 9 9 26 10 5 6 37 29 32 30 17 14 8 2 15 13 16 5 29 27 33 31 17 30 36 36 32 22 1 28 21 35 11 30 35 30 13 18 1 14 3 23 33 19 30 39 2 37 26 20 22 0 36 34 16 19 36 8 7 21 31 23 34 18 21 12 35 21 24 39 4 32 35 15 38 39 7 4 5 25 22 32 5 37 17 17 14 39 3 7 20 32 34 31 29 25 24 19 3 35 37 38 8 11 24 33 13 35 31 28 21 7 33 9 17 9 19 16 24 32 23 14 27 15 21 18 10 21 4 6 36 16 19 18 28
4533 3949 4635 2773 3575 2903 2560 2938 3857 3523 2613 4902 3279 4703 3231 3335 2857 2816 4876 3302 4260 4422 2687 3377 4161 4815 3090 4490 4098 3887 2870 4675 3967 3265 4242 2878 4098 3578 2650 3140 3625 3669 3621 3858 3308 2646 3057 3914 4576 4692 2709 3824 4961 4919 4944 3739 2540 3385 4640 3816 3791 4126 4404 3946 4416 3804 3685 2829 4630 2708 2941 4318 2851 4774 3173 4836 2843 3974 3913 2739 3755 3774 3666 4757 2632 2997 4680 3977 3301 3944 4361 4023 4823 2871 4930 3975 2906 3569 2938 2812 4378 4232 2810 2562 4731 4587 4553 4964 4175 4917 3271 4926 4573 3126 2861 2761 2903 2850 4632 2918 3518 3017 4451 4404 2539 4545 4038 2698 4472 3608 3317 3476 4463 4732 2618 4001 2984 2580 2867 4791 2700 2929 4935 3837 2668 4453 4084 2570 4530 2696 4925 3052 4543 3253 3132 4950 2582 4956 4600 3948 4531 3461 3020 3285 3077 4019 3514 3712 3056 3181 2791 3794 2869 4126 4974 3441 2961 4406 2671 3404 3157 4468 4727 3099 2505 4045 3365 3960 4336 3439 2772 3112 3296 3352 3802 4717 4944 4094 4601 3079 2643 2764 4021 2623 4266 3986 4538 3357 2600 4102 4422 2969 3232 3912 2775 4408 4831 3304 3821 3034 4513 3843 4594 3074 4023 26 30 28 32 38 16 22 20 18 30 26 25 24 33 8 26 20 18 3 14 15 22 15 30 11 31 10 3 9 37 8 29 13 12 3 31 20 4 25 13 1 14 14 28 14 18 7 26 16 23 20 34 5 13 27 13 35 20 10 31 17 12 32 38 2 26 26 3 5 11 39 11 26 14 12 6 2 2 36 27 36 23 21 15 5 20 35 37 30 33 1 23 34 31 14 2 33 36 29 36 26 6 12 28 29 2 18 17 3 23 1 32 22 27 19 36 1 35 16 14 7 15 10 33 27 11 20 16 7 39 20 14 38 26 6 13 19 28 21 19 4 7 0 31 18 10 15 29 12 30 7 16 20 16 9 10 3 38 2 16 10 30 22 13 5 30 39 26 39 26 23 2 30 4 1 35 11 31 14 18 33 36 39 28 1 34 3 16 35 34 20 16 3 8 14 20 27 2 39 28 26 2 25 33 23 28 29 10 26 36 2 16 22 25 39 35 28 3 33 18 4 34 6 15 22
4425 4629 4830 4998 3021 3205 3649 2998 3879 3275 3558 4411 4676 2533 3482 3232 3806 4701 4725 4090 4829 3930 4783 3230 3631 4991 4398 3006 2622 2963 4441 3107 2957 4248 3149 4322 2967 2565 4771 4597 3345 4256 4372 3740 3248 2603 3472 3802 3675 3539 4372 3788 4179 3814 4397 3510 4894 4763 2807 4587 4720 4607 3473 2895 2537 4578 3283 3940 4854 3569 4633 3420 3816 3647 4831 4476 2891 3501 4709 2765 4472 4107 4797 3894 4577 2883 2889 2543 3704 2776 4012 2508 3332 3000 3903 2672 3978 3950 4239 3271 2926 2807 3523 4833 4893 3337 3881 3179 4384 4825 3383 3548 3500 4934 4198 4712 3390 19 2976 3438 3640 3892 3769 2745 2681 3114 2907 3659 4086 4475 15 3079 3853 4930 4806 4434 4856 4664 2887 4189 3917 2656 4785 2721 3642 3151 2740 3644 4131 3675 3254 2711 3096 3706 2514 3592 4300 4061 3459 3912 3942 4971 3408 2996 3951 2855 3194 2547 4651 3087 4231 4406 4115 3802 3776 3646 4920 4302 3400 3486 2697 4073 4550 3452 4302 3179 3943 3897 2700 2532 4880 2740 3288 3761 4763 4110 4335 3807 4761 3368 3760 2625 3892 4552 4452 3548 3154 3796 2818 2677 4670 4161 3557 4802 4127 2663 2549 4032 3884 4153 3586 3460 4549 4158 4354 23 2 12 32 30 30 32 14 25 5 33 5 35 13 36 31 30 15 32 4 31 9 24 8 13 13 7 28 22 8 37 5 39 3 9 38 37 37 24 8 30 30 21 24 2 36 38 13 11 17 1 28 24 16 23 35 37 30 4 12 37 29 33 26 28 23 2 5 35 28 3 18 28 39 25 36 21 14 31 31 29 22 13 4 5 12 10 17 20 9 37 11 10 27 30 15 22 2 33 27 15 32 30 16 2 32 29 14 24 1 1 31 14 1 29 17 27 3 9 29 32 1 25 17 31 27 30 34 31 23 37 1 7 12 31 32 29 10 16 6 19 10 20 0 38 30 13 30 33 4 38 35 31 28 22 3 4 20 37 14 31 39 8 18 11 15 5 27 1 3 12 28 8 17 6 8 4 30 14 2 6 10 15 14 11 23 39 21 33 21 5 14 26 29 24 28 34 34 21 13 18 14 30 27 37 19 12 34 38 34 13 4 39 3 25 14 31 26 16 17 30 23 26 38 17
2710 4601 3625 4823 3668 3856 2954 3245 4642 3987 3183 4210 4225 2531 2607 3952 4187 3809 4074 2733 3378 3538 4167 4678 4521 4542 3873 3333 2624 4394 4875 3138 3020 4172 4418 3787 2604 2794 3399 4645 3434 4167 4773 4258 4292 3199 3946 3259 2633 3925 4473 3383 4403 2669 3662 4041 4593 3646 3696 4244 3675 4656 3272 2847 4532 4023 4694 2742 2978 4793 4590 4500 2698 4145 3621 4711 3613 3758 3811 4817 4889 2925 4829 3244 3101 3842 3847 4187 3560 3078 2949 3584 3502 3471 3030 3819 4163 4667 3305 3956 3601 4683 2992 2509 3602 2598 4375 3582 2756 4700 3398 2743 4190 4215 4173 4296 4592 4224 4140 2882 3239 2719 4644 4309 3128 4363 4190 3702 4255 2634 2506 3070 3088 4731 4432 3985 4172 3735 3885 3227 4732 3865 2878 3824 4968 3402 10 4044 4459 4364 4039 4284 3885 3826 3212 3964 3759 2944 3643 3291 4924 2528 2913 4625 4135 3226 3070 3411 4289 3411 4779 2717 4779 2764 3486 4887 3052 3361 3258 4853 4453 4711 2816 3198 3960 4623 4336 3740 4366 2635 4356 4976 4005 2584 2750 3168 3747 2576 3374 3679 4991 4158 3918 4214 3104 4168 4307 2557 4785 4169 3922 4586 4250 2890 3779 2621 4574 4027 3558 3889 2566 3209 3142 3220 3290 16 31 13 35 4 1 30 9 32 27 24 5 29 10 20 26 10 19 32 1 28 2 2 16 4 10 24 18 28 14 9 6 11 6 17 10 4 31 12 2 22 23 22 6 1 30 34 10 28 11 3 11 19 36 5 28 16 3 21 38 5 25 13 32 19 24 4 31 7 35 18 4 15 13 25 16 37 9 31 39 38 35 29 34 9 39 18 23 30 29 13 20 20 1 26 5 1 11 5 3 20 4 12 11 28 34 11 39 20 17 9 34 27 3 2 10 3 5 29 30 34 23 19 29 26 10 9 10 24 39 18 24 8 21 32 6 8 34 12 23 4 29 10 3 0 17 23 37 32 28 13 31 36 17 4 28 22 22 34 15 1 15 2 17 25 18 28 32 20 11 17 27 15 11 29 4 13 10 37 34 11 38 28 6 11 27 32 10 27 13 12 16 7 14 10 4 31 16 8 19 29 14 11 29 16 28 19 27 9 30 30 34 33 10 34 11 23 8 22 15 38 35 35 32 25
3114 3253 2826 2593 3989 4189 4208 4483 4618 4858 4596 2630 3947 3823 3547 4091 4055 4823 4588 4256 3400 4440 2724 4605 4578 3525 3853 3204 2898 2969 2783 3684 4761 2961 4663 3766 3910 3164 4007 4099 2632 4125 3794 3424 3800 3663 4586 3431 3635 3194 2917 4881 4134 3315 3898 2621 3127 2798 3254 2643 4449 3844 4030 4564 4665 4489 4798 2731 4591 4971 2583 2659 3853 3967 4581 4648 2846 3096 4084 4966 5 4432 4506 3463 4425 4830 3811 4378 4829 2876 4557 3348 4300 4829 2876 4103 3670 4268 4899 3186 3579 4782 4288 2712 4894 4952 4566 3436 2731 2609 2736 2754 2970 3353 3050 4624 2521 3708 3236 3740 2903 2721 3318 4646 4678 4457 4638 3065 4884 4108 3895 2848 3133 3098 4799 2589 2862 4935 3515 3552 3614 3509 4767 2534 3469 4263 3163 4340 4005 3654 4558 3533 4436 3270 4557 3185 4544 4066 3647 3914 4558 4934 2642 3359 3167 3467 2566 3378 4053 4769 4671 3360 4118 4394 3022 4382 2859 3835 3386 3431 4287 2674 4301 4136 4229 3838 3532 4407 3033 3836 2983 4864 4674 4240 2548 3220 3340 4213 3618 2897 3198 3824 3015 3315 3186 3573 2545 4058 3432 2900 3768 4295 3980 4120 2963 3975 4934 3925 3417 3458 4657 4819 4373 2772 3479 38 6 35 2 12 22 38 32 29 28 19 14 3 3 32 38 25 27 2 9 6 16 16 21 29 14 37 17 11 38 5 12 13 10 24 8 8 17 31 30 5 25 5 19 32 13 5 12 1 7 22 12 37 35 39 4 22 8 2 39 35 22 35 19 22 18 4 28 13 14 28 21 18 12 10 13 33 19 2 10 2 8 5 10 31 13 25 18 22 5 36 7 23 26 23 15 37 16 22 16 30 1 9 33 18 6 1 9 13 23 25 39 7 17 34 34 30 2 13 20 9 3 23 6 5 25 16 11 10 33 18 36 17 38 17 36 12 1 35 27 18 28 27 5 37 0 2 27 11 15 20 5 30 3 4 3 12 17 23 38 21 3 13 16 24 14 30 4 1 15 32 1 37 19 29 16 13 11 14 20 18 14 38 27 34 26 7 18 18 37 12 27 14 29 20 23 30 16 26 6 12 9 20 5 1 39 5 5 19 4 17 15 13 28 22 36 23 8 35 33 7 1 37 16 26
4228 4993 4506 4140 3135 3760 3254 3282 4106 4084 4594 3156 3767 2725 3962 3078 4804 2578 4485 3967 3820 3080 4270 3995 4011 4816 3782 4383 2938 4971 4264 2894 3600 3585 3807 2835 4812 3665 2977 3181 4169 3502 3837 3130 4955 3170 3538 2706 2600 3753 4880 4331 3229 2886 3889 4063 3840 2532 4146 2754 4623 3584 3499 4933 4568 3446 2574 3511 4065 4453 4953 4831 3914 3615 3421 3069 4476 4118 3865 2899 4511 2541 2969 3407 4184 3331 3223 3598 4640 4023 3739 2866 3027 3159 4058 4502 4267 4183 2877 4910 4916 3847 3583 3320 3295 4787 2516 2764 4432 4561 4954 2696 3847 4216 4256 2885 3309 4268 2532 3500 4396 4949 4884 3228 3574 3915 4202 3828 4701 4499 3482 2866 3414 4120 4715 4335 2733 4909 4748 3707 3626 3389 4360 4841 3890 2985 3098 4082 3974 4449 4195 4725 3563 3137 4525 3314 3583 4820 3213 4895 4807 2937 3680 4667 3422 3023 2707 4085 4859 3494 3511 4099 4121 4888 2570 2838 4829 4927 3903 4138 4867 4290 4043 4205 4193 3389 4219 4493 2849 2902 4689 3351 3915 2702 4829 3446 3736 3871 3355 3342 3097 4623 2701 4243 4238 3852 3339 3581 4470 4996 3484 4900 4557 4999 3635 3937 4091 3419 3358 2949 4258 4453 4929 2965 3013 9 32 31 13 6 1 6 27 26 23 8 39 33 29 7 21 8 37 11 28 2 20 6 19 21 15 1 22 9 15 11 6 36 26 12 33 5 4 32 1 13 34 6 39 8 3 4 16 14 31 13 11 2 15 32 26 26 22 17 38 19 6 17 9 21 38 3 25 17 19 23 19 31 20 10 9 36 4 13 28 36 30 33 19 10 20 2 31 32 14 25 2 1 24 21 22 11 8 4 8 34 11 18 10 32 34 23 27 25 11 5 13 33 28 15 38 29 36 10 2 36 37 12 39 9 25 30 6 35 28 22 18 16 26 17 24 32 1 31 7 11 4 32 36 18 4 0 16 15 9 23 2 16 1 32 15 14 38 3 3 27 18 33 37 11 1 16 26 20 3 5 7 24 6 4 15 19 7 16 1 2 11 21 6 23 12 13 18 36 6 18 8 36 13 22 23 21 25 1 25 30 11 37 11 31 5 17 22 25 19 11 20 15 14 11 35 38 23 34 26 29 39 11 21 38
4061 4900 4530 3818 2681 4174 3696 4525 2508 3547 3465 3477 4141 3920 4218 4738 2617 3524 4406 2681 3977 4071 3615 3094 3229 4095 4040 4149 3085 3510 3696 4930 2627 3393 3765 3949 3743 3226 4177 4296 3958 3268 4871 3292 2946 2841 2642 4546 4528 4234 2765 3897 4089 3046 2568 4389 3806 4250 3095 2649 4564 3840 3520 2908 4166 4168 4162 4539 4878 3154 3763 4901 4089 4565 4884 4707 4452 4357 3334 3562 2659 3891 3186 3467 4480 4213 3038 4842 2650 3148 4594 4044 2566 4260 4708 3153 3638 3896 3246 4815 4729 4648 3231 3587 4647 3194 2871 4393 2918 2871 2516 3935 2509 4323 2783 4023 2524 4852 4236 3676 4648 2567 3504 2999 4420 3072 4852 2692 4249 2885 4426 4961 4436 3083 3935 2952 3051 2698 4629 4015 2515 3571 2680 4754 4224 2513 2764 3552 4502 3337 3816 2713 3779 4600 3708 3578 3339 4925 4123 3814 2616 3232 4643 4195 4590 4790 4303 3071 4482 3628 4591 4040 4641 3362 4504 4222 3321 4918 2615 3597 3671 4270 4925 2923 3309 3937 2598 3681 4755 4324 3607 3022 4519 4120 3912 3578 3354 2888 4249 3480 3104 4814 4677 3929 2843 4379 2578 4139 3638 3747 2690 2648 2579 4078 4553 4059 2545 3119 4558 4115 2891 3845 4087 3010 3352 22 8 4 23 37 33 3 33 16 14 19 23 2 25 27 33 4 20 17 36 31 18 31 25 3 12 13 12 11 11 32 2 28 38 33 10 22 30 16 4 9 8 17 27 17 38 34 24 2 36 3 6 25 16 28 38 34 4 11 16 35 21 9 31 12 18 21 26 39 23 35 38 8 9 18 24 1 36 23 29 8 14 3 16 26 18 19 32 34 1 14 34 15 11 4 15 28 31 26 30 20 32 36 36 26 29 18 33 34 20 29 23 39 10 4 2 23 8 36 39 30 22 8 13 13 17 28 12 2 3 19 13 4 37 26 4 28 26 29 22 36 20 37 39 38 9 4 0 1 28 16 13 33 6 12 21 16 27 9 27 4 30 39 25 11 21 11 32 30 1 35 2 9 31 29 16 21 6 12 5 10 32 21 20 29 15 34 22 20 1 1 32 35 22 37 9 30 6 31 29 33 7 20 6 15 23 20 32 6 23 17 22 19 7 27 16 19 19 35 25 6 17 1 22 39
2660 2737 2722 3156 3922 3457 3052 2655 3210 4921 4145 2667 4675 3203 3948 2775 4713 4023 4212 2756 2669 2761 3425 4040 2838 3725 3862 4596 2771 3349 4357 3237 3161 3030 3155 2712 4653 2697 3911 2667 6 4908 4147 3034 3378 4255 4864 3218 3290 4542 4395 3933 4857 3839 3660 4146 2609 4571 3494 4736 4990 3050 3177 4822 2964 4417 4455 4366 4581 4717 4000 4502 3881 4371 3574 2543 2646 4560 3482 3650 4275 2515 3844 4525 2855 4731 3347 4757 4826 7 4379 3592 4604 3187 2849 2779 3939 3593 2749 3922 3252 3925 4910 2996 4597 3441 4251 3616 4771 3582 4840 4388 4761 3121 3030 4569 4502 4467 4521 3677 4882 2797 3447 2884 4371 3744 3459 2803 4985 3425 4871 3668 4634 3405 2654 4697 3616 2853 2741 3992 4285 3862 3140 4982 3013 4840 4325 4866 3999 3853 4166 3142 3997 4387 3527 3331 5 3167 3494 4037 3440 2875 4787 3617 12 4499 2932 2723 2558 4566 3626 3927 4989 3518 2848 4123 2883 4330 2871 3415 3785 3046 3737 3430 3560 4689 2656 4467 4802 3849 3670 2857 3147 4518 2531 4775 3914 3261 3671 3789 3984 4616 2758 2540 3800 3029 2716 3119 4800 4811 3865 2903 2946 4001 4556 3678 4503 3209 4065 4004 4472 4700 2581 2650 4459 15 7 31 6 28 9 23 30 20 5 33 24 12 22 1 18 16 12 9 29 29 16 11 15 24 23 18 39 4 26 29 23 3 4 28 36 6 8 2 9 6 7 17 30 20 29 20 24 11 30 13 15 6 29 12 15 35 5 29 37 17 33 27 27 15 11 32 6 4 7 20 19 4 13 26 21 39 39 19 13 5 22 5 34 22 31 6 36 17 6 35 15 1 7 17 35 20 30 20 39 17 8 10 5 31 19 38 37 36 8 10 18 32 16 22 15 18 32 3 8 30 18 34 35 20 36 10 6 39 20 17 13 11 26 25 7 33 26 6 21 6 32 14 33 11 6 26 8 0 9 29 1 15 18 19 30 17 8 10 37 2 31 10 2 38 3 11 13 4 2 4 30 9 18 10 18 23 10 33 18 23 26 5 35 22 15 23 28 26 32 33 27 13 9 4 18 17 7 3 28 5 6 7 20 9 5 14 29 25 14 30 14 12 25 29 37 13 11 21 20 9 37 20 21 11
2664 3150 4590 4043 4359 4882 3696 3140 3762 4547 3641 2648 3633 4228 4023 4843 2675 2636 3671 3399 2659 3161 3929 2884 4262 2949 2549 4893 4521 4059 2936 4348 2762 3391 3241 2912 3453 2852 2908 2845 3567 4931 4371 3433 4899 4857 3732 4525 3452 4425 3016 4785 2667 3393 4217 4546 4433 4640 2675 4528 3859 2830 4644 3919 2524 3880 2671 3009 4653 4310 3512 4804 3848 4538 3381 4978 3428 4096 3829 3156 3885 3072 2913 4447 2528 4041 3459 4724 4297 4876 2551 2640 3287 3175 3293 4370 2798 2538 3173 3602 3937 3039 4535 2648 14 4219 4262 4759 4224 4444 3397 4341 2630 4005 3941 4035 4762 2602 4626 4949 4272 4274 3453 4901 4934 3719 3839 4915 4851 3991 4701 4914 3886 3781 4532 4989 2869 3771 2874 4414 2528 3286 2710 4902 2974 3650 2991 4015 3358 2788 4660 3041 3388 4547 4751 4575 4001 3688 4655 3401 3300 4562 3539 4588 4517 4278 3696 4623 3086 4412 2718 3305 3596 4563 4523 4866 4083 3658 2555 2954 4670 3768 3730 4749 4332 2735 2716 3013 4534 3266 3582 4756 4552 4571 3266 2582 2971 4080 2521 4542 3583 4792 4521 4888 4384 2794 4795 2794 2664 2610 4636 3348 3147 4262 3372 3128 4674 2981 4701 3389 3078 4820 4521 2760 2846 20 14 27 19 4 9 38 1 31 14 32 9 31 33 20 2 8 23 9 17 9 32 17 14 3 5 21 20 5 23 16 19 31 7 9 23 26 28 10 7 1 24 32 14 6 34 32 8 6 14 4 27 17 3 27 4 30 20 20 23 28 36 17 18 33 12 22 19 12 14 11 36 17 7 2 2 4 31 16 38 31 21 24 22 5 5 6 37 11 30 15 4 15 7 6 16 29 20 26 39 13 24 17 21 24 10 21 3 6 39 9 13 6 24 24 11 9 28 16 4 19 24 2 37 36 25 6 15 2 26 16 33 12 6 6 6 34 21 33 31 30 18 8 23 26 6 2 34 31 0 29 28 11 22 21 16 4 13 20 15 25 25 14 32 6 29 31 29 16 39 3 36 34 14 12 30 13 26 37 32 38 20 20 27 15 23 29 23 25 24 5 13 34 1 27 38 20 24 14 29 30 27 11 15 35 36 25 18 4 32 36 9 30 29 3 3 39 19 38 34 5 17 35 34 35
4684 3549 3339 2936 4679 4438 3577 3758 3795 4486 2946 4318 3477 3448 3552 4563 2563 4141 4035 2676 4977 3942 4382 4374 2877 3382 2857 3184 3448 4544 3597 3776 4380 4185 2677 3616 2722 3120 4323 3386 2933 4951 3140 4861 4595 3254 4444 3641 4242 4986 3559 4903 2953 3587 4739 3057 4596 3214 4538 4481 3757 2997 4097 2892 4138 3030 3679 3053 2918 4618 3720 4955 4939 4460 4738 4446 3796 4421 4678 4604 4997 4127 2736 3712 4176 4378 4385 4497 2742 3828 3055 3925 4896 4431 4811 3250 3863 4172 4409 4621 4222 3307 4151 3493 3473 3439 2885 4525 3028 4626 3277 3245 4302 4869 4104 2900 3209 4357 3707 3692 4928 3112 3470 3836 4436 4893 3041 2792 2795 4750 3086 3075 4983 3018 4530 3470 2721 4338 4579 2617 3219 3004 3728 3978 4346 4138 3189 3095 4078 3541 3279 4207 4008 4825 4646 4962 4956 3557 3605 4529 4647 3491 4038 3042 2822 4440 2591 4509 4136 4266 4928 4471 4840 4243 4769 2812 4007 4836 2902 3141 4217 2776 3778 3220 3860 2595 3383 3622 4439 4487 2986 3797 2505 3912 4341 3168 4460 2926 3982 3340 2625 3205 4732 3184 4455 3426 3600 4092 3759 4292 3898 4045 4772 4975 4721 4855 3806 3785 3911 3154 4122 3051 2662 4067 2996 8 30 13 13 9 35 21 17 36 27 7 38 17 1 29 29 38 17 36 5 37 16 9 2 14 39 18 18 30 15 16 29 2 1 37 10 22 11 35 18 9 25 38 32 27 25 14 12 7 22 11 31 22 18 3 19 33 25 20 8 26 23 35 6 38 8 16 38 34 30 9 27 19 5 23 4 18 10 10 21 20 4 35 26 12 31 24 25 1 7 14 10 18 23 23 11 10 18 22 12 2 23 10 17 11 35 37 20 16 25 20 12 18 11 10 17 2 5 38 18 22 15 29 5 30 23 18 4 19 26 4 18 32 37 29 12 34 3 20 1 14 19 1 7 28 39 37 18 17 9 0 36 32 19 32 38 14 15 9 15 19 2 16 39 21 31 20 28 37 38 2 3 25 27 24 6 21 38 33 32 19 7 39 32 2 15 7 22 12 32 13 22 9 31 12 7 26 26 36 8 31 3 35 32 8 12 17 32 29 7 27 28 12 39 16 28 11 31 39 6 17 8 23 13 9
2723 3026 2874 2978 4791 2626 3285 4894 3768 4972 4357 3497 4821 2877 4692 2685 4352 3964 3212 4712 4044 4883 4981 3167 2785 3491 4189 4916 3102 3004 3887 4432 2945 3004 3369 4581 2966 4675 4849 2753 2852 3029 4468 4920 2587 4656 4898 2783 4988 3152 4369 3487 2985 4444 15 2903 2868 3071 3898 3513 2628 3360 4641 2685 3140 4169 3120 4739 2558 2906 4911 2540 3913 4719 3091 2543 2786 3319 4447 3088 3148 4172 3585 3088 3379 2938 2730 3347 3667 2674 3042 4863 4146 3283 3491 3067 3318 3389 4846 3057 2880 3503 3379 3455 3915 3328 2561 4740 3052 4720 3753 2953 2847 4900 2694 2686 4111 3541 3524 4987 3900 3123 3627 3380 2882 4786 3457 4377 3724 4007 4284 4815 2708 3237 3745 4927 3537 4380 3055 3173 3450 3455 3226 2694 4407 2945 3195 4466 2738 2689 3064 4442 2599 4882 3936 3534 11 4898 4508 2822 4796 3750 4492 3208 2850 4578 3798 3940 4895 3481 4236 3315 4100 4661 2616 2816 3723 4455 4775 4141 4084 2783 3941 2551 4857 3565 3106 2627 3142 4807 4581 4113 4688 3732 2899 4686 3288 4604 4280 3724 4613 3988 3794 4380 4411 4912 2502 3848 4974 3228 4677 2658 4198 4009 4852 3793 4991 4373 3648 3303 3610 4473 3588 2866 4195 15 16 1 31 31 17 12 28 4 15 33 8 4 31 7 2 25 29 28 36 28 22 29 35 22 37 4 37 8 5 34 19 7 15 25 12 29 19 27 31 22 38 39 32 34 5 32 39 33 30 27 9 38 8 23 9 16 16 21 11 39 16 22 10 3 26 1 2 24 14 14 29 14 12 18 11 12 28 8 12 14 1 32 28 13 24 32 11 19 21 35 16 38 29 13 17 22 23 33 15 21 14 37 35 11 19 37 14 26 6 17 31 25 33 5 39 11 14 32 27 23 9 13 3 10 4 38 37 8 11 26 14 14 8 35 32 23 18 12 38 38 25 27 33 37 36 6 30 31 3 13 0 15 24 10 9 11 28 7 30 27 34 35 10 30 17 27 10 35 6 16 20 1 1 10 5 17 39 11 8 24 21 15 33 17 6 23 7 7 17 33 4 3 8 32 8 12 16 39 9 36 13 37 9 21 14 23 34 30 24 15 39 20 38 33 28 8 31 7 18 35 31 26 33 11
2723 3797 3814 3002 3713 2505 3692 3400 4048 4968 4211 4515 2658 4625 4551 2920 2839 3540 4767 4127 3188 2576 4840 3592 2896 3152 4866 3315 4688 2957 3250 4693 3316 3646 2568 4457 4786 4955 4938 3044 4684 4574 3728 3822 3757 2805 2732 3899 4075 3028 3918 3639 3080 4847 3125 2711 2599 3789 2960 2757 3014 4146 4678 3971 3835 2731 4358 2735 3881 3117 2982 2813 4443 3070 4889 4737 4226 3877 3308 4108 2628 3774 4617 3573 4249 3888 3770 2510 3235 2862 2782 2780 4172 2557 4300 2804 4984 3295 4620 2712 4842 4234 3895 3671 3887 2914 3622 3917 2623 4872 3976 3229 2983 3932 2841 2992 4735 2709 3437 2693 3465 3152 4274 4327 3296 4689 4134 2971 3191 3781 3938 3860 3298 3597 3568 4805 4599 3199 4274 4757 4771 2826 3861 4490 3549 2950 2899 3892 3704 2789 4242 4340 2974 4701 3398 3800 4756 2971 3858 2725 4770 3891 4806 3338 3888 2696 3633 2956 4034 4942 2980 3002 3255 4962 3556 3131 3572 4566 4867 4615 2785 3164 3574 4978 3820 4815 4939 4993 4838 4655 3029 3098 4912 3181 2551 4498 3984 4008 3471 3520 3694 4758 3935 2936 2886 4257 3626 3530 4176 4348 4374 3592 2850 3866 2816 4925 4109 2662 2974 4268 3204 4363 2867 3391 3761 13 12 16 37 9 10 13 14 19 21 37 37 33 26 29 11 14 27 28 1 31 7 15 26 1 2 38 37 4 13 28 32 16 16 23 3 36 30 25 16 19 11 23 24 11 33 6 25 25 5 14 12 25 13 3 1 28 21 11 23 21 19 18 23 6 34 39 29 1 35 1 30 26 8 28 21 4 4 7 4 26 19 29 25 32 38 28 39 30 23 31 3 16 25 2 36 21 18 24 27 11 32 4 13 20 33 21 11 21 14 16 22 33 35 5 1 1 8 17 39 2 18 37 4 6 22 36 28 13 1 4 13 7 18 27 27 8 8 28 11 25 20 9 10 27 16 36 27 36 9 23 26 0 33 4 5 34 8 26 39 7 14 4 31 13 3 10 24 39 29 32 5 21 2 39 28 25 19 10 22 8 33 33 9 31 8 17 9 38 35 10 32 16 8 12 7 15 12 35 8 12 11 23 23 29 13 6 13 20 4 3 15 18 12 4 33 2 16 21 17 34 39 15 19 31
4330 4337 4537 3034 4302 4783 3162 4315 3589 3902 2796 2720 4057 4380 4774 3994 3702 4151 4898 4171 4677 3782 4612 2746 4709 4255 2619 3312 4978 4081 3885 4272 3288 3897 3720 4076 2911 4375 4480 4898 4238 2824 3685 4222 4217 4533 3357 3208 4186 4168 3072 3094 2905 3550 4598 4316 4201 4002 3106 3881 4877 3177 4176 4275 2680 2709 3770 3704 2506 3562 2866 4670 4783 3821 3095 4115 4632 3419 4661 2879 3737 3511 3236 3223 3357 2844 4140 2879 4933 4810 4538 4326 4938 3938 4779 4056 2802 3036 4300 2880 4484 4064 4182 4418 2807 2852 2688 2527 2924 3492 4749 4092 2604 2673 2582 4233 4154 4727 2964 2895 3643 3268 4996 4140 2715 3201 3562 3373 4562 4523 4726 3755 3382 4363 4772 4681 4267 2860 4489 4964 4405 3805 4291 2934 4308 4699 4507 3781 4053 2613 2718 4782 4970 4741 2916 3851 3642 4093 3318 3925 3871 3023 3108 4618 3496 3891 4783 2629 4781 4122 3103 2859 3398 3213 3386 4266 4146 3023 4784 3192 4006 2787 2916 3704 3987 4973 3175 3329 3405 3614 3153 4090 2861 4558 4890 3833 2633 4208 3559 4244 4509 3906 2880 3515 4071 4208 2991 3667 3251 3743 4233 2697 3585 3074 4541 3850 3722 3202 3838 4622 3290 4636 2566 2990 3911 28 27 26 31 3 37 31 11 26 23 28 16 15 30 35 35 2 9 37 29 36 25 16 39 19 11 4 38 5 33 26 20 24 22 36 10 15 6 11 9 16 21 19 25 2 11 31 2 13 23 7 19 4 37 2 30 27 9 8 3 4 16 38 33 32 18 9 39 18 5 35 17 15 39 24 22 25 10 33 30 27 6 1 17 6 16 23 13 8 18 8 13 32 17 19 7 23 24 3 31 4 33 8 13 35 28 13 10 28 29 8 39 3 15 1 21 39 30 31 8 17 35 16 12 18 3 32 16 18 6 13 10 36 39 11 5 26 28 13 26 23 14 6 38 31 3 36 35 31 28 3 10 7 0 26 2 15 13 8 18 39 22 15 28 33 12 35 8 18 9 11 14 29 4 38 4 19 12 5 33 16 18 25 17 8 36 14 12 3 1 7 24 11 36 30 1 25 16 38 14 3 27 32 7 38 39 29 12 26 36 27 34 3 17 17 24 35 37 24 36 10 38 25 30 1
4180 2940 4860 4734 2966 2815 2581 4967 4486 4843 3609 4408 2996 3665 4730 4560 3177 4521 3134 4152 4276 3540 3997 3934 4423 4854 4764 3982 3448 4536 3128 4442 3506 4164 4543 3565 3351 2590 4348 4596 3821 2843 4311 3858 3012 2612 3362 4481 3159 3123 3031 4208 4890 3283 4640 4744 3564 3494 2898 2887 4517 2573 3974 4579 3008 3119 2966 4810 4810 2932 3841 3765 3066 4986 4196 4493 3761 3580 3779 2698 3031 4662 4268 4167 4420 3861 3779 3267 2528 3431 3981 3491 2781 2691 3550 3663 2704 3605 4468 4945 2616 4997 3284 3962 4594 3321 2942 3295 4048 2880 3587 4030 4820 4904 3578 4890 3335 3936 3897 3355 2520 3804 2600 3347 3012 3482 3919 3432 4250 3670 3319 4847 3109 4578 2989 4752 4068 3544 4082 2807 3081 4754 3647 2753 4088 4495 4127 4160 4943 3161 4209 3900 3824 2727 3611 3830 2928 4534 2712 4451 3353 2944 2926 3483 3387 2968 2529 2900 3356 2522 2550 3971 4885 3189 4610 2884 4026 2783 3192 3250 4075 4294 3455 4639 4494 4004 4488 2530 3871 3579 2937 4041 3219 2852 2798 3582 4955 2514 3829 4457 3724 3649 2798 4382 4692 3762 3935 4639 4608 4950 2598 4768 4128 3655 3958 2731 4402 4835 3152 3175 4400 4193 2761 4307 3778 13 11 36 38 18 24 25 16 26 9 9 29 15 12 37 12 28 11 19 1 6 11 24 14 4 6 36 3 10 18 5 19 5 23 26 37 38 29 4 38 21 11 9 38 8 11 9 20 16 30 16 23 11 23 38 37 6 26 19 12 4 1 13 13 21 3 11 29 8 7 35 30 5 31 27 26 12 23 2 10 26 32 31 35 15 6 31 14 21 34 20 13 21 28 24 34 37 14 3 4 1 28 14 7 14 27 8 20 35 31 23 1 3 19 32 37 3 37 19 5 13 7 8 17 24 8 16 22 29 11 33 2 27 8 17 15 29 7 21 9 22 16 22 7 9 2 21 3 31 36 32 25 22 20 0 21 14 16 36 7 14 26 29 7 17 7 34 26 23 7 37 14 12 24 16 32 31 28 3 17 29 16 36 37 13 29 14 17 31 2 13 21 25 2 21 13 15 29 12 23 3 9 7 12 19 36 2 39 21 11 32 30 13 1 37 13 31 10 5 28 37 3 15 33 34
3550 4071 4310 3771 2808 4224 2713 4743 3047 4039 4087 4194 4816 4890 3302 4657 4099 3851 4841 3391 2965 4226 4920 3438 3879 2639 3190 4388 3515 2847 4250 3648 3224 4810 4165 4180 4984 4001 3500 3400 2987 2964 3017 3777 2789 4455 2745 4882 3664 3590 4175 3797 4391 2717 2996 3453 3658 2504 3545 3687 4448 4138 4497 3117 2953 2896 4320 3027 2766 2575 4942 2934 4128 4863 3680 2675 4197 3075 4174 4321 3455 2920 4655 4118 4668 3740 4712 4242 4620 4747 4305 3756 3963 4223 4214 3069 4661 3484 2886 3648 4174 3334 2610 4965 4677 4871 2858 3179 4002 3541 3304 2822 2920 3739 4045 3951 2683 3009 4864 3780 3199 2531 3976 3561 3873 3407 3246 3064 4677 4117 2988 4770 3811 3977 4922 3544 4070 4114 4262 2693 2723 4690 3097 4581 2991 4480 3646 2795 3093 3452 4674 3850 3253 4532 3012 4474 3058 3328 4881 4959 9 3664 2859 4723 3801 4202 3742 4009 4908 2992 2601 2956 4542 4809 2928 3861 2845 2908 4361 2651 3055 4671 3588 3148 3964 2841 4085 4961 4640 3771 3781 4475 2600 4027 3054 4802 3629 4507 4798 3376 2801 3761 4413 2570 2673 4478 4615 3965 3187 4592 4962 4824 4267 2507 2821 3107 2627 3169 3867 4529 2936 2913 4116 4590 4563 17 37 1 28 19 6 9 6 4 25 23 13 10 37 11 39 2 31 20 18 19 3 5 16 5 37 23 35 36 3 11 17 35 31 27 20 18 30 36 11 21 1 36 19 27 2 12 18 38 2 16 23 20 24 7 11 25 26 24 39 4 8 32 38 3 35 28 1 34 34 9 12 19 1 13 37 39 10 17 10 6 3 38 1 25 15 15 22 30 30 19 36 1 31 29 20 36 38 23 35 5 37 7 25 16 17 18 5 34 17 25 9 36 10 8 10 5 22 7 26 23 29 16 39 5 15 1 28 35 34 2 27 17 29 2 38 1 18 17 29 15 10 10 3 11 17 4 35 3 22 38 4 7 10 9 0 1 4 10 3 38 9 25 30 38 17 21 33 28 8 39 19 24 21 31 35 5 36 19 39 18 33 3 37 34 2 23 10 18 4 27 12 26 5 33 38 33 36 27 16 32 36 31 22 32 30 17 16 26 16 28 32 33 34 29 25 20 21 3 14 6 7 8 12 11
4913 4764 4832 3820 4353 4452 4551 3617 4942 3270 3127 4038 2522 3151 2769 4568 4711 3379 3207 3733 4928 3811 4469 4486 3271 3909 2702 2740 4041 4933 3455 3527 2543 3153 4213 2903 3501 3762 2852 4489 2735 3628 4002 2718 3806 4438 4051 2962 3831 2885 3631 4026 2604 4301 3263 4489 2680 3013 3318 3725 4849 2955 3581 2620 2616 2989 3475 3542 4216 4494 2536 3463 5 3068 3071 4537 3822 4396 2931 2635 3660 2706 3671 4606 2531 2548 3779 3646 3639 3688 4750 4640 4534 2571 4073 2531 3110 3270 3910 4469 3045 4729 4749 2523 4522 4075 4484 2740 3448 4267 3973 3870 4070 4520 3101 3659 4162 2561 3724 4664 4425 3658 3677 3319 2868 3497 3794 3989 4610 3932 2912 3526 4594 4863 3213 3874 4597 4723 2832 4723 3057 4706 4387 4785 2634 2652 2991 3698 3907 4375 3501 3870 4179 4398 3609 4412 4372 2704 4753 2667 4920 3975 3845 4823 2917 4137 4826 4666 4697 2713 2682 4089 2999 3480 3742 2947 4435 4800 3816 3303 4931 2561 3384 3898 3449 3257 4876 2737 3073 4060 2619 3787 3566 3390 2542 3732 2566 4484 4040 2654 4194 3028 3077 2875 2784 4094 3342 3234 2510 4117 3839 3352 2581 4467 4580 4027 2963 4057 3154 3706 4903 3850 2868 2639 3481 16 13 15 36 6 11 31 32 3 4 25 16 30 30 14 11 39 39 5 13 11 10 30 29 2 8 16 8 31 3 16 30 6 6 16 17 3 7 34 23 14 19 15 1 35 7 22 13 12 18 5 7 26 7 31 22 30 6 35 28 4 20 34 17 36 20 23 13 13 13 19 22 2 7 31 21 30 15 11 9 13 30 2 2 24 24 29 1 39 32 30 37 28 12 17 23 2 30 32 30 18 27 33 21 22 28 10 5 15 32 30 3 20 5 2 31 35 38 17 15 36 37 14 36 21 17 5 12 3 25 13 18 15 13 34 7 5 5 26 10 3 7 17 14 28 16 23 21 37 31 22 3 31 8 16 15 0 1 38 25 18 16 38 21 35 22 5 24 1 14 22 38 31 16 23 19 38 27 14 3 27 7 36 19 18 26 36 23 15 20 24 13 29 29 5 31 30 14 3 36 3 39 4 10 13 24 4 20 8 4 27 8 2 22 33 26 9 36 39 7 19 3 18 26 12
3728 2931 4244 4038 4079 2608 4079 4464 3410 3612 4775 3590 3487 3871 3092 2616 4144 3144 4961 3854 4288 3941 3627 4463 2672 4067 13 2544 3817 3493 3304 3865 3428 3799 4078 4076 3273 4571 3861 3359 2769 4428 2644 4868 3212 4730 4539 3349 3695 3153 4144 3035 2950 4411 3869 4035 3629 4060 4061 4757 3614 4911 4551 2681 4362 3183 3716 4338 4130 3149 2668 2543 3881 3377 4138 4707 4041 4279 4607 3509 3003 4433 3414 3364 2601 4545 4221 2756 3225 3510 4266 3461 3983 4319 2569 3942 3054 3751 4852 4064 2515 2524 3128 4385 4693 11 4962 4017 3770 3308 4989 3453 2865 3405 2536 2616 3757 4235 3836 3717 3343 2534 4043 3610 4511 4886 3486 3602 4509 2954 4374 4833 3013 3419 2810 3486 2823 4821 3631 3956 3015 4634 3569 4119 4107 4459 3146 3661 4925 4499 4429 2937 3411 3430 4485 2868 4130 2724 4263 4539 3493 3494 3223 3620 2911 4170 4057 4072 4842 4522 2928 4330 4475 4916 3857 3643 2602 2810 4783 3146 3919 4498 3782 3208 4347 2986 4847 4882 3900 3019 3690 3025 4036 3521 2901 4712 3668 4584 4410 3661 4495 4393 4410 3411 3292 3255 2988 4824 4104 2675 3415 2815 3721 3751 3290 3711 2522 2900 2746 4604 3059 2720 4543 3306 2664 18 13 16 27 32 13 33 23 13 22 12 21 11 34 36 26 11 9 29 10 19 7 11 15 12 27 29 19 14 37 25 11 16 27 19 26 16 11 9 18 14 7 3 3 15 17 34 25 3 31 17 34 12 27 9 29 35 2 27 21 30 21 16 21 25 38 13 39 34 30 11 14 24 36 5 14 10 14 4 32 6 20 6 30 8 1 12 13 8 24 39 37 10 18 24 36 18 19 2 27 24 26 32 4 16 19 31 10 26 7 31 35 11 13 13 9 24 6 22 13 39 14 19 10 5 36 29 7 29 21 16 33 37 11 7 9 37 22 32 27 2 2 2 11 19 4 14 29 4 31 34 30 31 34 10 13 6 0 8 6 18 3 17 35 31 22 4 6 37 25 39 31 35 28 33 26 15 12 11 20 30 37 38 14 15 35 29 34 35 19 26 11 22 19 32 28 14 5 14 30 31 25 9 14 18 34 33 24 17 28 13 22 29 28 16 3 10 30 15 16 26 26 30 3 25
4668 4127 3403 4490 3733 2857 2696 3269 4744 3339 4768 3821 4485 2982 4395 3344 3388 4665 3389 2820 4350 3610 3231 4074 3697 4815 4767 4879 4419 4873 3666 2991 4210 3410 4920 3442 2595 4864 4461 4005 4256 3913 2592 4552 4198 4358 3865 2927 4444 4109 3300 4673 3927 4152 2737 4393 4166 3717 4579 4074 4839 2812 3076 4433 2694 4336 2822 2579 2845 4284 3920 3477 3641 4187 2796 4268 2674 2823 4325 2543 4635 2940 4644 4865 4760 4034 4925 4549 2856 2884 4287 4936 2613 3284 4449 4124 3808 4878 2718 4604 3919 2877 4648 4602 4124 4454 4195 4350 3356 2708 3242 4358 2923 2749 2907 4814 4169 4414 2811 4065 3943 4580 3920 2915 3827 3965 4400 3563 4511 3020 2658 3077 2604 3667 4266 3331 4144 3925 2689 3601 3733 3460 4270 3739 4826 3715 3528 4195 4769 4973 4098 4926 2647 2995 3225 3412 3070 3441 2832 3755 4260 2962 4544 4559 4397 3781 3260 3992 2856 2543 3332 3783 3655 2991 4501 3974 3511 4157 2673 3870 2770 4363 4715 2556 4001 3636 3778 3476 4830 2958 4411 2905 2563 3410 2991 4719 3024 4269 4922 3931 4534 4000 2566 4117 4718 3472 3398 4458 4658 3240 4573 2707 4020 4541 3661 4709 4324 3266 4505 4447 3063 3261 2568 4713 4138 7 20 18 10 27 31 13 31 16 25 35 29 17 7 39 39 25 19 2 37 2 36 24 11 27 28 34 23 6 18 27 17 28 17 7 5 28 25 6 7 18 39 31 17 19 8 15 12 26 17 18 37 6 17 12 32 32 14 13 18 4 38 2 11 14 9 30 10 28 14 38 12 28 2 37 16 10 7 12 13 36 8 3 4 19 31 39 29 31 29 29 17 7 13 21 20 39 23 23 39 25 11 11 38 14 27 16 16 9 33 11 20 24 31 16 38 28 18 28 30 30 35 39 3 3 33 14 16 2 5 29 8 23 11 23 4 31 7 24 17 15 15 38 32 14 16 4 7 17 16 15 27 29 38 5 39 36 7 0 28 14 1 21 18 22 36 34 13 5 4 13 8 9 15 6 11 13 17 17 12 12 9 17 32 5 21 32 17 34 15 21 11 3 21 30 28 2 18 15 5 38 2 21 32 21 5 4 6 28 20 29 19 25 32 19 19 4 11 37 1 13 31 35 26 39
3863 2626 3457 3564 4679 3578 3611 4176 3570 4898 3070 3901 2656 3155 2631 3224 4393 4494 2771 3261 3361 3865 4734 2930 3353 3163 4802 4868 4700 2914 2742 4123 4769 3801 4904 2714 2810 4278 3731 2748 4733 2549 4979 4709 2923 2522 2741 3594 2727 4720 3589 3204 3718 4605 2934 3997 3136 3404 2790 4328 4469 4035 4875 4145 2953 3928 2794 4417 4448 3772 3877 4304 3000 4195 3582 3019 4912 3548 4769 3950 4322 4231 4383 3801 3237 3638 4518 3393 4452 3419 4803 4431 3085 4660 4110 4866 3132 4859 4035 3300 3917 3225 4631 4112 4089 4678 3517 2964 2882 3062 4491 4818 3412 3501 4757 3097 4733 4970 3603 4389 4040 2527 4107 3280 2551 4529 4156 4669 2603 3356 3502 3722 4911 3441 2943 4372 3173 2544 4370 4670 4790 4058 4390 4467 2795 4221 3872 4037 4332 4834 3702 4090 4629 3925 2661 4914 4445 2862 3493 4315 4902 3813 3972 2508 3648 2659 2791 2873 3304 4012 4991 3393 3220 3874 3437 4967 4592 2812 3819 4511 3337 3565 4755 4682 4524 3002 2858 4552 3246 3411 4782 4441 4355 4384 4767 4310 4198 3656 3137 4266 4971 3194 2894 4625 2717 4098 2751 4271 4438 4141 3322 3490 2601 3295 4822 3617 2665 4536 3229 2613 3959 4340 3638 3292 4381 31 13 21 1 36 4 32 10 24 9 28 30 23 31 8 25 27 39 23 17 9 32 25 10 20 31 23 2 25 5 13 35 14 11 32 36 16 20 14 21 11 12 21 29 15 39 6 13 25 23 2 20 3 21 14 10 5 6 1 2 23 23 36 24 37 22 18 34 10 4 25 27 26 14 4 20 14 8 28 18 36 35 34 24 24 20 34 3 36 30 10 22 31 20 27 2 3 21 23 26 36 39 21 4 16 25 7 18 37 12 39 6 39 22 12 21 24 29 30 14 26 36 17 26 11 11 14 39 7 30 39 10 16 15 17 11 13 6 21 36 9 3 33 37 25 23 5 24 28 10 38 19 20 20 17 35 34 31 30 0 19 19 26 26 38 26 4 32 3 13 8 39 26 5 37 24 33 14 16 16 20 15 32 35 4 27 2 25 39 6 32 9 8 23 10 22 4 8 18 3 26 1 11 2 39 29 10 37 15 8 28 8 26 10 20 26 1 23 4 25 34 8 36 6 35
4505 4274 2778 4038 4273 3804 3525 2812 3382 2939 3762 2866 4567 4845 3717 3661 3352 3341 3706 2801 3618 3183 3892 4992 4377 4908 3359 3518 3680 4060 4160 3853 4932 2881 3717 4946 2776 4076 4187 3714 4457 3227 3160 3668 3641 3521 4273 3585 4727 2723 3547 4892 4980 4558 4901 3233 3736 4642 2620 4625 3742 4324 3671 3009 4570 3980 4260 4298 3096 3233 3239 2575 4469 4698 2963 4689 3301 4389 2631 4897 3010 4259 4933 3835 2748 3014 3819 4820 2846 4010 4968 2756 3344 3983 3408 2809 2675 3983 3900 4512 4658 3250 3471 4973 4490 4562 3377 3274 2809 3039 3546 2967 4789 3884 4957 4794 2843 2949 4403 4089 3646 3412 4871 4936 4872 3183 3407 3544 3863 3871 2516 3774 2998 2996 4846 3501 2832 3435 4139 4539 3611 3733 3936 3792 3791 4123 4150 4466 3381 3500 4113 3884 4006 3497 4722 4751 4688 2559 4227 4422 4247 3149 4181 3700 4897 3378 3289 4088 3286 4025 4559 2508 2762 4451 2723 3256 4659 2647 4603 3466 4207 2561 2601 4064 4520 3459 4748 3023 3912 2536 4718 4411 2660 4871 4574 4658 3125 4925 3149 4585 2881 3270 4031 2612 2752 3133 4454 2675 3895 3125 2727 2959 3115 2527 4195 3254 3325 2756 2739 3052 4334 4898 3897 2741 2878 30 14 38 4 4 13 30 30 30 22 6 3 32 13 29 17 20 31 34 37 26 9 4 8 30 1 27 34 37 30 22 6 28 20 17 35 20 29 24 7 7 6 16 16 7 3 12 36 20 9 5 4 30 36 36 18 9 37 8 37 13 13 19 20 12 23 11 2 7 13 37 5 15 19 21 14 36 17 33 23 1 4 36 2 25 35 25 26 16 12 25 20 1 16 16 38 23 18 26 2 1 15 19 18 25 15 27 25 21 22 33 19 12 11 15 23 21 5 5 9 21 7 20 12 2 39 4 27 31 33 27 32 30 20 26 8 18 29 21 24 18 25 12 8 31 35 6 8 25 2 23 11 29 14 2 17 26 33 18 19 0 1 17 20 11 27 3 21 22 26 19 26 20 24 3 17 6 25 36 14 19 29 22 3 35 34 34 8 25 35 21 15 25 31 8 25 31 22 9 1 38 17 23 30 34 7 4 12 36 7 38 30 6 31 23 29 39 23 5 18 34 23 30 17 36
3206 3422 3200 4084 3252 3295 4524 4134 2925 4414 4275 3366 3787 3503 3713 4303 2742 4642 2771 3051 3163 2717 2568 4282 3365 2837 3736 3409 4150 3310 4522 2857 4407 3457 2957 4790 4104 2777 3786 2631 4134 3816 2519 3716 4288 4204 3022 3806 3637 3951 2628 4536 3047 4926 2696 3915 2655 4072 4047 2939 4942 3565 4131 2879 4659 4910 3348 4629 2536 3294 2745 3538 2931 2972 3628 4843 4910 2796 4597 4548 3152 4809 4155 2642 3456 4606 3525 3153 4799 4338 4013 3938 3917 3661 4305 4179 3710 2624 3963 4764 4850 2682 4089 3919 2606 3236 3229 3116 4967 3157 2643 4970 4943 3732 3679 3167 3381 4866 4355 3133 4114 3992 4067 3460 3893 2935 4128 3546 4738 4968 3629 2986 3628 4311 4729 4655 2760 2731 4128 4804 4686 3346 4627 2808 3521 4278 3816 4116 3049 4275 2915 3041 4743 3107 3347 3123 4069 2854 4498 4651 3204 3578 4311 2569 3583 4687 4284 4632 3859 4839 2718 2890 4537 4543 2815 4037 2658 2582 3984 3455 3359 3204 3804 4127 4743 2982 2812 4627 4374 4340 4867 2730 3270 2783 2572 2624 4364 4792 4273 2867 2755 3587 4868 2949 3995 4176 4964 4489 3387 3601 4158 4426 4844 2857 3039 2881 2660 4772 2975 3204 2792 3117 3258 3139 2730 29 16 24 13 22 30 5 10 11 9 32 30 38 24 20 6 33 15 20 29 6 37 2 25 20 15 29 38 26 11 27 5 19 33 6 26 21 14 4 21 16 2 29 11 31 28 16 14 38 2 30 10 20 11 10 23 16 14 4 16 12 27 11 17 4 19 28 28 16 20 6 24 2 5 10 22 19 30 6 34 6 26 16 7 36 17 13 15 18 11 11 21 5 33 25 12 28 17 21 31 30 4 24 2 30 1 31 28 6 21 36 2 12 15 14 31 8 28 21 31 10 18 16 39 30 24 27 12 11 34 20 2 5 5 4 37 7 5 20 9 34 34 34 5 11 22 27 23 4 1 30 28 35 35 21 16 10 13 38 25 9 0 27 9 39 9 33 33 1 37 36 39 21 34 21 14 6 15 22 4 26 2 34 16 35 35 6 34 26 4 14 4 3 35 33 38 18 19 36 32 19 17 16 29 11 16 31 6 7 14 13 16 16 20 14 35 8 11 3 19 32 3 29 25 4
2830 4832 3441 2851 2537 2989 2881 3097 2773 3487 3494 4729 3240 2674 2916 3832 4298 4815 4322 3485 3795 3401 2775 2584 2855 4514 3954 2984 2520 3747 3210 2874 3898 4419 3848 3744 4156 3600 4981 4913 4659 3099 2862 2606 4139 4021 4542 3065 2797 3709 3745 4416 3845 3006 3524 3109 3502 3264 4382 4159 3466 3837 4156 3847 3365 3129 4602 4260 4148 4605 2703 4293 3911 4953 4952 4904 3905 3324 4746 4410 4805 3714 3133 3944 4717 4584 4483 3689 3312 3676 4935 4158 3934 4001 3108 4121 4923 3675 3465 2841 4924 3060 2541 3210 3156 4203 4388 2748 4771 4889 4111 3895 4070 3764 3018 3093 2725 2728 3280 2530 3138 4190 3517 4432 4465 3448 2621 2873 3288 3618 3028 4229 3977 4953 2803 3645 3875 4167 3786 4433 2911 3560 3303 2715 3653 4722 4177 3678 2786 2635 2837 4935 4427 3846 3798 3366 4925 2879 3670 3076 4062 2795 4438 4941 3278 2802 2530 4735 4747 4350 4520 2678 2809 3130 2568 4337 2959 3775 3430 4343 3391 2834 2590 4216 3047 3271 4815 4746 3899 3135 4573 4821 4406 4414 4555 16 3649 3583 3787 2996 3298 2977 4887 2601 4998 2629 4518 3076 4457 2825 3621 4104 4809 3734 4746 3959 2847 3587 4033 3836 2968 4528 4453 3455 2689 11 37 34 7 8 2 22 28 1 16 22 28 27 26 6 18 20 15 12 25 20 15 21 23 29 23 20 24 21 13 33 11 8 38 9 19 2 8 21 28 24 13 36 5 35 30 39 33 23 31 28 2 11 17 36 16 18 26 6 24 30 5 29 4 31 20 37 37 5 12 9 24 1 39 30 1 8 11 16 12 35 22 12 5 8 30 5 3 14 17 39 25 19 17 29 38 14 33 15 25 13 20 22 22 12 4 13 31 15 18 35 21 3 25 24 39 22 17 6 19 16 35 19 15 15 33 14 21 1 26 28 31 27 18 22 19 35 35 14 6 36 6 1 28 24 21 20 20 39 33 38 27 15 37 12 20 18 12 26 18 34 8 0 1 32 12 16 5 22 1 35 2 10 20 28 30 17 11 24 37 5 29 21 4 38 5 7 21 35 9 26 22 17 6 7 2 31 29 5 39 13 38 30 21 31 2 16 33 18 1 2 15 9 4 6 4 31 33 18 32 34 22 26 39 35
4633 3596 3742 4050 4723 2902 4811 4911 4694 3120 4073 3852 4468 3515 2772 4588 3089 3800 2507 2888 2518 3597 3293 3756 4764 3668 4314 4047 3649 4824 3303 2973 3559 3600 3236 3510 3537 4212 4525 3745 4185 3499 4519 3041 4191 3089 2970 3491 3349 3237 3237 3963 2535 4597 4445 4791 4392 3927 3952 4844 2792 4587 3978 4670 3893 4202 3498 3926 3102 3755 3725 3759 3028 4104 3698 4079 2818 2625 3988 2857 3347 4058 3987 3106 2713 4481 3613 4050 2990 2984 3899 3656 3638 4383 4228 4742 2867 3128 3616 2691 4704 3271 2823 3127 4399 10 3552 4981 4462 2595 4274 4936 3167 2695 3952 4157 4081 3626 3577 3960 3771 4395 3744 3525 2822 4931 2918 2931 4010 3442 4750 4029 3326 3455 3138 4083 3574 4383 3385 4903 4527 3593 4421 4413 4902 3493 2910 4929 4414 2979 4268 2903 4143 3643 4969 4276 3591 3639 4434 4475 3888 4609 4687 2790 4765 4163 2726 4547 4054 4216 4195 4156 3719 3750 4053 3629 4904 4752 2681 4983 2623 4354 3433 3701 2534 4556 4319 4322 2569 3441 2856 3794 3926 3748 2974 3307 3927 2928 4852 3599 2792 4561 4097 2608 3129 4255 4210 2851 3970 3545 3169 3487 3612 4741 3546 4325 4458 4713 3580 4795 19 2582 4054 2758 4599 23 39 38 32 34 11 1 8 12 18 20 12 25 18 8 14 18 31 36 35 4 7 34 34 24 6 1 14 28 22 25 13 23 22 39 15 13 4 16 16 39 27 8 36 27 14 13 9 34 20 21 34 24 13 18 29 23 11 19 21 9 31 25 1 14 21 12 10 13 30 16 2 27 26 27 29 24 5 36 28 7 14 34 18 20 16 11 22 25 28 30 22 29 28 15 15 35 15 16 16 35 11 12 2 14 39 39 33 6 25 11 32 30 14 17 27 26 23 30 7 31 18 3 36 10 11 3 2 15 31 38 7 3 33 2 23 3 23 7 13 37 12 38 13 28 35 12 28 35 25 25 27 16 4 26 19 25 36 24 36 22 24 27 0 1 12 10 14 28 23 25 4 11 24 17 3 25 15 37 17 8 27 34 28 3 14 29 10 12 4 13 2 37 25 18 28 18 7 10 32 22 12 37 1 29 29 24 13 11 34 1 21 37 4 18 36 8 24 16 10 4 14 11 15 30
4881 3071 3134 2789 4770 3299 2833 2978 4637 4091 3986 3222 4498 3633 3885 3887 4896 3120 3199 3986 2880 3400 3171 4390 2986 4242 2927 3856 3154 2858 4771 3157 3941 4004 3621 4126 11 3197 3209 3416 3805 3952 4192 3083 3453 2976 2845 2679 3850 2735 4300 4148 3298 4359 4521 4383 4667 4506 3474 3637 4989 3226 4767 4390 4393 3803 4795 4101 3327 2665 3547 3255 4579 4077 4307 2716 3619 4802 4955 3507 4333 4984 2633 4001 3742 4609 7 3108 2501 2888 2589 4332 3924 2934 4592 2787 4083 4666 2720 4991 2534 3353 4053 2917 3824 2527 3968 3963 4570 4683 4876 2879 4221 4193 3113 3055 3305 2912 4605 3174 3427 4144 3454 3147 3748 4073 4441 3786 3980 3774 4661 4670 3324 3876 4799 3936 4457 4457 4529 4483 4023 4138 4910 4498 4959 3744 2940 4714 2575 3917 3540 4124 4415 3684 3038 4369 4668 4145 2615 4905 3994 4807 4724 3123 3355 2846 4534 4554 4412 4617 3927 3239 3731 4918 4955 3690 3384 3699 4751 3807 3058 4511 3737 4375 3905 3846 3298 3097 2609 4469 2718 3638 2678 4824 4003 3300 4090 3634 3152 3758 4319 3618 4002 3403 4749 3478 3300 2623 3158 4110 3734 3325 2722 3120 4926 2850 3359 4946 4768 2681 2631 4921 4921 2714 2586 38 30 13 7 34 14 21 38 19 36 17 23 20 30 31 31 14 21 28 17 34 30 32 11 4 29 29 15 39 2 23 16 19 36 29 32 32 7 29 32 8 11 13 29 36 39 26 24 18 23 25 4 9 7 24 2 1 31 27 25 23 27 4 26 8 30 10 14 35 4 21 10 38 2 9 4 7 1 38 36 13 18 30 33 19 13 26 13 24 29 21 37 2 38 11 15 9 16 23 31 17 7 9 2 26 15 17 11 1 25 13 21 21 5 33 34 23 24 37 14 9 12 27 28 30 31 21 15 26 11 30 15 10 13 16 28 27 22 33 18 35 37 25 24 22 33 5 27 15 25 36 20 12 21 6 18 18 12 31 12 33 2 5 17 0 6 36 24 22 5 29 23 5 2 10 1 10 7 6 14 18 22 20 38 18 6 29 28 30 28 32 3 32 17 30 27 4 36 17 11 31 17 11 21 23 13 32 23 6 3 21 32 27 9 15 20 24 8 6 21 26 2 3 34 15
2881 2618 3010 4794 2892 4812 4099 4749 3754 3544 3063 4752 3389 3824 4239 3091 4069 2879 4298 3562 2972 4934 2602 4893 3500 3203 2669 3179 4221 2918 4651 4225 3195 4464 4445 4515 3310 3522 4387 4980 4863 3308 3041 3505 3663 3681 3028 3267 3935 2920 3898 2871 4076 2973 3981 2961 3483 4224 3981 3573 3738 2632 3072 4488 2951 4065 4103 4518 3229 4381 4427 4049 2834 3602 2561 3249 3915 3562 4343 4830 4028 2654 2805 2723 4245 3588 2718 3635 4435 3313 3184 4417 2843 4890 3007 4654 3929 2786 2952 4034 11 3984 4070 2919 4035 3128 3504 3378 3695 3192 3782 4081 2544 4614 2939 2732 3053 3007 4606 4184 4710 4577 4774 3943 3693 2678 4896 3850 3548 4972 3267 2903 2588 3454 3618 4961 4665 3319 3344 2808 3011 3607 2583 4852 3227 4046 4331 4249 4459 4794 4451 4705 4953 2780 4290 4891 4782 3067 3564 4178 4434 2855 4408 2517 4857 9 4839 3981 3810 3831 4374 2732 3498 3834 4389 4280 3784 3265 4604 4594 4272 4234 3395 4242 4132 4376 4889 4106 3251 3760 2569 4837 3748 3051 4877 4163 3571 4633 3685 3075 3037 3475 3699 4325 3492 3168 4408 3835 3329 4598 2816 4533 2512 2888 3226 4814 3049 2586 4429 2515 2639 2804 2835 4762 3313 35 28 23 3 12 39 22 5 38 8 36 26 38 35 26 25 25 22 30 8 22 9 38 36 10 35 29 18 1 37 19 21 17 38 16 19 37 25 9 30 33 5 22 26 3 39 6 35 1 12 7 17 38 21 1 20 20 14 31 5 26 26 15 27 21 28 7 37 7 37 34 34 36 19 4 16 13 35 13 18 11 4 28 3 14 39 25 30 35 2 6 8 25 9 19 9 24 13 36 34 28 23 23 18 22 36 21 9 19 30 38 24 9 18 38 5 35 29 33 2 29 26 17 21 14 27 12 8 6 20 31 20 26 14 33 15 9 6 9 19 31 20 32 18 37 22 20 21 39 21 3 17 38 15 12 37 29 7 22 5 16 37 25 17 17 0 12 11 32 5 5 19 35 34 21 27 4 1 23 6 36 18 4 14 1 35 27 11 19 8 39 24 39 7 37 20 12 31 24 14 18 3 3 21 1 29 27 33 22 39 22 13 34 34 3 21 8 3 28 37 8 39 28 12 16
3351 4463 4948 4398 4348 3615 3588 2566 3006 4352 2639 3943 3070 4270 3521 3994 3683 2703 4279 2811 3077 3912 4640 4669 3968 4538 3980 4223 4059 4509 4277 2979 4586 3783 3123 3969 4329 2747 4076 3597 3781 2721 3663 3420 3929 3077 3718 3805 2894 2517 4564 4425 2724 4150 4162 3923 3632 3702 2666 2905 4361 2975 4605 2981 4131 4560 4635 3832 4851 3595 2623 4794 3281 2886 2835 3607 4822 4099 4660 4080 2912 3829 3899 4290 3500 2832 4312 4287 3316 3262 3027 3796 2855 4532 4728 4966 3536 4786 4499 4655 4247 4630 4434 3735 4845 2728 3329 2969 3276 3996 2765 3255 4121 3384 3767 3172 4682 3039 3874 2796 2719 3055 3798 3184 4124 3555 2666 4563 3721 3923 2901 3763 4071 4870 2609 2650 2915 4142 3222 2971 2555 4199 3113 4632 2952 4611 2636 3863 3225 3904 2759 3662 3861 3282 2998 3135 4920 3593 4174 3201 3868 4848 3984 3269 4271 4365 4165 4174 2900 2834 3745 4136 3206 3661 2649 4656 4448 4645 2915 3983 3951 4638 3920 2744 4659 4800 4210 4528 3236 2654 3276 3894 4420 4175 3020 4046 4391 3661 3840 4446 2673 3677 2776 4535 2611 3009 4267 2902 4583 3689 4441 4725 3131 4589 4310 2829 4872 3200 4799 3057 3144 4787 3619 4097 2651 15 30 2 17 26 26 4 1 22 3 38 8 17 22 25 12 17 26 24 30 18 25 7 27 9 36 23 17 18 36 3 22 29 13 31 12 5 27 4 38 32 16 39 13 30 11 10 7 38 23 21 28 9 37 31 2 7 21 33 26 34 22 38 31 33 27 12 15 21 5 12 27 39 14 17 2 13 8 29 14 15 35 5 3 9 35 22 5 29 24 27 37 6 37 14 2 21 25 23 31 13 7 10 13 1 24 7 19 11 22 20 39 2 19 15 24 19 29 1 24 12 24 34 28 7 3 39 24 32 36 18 17 34 25 27 3 31 9 1 16 34 7 9 21 10 15 30 18 4 35 34 27 36 30 34 12 20 14 36 39 7 35 15 32 7 39 0 31 34 21 36 34 20 9 19 2 14 31 24 26 36 22 11 27 21 12 28 8 23 6 27 39 26 16 11 27 13 32 11 39 33 26 37 2 18 12 20 39 6 23 19 5 28 3 15 1 39 37 25 10 6 9 26 4 22
4339 4451 3121 4382 4709 2898 3132 4645 4372 2634 3641 3058 3656 2921 3991 2646 3608 4926 3661 4925 4829 3640 4746 3955 4095 4472 4282 2935 4034 3890 4123 3580 2640 3178 2853 2972 4620 4647 4769 4231 4434 4653 4096 4838 2787 4439 4868 3358 3571 4820 4104 4337 3534 4465 3145 2925 2741 3494 2728 4433 4088 2903 2946 3183 3909 3100 4957 3629 3341 2826 2786 4944 3092 3269 4912 4954 4678 3326 3376 4445 2735 4454 3568 3148 3926 4764 3588 3849 3813 3599 2881 3836 3671 2666 4374 3536 3617 2555 3830 2817 2783 4159 3292 4027 4652 3273 4859 3525 4295 3624 4912 2796 4406 3038 4767 2946 4891 3530 3645 4348 4800 4064 4022 3521 3484 4709 3045 3438 2998 3166 3582 2955 3516 2983 2646 2928 3429 3134 3884 3457 3722 3574 4339 4174 3463 4864 3313 3654 3352 4134 3041 4588 4908 4533 2884 4242 4361 3139 4348 4073 2603 2596 4603 2599 4157 3872 4775 3238 4941 3125 3111 2864 2726 3759 2723 3625 4621 4315 4086 3791 4991 3221 3595 4166 4429 4574 3020 2860 3231 3394 3792 4690 4545 3871 3261 3594 3028 3523 3743 2998 2743 4902 4771 3776 4242 4824 4917 3926 4728 2530 3500 4226 4563 3182 3245 3304 2792 3491 4475 2639 3221 4972 4494 3125 3113 26 15 3 16 32 2 17 22 28 20 15 18 8 7 36 20 21 26 13 5 37 35 12 17 32 10 6 1 25 38 36 11 39 16 9 9 20 18 27 32 9 13 2 28 21 24 36 1 4 39 25 20 10 8 15 29 30 6 12 12 18 37 4 39 17 4 27 6 12 19 36 35 20 16 29 31 23 4 12 10 11 11 3 14 38 30 3 23 15 18 14 37 23 38 18 24 17 31 2 11 18 16 26 35 15 38 14 2 10 24 22 27 36 6 26 33 19 1 37 32 31 37 7 24 15 38 32 20 38 31 30 22 32 13 22 8 3 37 39 8 16 14 25 28 27 1 33 9 21 34 14 15 28 10 30 2 33 25 2 22 8 18 10 9 13 5 16 0 30 20 4 31 20 16 18 11 34 12 2 39 13 28 33 39 9 35 37 9 34 11 20 18 25 37 33 21 4 5 15 38 19 3 18 32 1 2 12 10 4 36 4 29 5 24 35 13 39 34 16 17 27 15 7 24 28
3131 3029 2984 4662 4057 2568 4180 4340 4507 3535 4371 4945 4735 14 2721 3198 2515 3218 4576 3669 2819 4108 3397 3406 3757 3712 2797 2756 4933 3253 3895 2812 3075 3099 4948 2936 4237 2766 2666 3858 3387 4757 3910 2587 2790 3568 3867 3248 3073 3380 2506 4057 4557 4641 2638 3815 2852 2823 2527 2947 4884 2830 2774 4043 3236 2688 3538 3447 2655 4243 3091 3591 3982 4487 4756 3480 4307 4302 2533 4098 2912 3259 2603 4093 3558 2620 3920 3022 4039 4388 4863 3337 4485 2591 2717 4480 4772 3222 3717 3757 4753 2866 4619 4425 4687 4711 3679 4052 3482 4648 4043 3838 3511 3844 3234 4915 4111 2788 3334 2636 4537 3170 4041 4618 4660 4970 4616 2640 3451 3174 4612 3422 4747 3145 2870 3582 3736 3904 4097 3322 3988 3972 3481 3908 2599 4250 4342 3527 2636 3540 2816 3421 3005 4075 4728 2935 4975 2569 4346 4891 4025 3349 4657 4878 4902 3189 3978 3202 3571 3384 2819 3000 4285 3860 3834 3239 2756 3698 4941 3714 3305 4636 3265 4512 2691 4728 3751 3953 4757 3865 3369 4607 3190 3705 4134 4909 4723 4563 2718 2989 4458 4215 2880 2604 4028 3771 3431 4185 4914 4881 2595 2740 4789 2875 4346 4910 2904 4058 4125 2532 4122 3333 3406 3588 4559 15 29 13 18 33 33 2 13 9 29 13 10 18 38 39 18 19 33 2 37 36 35 31 18 20 39 28 3 15 6 24 24 23 11 23 12 29 13 17 24 35 6 16 9 20 34 31 1 39 38 9 26 10 2 6 2 11 15 10 21 31 28 27 8 19 22 11 3 27 37 16 23 25 3 19 10 24 27 9 5 18 5 23 18 14 18 13 27 13 21 34 31 19 10 33 37 31 9 30 10 6 8 31 15 9 33 7 39 37 11 23 29 18 29 14 13 7 15 13 20 39 28 39 15 19 32 18 12 16 10 7 25 15 39 8 29 26 27 31 19 12 16 15 1 18 5 37 23 27 14 23 5 33 1 31 7 7 36 21 10 25 12 36 31 21 8 26 19 0 32 32 18 28 12 5 19 32 31 23 18 2 25 14 20 26 15 22 38 7 19 6 31 31 32 24 34 30 28 20 20 14 16 14 9 3 33 17 21 38 36 33 6 34 16 35 21 16 19 29 23 33 37 25 14 31
2675 4641 3467 4452 4104 3941 2838 3760 3667 3094 3219 2858 2739 3630 2685 3514 4558 4130 2540 3547 4367 3759 3934 2544 2997 2609 2669 4911 3189 4908 3479 4984 3361 2885 2794 2899 3362 2873 3164 2704 2545 3706 4193 4834 4500 4795 3775 2970 3628 3751 4243 3954 4474 4476 2873 4864 2638 4774 4373 3766 3609 4052 4267 3494 3932 3243 3134 4578 2998 3390 4457 2989 4333 2840 2794 4927 2792 3245 3576 3839 3150 2596 3421 4705 3359 3029 3219 4811 3132 2814 3284 4871 2671 2970 3115 3721 4945 3874 4847 4658 2569 4851 3588 4471 3449 4093 3610 2678 4034 3344 3071 3904 4663 4637 3555 2964 4516 3959 3747 3926 3196 3045 2684 4078 3307 3762 4637 4440 4046 3582 4982 2503 3198 3666 3299 4645 4923 4409 2842 3640 3856 2934 2980 4378 3410 3640 4915 3815 4544 2837 3841 3974 3684 3731 2605 3446 2530 3931 4226 4793 4195 3793 4877 4370 2784 2685 2688 3687 2790 3392 4974 2705 4331 2774 3836 2976 4178 3194 4676 4604 2804 4976 4090 4584 4565 4560 4473 2902 3198 4725 2826 3152 3707 3771 4723 4614 2820 4487 3263 17 4346 4280 4160 2674 4552 3133 4093 4933 4230 4933 2660 4007 3492 3908 4150 4396 3039 4945 4725 3205 3594 3523 4683 3304 3916 37 29 1 22 26 10 10 25 28 18 3 20 33 4 30 10 16 5 32 37 10 36 4 25 7 27 2 20 12 35 17 27 34 12 28 21 30 22 35 38 33 28 37 16 29 3 11 26 24 5 3 18 1 21 26 32 27 37 15 15 32 1 1 35 10 8 38 18 24 8 22 2 6 39 23 16 31 32 17 1 1 20 10 35 39 7 35 8 18 11 15 36 39 4 19 37 10 25 39 1 9 38 16 30 26 2 25 18 3 23 23 3 17 29 11 5 33 11 35 22 20 6 11 25 3 38 8 14 27 26 10 14 8 22 10 32 23 5 38 23 39 23 35 39 26 25 26 32 19 6 27 13 24 13 13 32 10 17 10 17 2 15 16 1 4 20 39 16 32 0 1 37 13 4 39 14 17 29 16 27 17 1 5 9 3 9 31 36 6 39 24 7 35 22 23 21 8 36 8 5 35 16 37 21 23 37 6 11 24 36 8 11 27 31 3 19 25 37 16 1 34 18 32 3 20
2891 3705 2724 4225 3392 3304 3052 3543 3712 4819 3047 3458 4160 3092 2869 3794 4698 4051 3047 3561 3424 4052 3417 4959 3155 2792 3402 4810 4854 4230 3625 3635 4856 3885 3446 3237 3786 3154 4509 2633 4466 2830 3736 3283 3396 3453 3579 3252 4977 2835 3738 4324 4936 3550 4151 4669 3584 2715 3409 3524 4370 2914 3588 3288 3046 2918 3044 2524 3156 4837 4116 3304 4929 4720 3932 4087 4401 3969 3984 3613 2757 4198 2871 3553 3531 3285 2958 3434 2750 3912 4797 2982 4417 2887 4107 4058 3670 4039 2594 4010 4563 4339 2852 4847 3303 4887 4054 4126 3376 2509 4255 2620 4321 3537 4976 3330 2819 4851 2932 4910 3849 3770 3550 4188 4935 4332 3336 2577 4779 4612 4790 3392 2671 3481 4758 4321 2739 3060 4971 4443 4343 4479 3391 3171 19 4857 3445 4548 4668 4748 4174 4205 2835 2935 4548 4434 4103 4664 3342 4132 3828 3177 3678 4787 3838 3534 3770 3752 4719 2639 2835 2996 2914 4066 4389 3796 4918 3369 3011 2717 2797 4801 2678 4688 2778 2623 2931 3409 4376 2882 4288 4605 3686 4606 2564 3745 4002 3296 2904 2617 2866 5 4164 3217 3754 3488 3820 3215 3038 4730 3539 4164 4154 4379 4423 4881 3159 2859 3937 4409 2730 3043 3277 2853 4373 8 11 13 21 26 2 39 20 21 29 5 21 4 30 31 24 22 30 23 24 4 37 10 5 23 25 1 20 16 36 18 36 2 36 5 38 20 3 21 38 5 3 31 34 4 23 6 17 32 22 24 35 22 8 20 21 27 1 10 34 2 30 15 35 17 8 17 22 13 34 6 11 34 36 17 23 3 19 36 32 17 35 20 18 13 24 14 23 28 15 23 32 31 14 12 27 5 36 30 21 31 30 32 30 27 38 36 36 7 25 33 26 8 20 13 22 37 15 24 13 28 34 16 23 33 21 33 25 12 12 34 7 18 6 28 35 30 32 38 23 12 23 35 21 23 4 13 37 14 13 9 10 6 22 3 4 29 29 24 23 31 37 1 15 34 16 28 22 1 12 0 29 10 1 12 7 11 24 21 23 23 34 6 27 16 3 27 33 3 12 20 10 8 13 25 20 6 1 26 15 4 4 30 28 8 1 13 1 20 5 34 1 7 10 39 15 24 18 15 16 14 22 36 22 13
4924 2741 2559 2717 3933 4307 3125 2713 3467 4269 4973 4830 4278 4913 4781 4450 4669 4367 4661 3543 3063 4175 4208 2723 4632 2610 3827 3504 3229 3806 2535 4770 4483 3283 4355 3746 3014 3811 3658 3557 2827 4807 3169 4181 3151 2633 4480 3833 3885 4750 2882 3892 3015 4086 3814 2803 3065 3203 4375 3915 3648 2826 3051 3437 4784 3568 2885 3552 3122 3006 4194 4302 4160 3570 4025 3765 4846 3500 2673 3146 9 2858 2795 3498 4817 4208 2844 2728 3254 2876 3282 3123 4897 4717 2841 2819 13 4260 3723 3210 4387 4425 4536 3878 3934 3455 3550 3425 3822 4779 2767 3040 4681 3333 3040 4669 2685 2885 2810 3985 4702 4055 2674 3975 2789 3565 3475 3073 2723 4087 3109 4633 2799 2715 4721 4394 3769 3381 4494 2683 3904 2733 3091 3997 3860 4428 4984 2594 4695 3784 4197 3215 3071 2628 3142 4751 3528 3572 2529 2905 4741 4385 2599 3007 2832 3986 3915 3215 3734 4432 3860 4775 3715 3830 3951 3156 4187 2503 4285 4671 2758 4546 4032 2768 4906 2800 3038 4237 2563 3473 3518 3173 4164 4376 3785 3008 4884 3892 3172 3910 3461 3558 2747 3864 3989 3373 4939 4363 2990 4879 2568 3380 15 3764 2929 4163 4833 2908 2722 4511 3243 4588 4992 3691 4153 29 34 19 28 30 21 33 38 17 39 11 35 8 4 32 13 23 19 4 15 33 35 29 11 22 28 16 18 29 23 19 20 3 28 38 32 34 10 18 14 28 6 2 30 16 36 1 28 1 11 38 23 6 19 31 33 12 37 12 28 29 6 25 17 16 23 37 6 21 8 13 36 39 24 33 32 34 18 34 8 6 26 6 29 27 34 9 11 14 19 1 1 26 9 4 15 21 31 5 32 36 35 11 2 21 21 23 7 23 37 27 11 21 34 13 34 5 13 17 12 16 1 26 16 3 38 27 15 27 37 8 33 1 5 25 30 10 13 13 7 29 14 9 20 1 22 21 8 32 17 34 6 3 31 8 35 20 35 39 3 26 33 17 3 38 20 32 16 11 11 31 0 31 16 4 36 32 18 34 19 33 11 32 12 23 2 17 32 17 2 36 27 9 11 29 37 28 12 18 1 13 29 16 31 14 19 30 12 26 1 4 36 1 30 13 37 19 26 2 5 3 27 24 39 7
4832 4464 4612 2751 4840 3266 3658 4328 3493 4490 4246 3041 4783 4820 2964 4402 3208 3778 3152 3704 2538 3219 3117 3377 3198 2730 4830 2743 3364 4375 3667 4434 3799 2695 3431 4898 2742 4783 4505 4737 3909 3118 4056 3192 3443 3796 4342 4492 2738 3651 3363 3756 3058 3847 3729 3979 3191 3376 3460 4845 3120 4642 3562 2954 4523 4504 4535 4357 3577 3823 3187 3341 4439 3466 3184 4005 3097 2853 3065 3138 4489 4181 3999 2883 3861 3317 4338 2522 2627 3375 4808 3448 4590 4516 4683 2532 2777 3225 3732 4891 2935 4474 3848 4847 4495 2776 2792 4679 3892 3021 4193 3600 2721 4717 2540 2518 4375 3937 3511 3692 4724 4328 4209 2785 2708 3884 3379 4899 3335 4877 4338 2623 3849 3863 3569 2820 3597 3148 4332 4066 4385 4404 4126 2582 4882 4095 2653 2826 4319 2557 3215 4563 13 2556 4138 4589 3739 4823 4852 4045 4335 3107 4801 4813 4564 4255 4257 3405 4309 2985 2670 4735 4311 4936 3668 4581 4979 4041 4038 3049 4093 4311 4618 4409 3667 4949 2734 4069 2690 3626 4004 3145 2780 4585 2707 3525 4019 4472 3135 3785 4474 4937 3478 4950 2955 3020 4450 3764 3721 3195 4516 4171 2883 4632 2505 4996 4940 4387 3689 2780 3307 2882 3471 2686 4066 26 9 28 36 6 21 10 14 25 2 22 22 24 25 21 30 11 6 18 31 25 2 4 11 23 13 12 16 19 20 24 2 8 9 3 6 24 28 28 8 28 37 25 28 33 16 19 5 22 23 38 32 39 31 5 14 20 9 19 38 3 6 6 14 36 30 4 37 15 37 10 35 11 20 35 29 16 19 31 31 38 37 27 20 23 2 34 2 6 19 36 36 35 17 29 3 31 19 15 8 18 22 38 28 5 5 35 29 4 22 32 30 13 31 15 11 13 38 30 35 12 37 25 12 34 11 18 27 7 5 34 7 13 13 16 30 36 27 36 18 9 34 11 5 27 20 3 32 26 31 29 38 7 17 28 23 24 27 33 33 33 8 31 4 1 33 2 11 2 5 18 30 0 15 32 24 14 2 31 36 10 30 10 37 31 17 29 1 4 39 34 15 36 15 29 28 6 37 34 24 18 5 16 11 39 21 38 26 39 35 24 13 3 24 24 20 12 19 26 34 31 10 39 30 22
3203 3575 3511 3669 4312 3298 4022 4487 3869 2605 4844 4053 2619 4526 3004 4398 3931 3505 3663 4126 3820 3511 4634 4595 4292 2588 2843 3399 4165 2933 4473 4172 3512 4642 4728 3038 4590 4792 4861 4305 3599 4769 2985 4577 3337 2637 2684 3465 3072 3116 2589 4576 4102 4646 2917 3821 2531 3719 2751 4891 3221 4991 3452 4106 3191 2807 3665 2702 2615 3855 3618 4225 4299 2672 4792 4728 2618 4989 3892 4029 3381 4217 4248 4821 3506 4298 3469 4602 2686 2580 2860 3847 3539 2784 4312 3476 3128 3701 3856 2617 4029 3193 3404 3278 2966 3340 3103 3397 3565 4976 3916 4495 2654 4603 2938 3761 4559 3629 3798 4867 2902 2996 3283 2838 3304 3644 4032 3425 2616 3970 3883 3328 4341 3487 4302 4917 4279 2764 4679 4024 3254 3657 4753 4031 4546 3055 4441 4854 3670 3279 3331 2704 4659 3882 4957 3988 4617 4428 2501 2954 4234 3788 3706 3944 3701 3445 2659 3046 3735 4278 4376 2719 4666 2776 2974 4772 4864 3925 3244 3961 4040 4022 4743 3378 3169 3548 4795 4855 3566 2643 4001 4113 4540 3525 2988 4810 4569 2585 4856 3534 2934 4733 4730 2778 4205 4708 2727 3331 3436 3505 2675 4897 4938 3926 3198 2733 2757 3615 2860 2552 4448 4262 3694 2659 3435 16 5 15 11 5 13 35 8 8 2 2 26 20 8 7 8 28 15 21 1 9 34 21 26 38 7 27 10 17 39 2 6 32 37 11 8 20 15 18 3 3 27 5 4 21 26 28 19 39 31 17 3 34 24 20 12 15 25 37 15 19 19 36 4 2 28 8 23 5 19 31 14 2 37 25 29 8 2 30 28 20 32 13 26 32 8 5 13 26 15 30 26 2 28 16 6 27 37 34 20 9 22 25 9 5 34 31 17 22 27 25 38 38 26 18 1 36 2 30 13 17 25 30 22 8 26 28 38 37 4 13 1 7 12 18 25 22 5 28 17 1 31 5 39 23 24 27 32 36 34 39 2 14 22 18 19 10 11 18 7 11 18 32 13 4 30 15 3 17 34 32 26 24 0 3 29 2 1 34 13 9 9 13 19 14 4 13 24 35 25 30 3 26 17 32 23 29 4 10 16 28 35 32 20 33 19 3 35 26 36 17 13 2 39 11 21 7 10 34 8 38 18 29 18 39
3967 4160 2805 4600 4695 3323 3185 3948 2674 2902 2937 3979 2922 3181 4142 2968 3030 3055 2914 4189 4970 3012 3163 4318 3192 4722 3619 4985 3456 2925 2502 2521 3824 4426 4181 2719 4024 2816 4588 3272 4055 4562 3786 3793 3648 4710 3979 4971 3350 2879 4494 3704 4078 4013 3884 4026 2750 4109 4979 4196 3556 4353 3654 2994 3372 3253 2572 4537 4839 4423 4263 3012 3801 4668 2738 4312 4483 4313 4506 2977 3036 2968 3078 4653 4250 4580 3061 4373 3073 4477 2705 4168 4172 4520 3202 3950 4290 3019 2849 3077 4633 4835 2584 3331 3050 3488 3532 3109 3397 2659 3535 4515 3273 2939 3600 4712 3631 4023 2980 4701 2912 4746 3773 2930 4185 3079 2679 3119 3534 2994 4314 4819 2571 3044 2869 3740 2531 3752 3630 3077 4975 3809 3362 3478 2637 3678 3779 3349 3083 3713 4519 3846 3186 3812 4891 3686 3678 2692 3407 2561 3367 3552 4401 3839 3421 4576 4880 3253 4158 4534 4714 3248 4822 3309 3384 3867 4826 3057 3991 4573 4632 4960 3576 3825 3854 4452 4260 2659 4319 3390 3170 4387 2522 4199 2876 4491 4879 3956 3194 4918 3150 4725 3026 3483 4112 2830 3084 3732 4722 3048 4753 4521 3364 4854 4168 4129 3824 2747 3442 3833 3946 2718 3799 3786 2762 23 20 19 14 9 24 20 12 25 11 16 23 13 19 29 4 35 39 2 35 34 5 38 16 6 34 12 24 33 20 3 31 15 14 37 10 4 20 39 17 8 15 22 11 13 8 2 5 5 30 28 27 16 17 32 22 32 13 24 38 37 30 27 33 3 22 39 16 25 18 17 7 19 30 19 18 16 11 33 36 9 12 13 4 19 24 22 23 34 9 32 17 35 10 22 31 15 5 27 19 23 16 27 27 32 4 27 4 10 31 12 10 21 24 10 38 38 16 22 20 5 17 3 36 22 2 2 26 31 11 3 24 11 35 19 33 35 35 8 36 22 38 33 23 22 31 30 11 10 3 2 5 33 5 16 34 39 8 35 24 18 18 35 9 7 35 12 14 4 23 28 16 20 2 0 27 33 31 38 32 36 5 9 1 26 25 37 5 1 23 25 25 1 16 37 30 37 39 9 35 18 6 28 38 29 29 14 38 28 26 15 38 22 13 38 26 13 5 12 2 21 32 11 7 12
3137 2598 3089 4120 3981 4778 4151 2621 3829 2908 4865 2706 4899 4638 3903 3231 4175 3873 4861 4362 4628 3731 2590 3799 3538 3434 3965 4025 2665 3647 3699 2796 4114 4224 2998 3660 3587 4206 3060 3593 2999 3626 4369 4488 3253 4373 3440 2723 4825 2999 4048 2641 4496 4286 4098 2557 2796 2601 3195 3506 3397 4000 2852 3038 4520 3802 3291 4541 4622 2553 3752 3598 4671 3733 4472 4630 4657 3603 4174 3758 4991 3312 2736 3454 4404 4843 3448 4106 4417 3130 3680 3740 3219 4538 4909 3206 3492 3555 2948 2734 2697 3170 2829 3320 3620 2822 2697 3554 3071 3734 4742 4429 3928 2679 4198 3975 4871 4357 3129 3538 3991 4839 2807 2930 4297 3589 4322 3879 3976 4002 4176 3675 4825 2979 3444 4346 3406 4060 4004 4975 3999 3827 2724 3559 2890 3847 2533 4929 2944 4770 3867 3450 3657 2959 3498 3849 3564 2578 4285 3290 2875 2543 3453 4771 2806 2626 4063 3985 3982 4202 2851 2611 4856 3100 3401 4997 3784 3127 3029 3724 2631 2864 4489 2661 3428 3237 3813 2874 3346 3936 4785 4231 4296 4688 4897 2553 3098 4469 2547 3409 4326 2878 4441 4676 4719 3454 4541 3445 3830 4327 2955 4374 2604 3337 4173 3341 4736 3657 4724 4880 4494 2661 4323 4158 2930 8 23 38 20 14 27 16 22 23 14 27 30 23 30 12 37 32 4 35 26 25 23 10 20 25 21 16 6 14 37 38 18 10 2 38 2 3 30 37 33 4 10 11 19 12 35 33 39 29 26 20 31 16 13 2 24 7 17 5 18 37 31 28 27 32 36 1 29 23 11 21 35 11 37 1 22 36 27 39 26 22 18 35 11 29 19 39 30 30 33 12 28 17 25 10 10 29 7 15 22 13 22 37 31 32 10 1 27 4 33 34 17 20 18 35 19 5 11 28 22 29 13 39 11 34 14 37 33 37 29 25 30 6 19 15 11 23 17 39 1 16 30 5 7 10 5 16 26 32 29 16 22 5 37 35 29 18 7 18 35 25 36 38 3 14 5 35 29 12 18 38 30 5 2 15 0 17 35 14 3 24 10 34 20 7 23 37 7 7 8 12 35 37 21 6 25 27 22 15 11 20 2 34 26 27 24 6 34 25 33 1 4 13 39 36 14 3 24 18 34 4 9 17 38 33
2884 3194 3813 3476 10 4069 4023 4292 3303 3267 4765 3720 4256 3954 2811 3628 2605 4552 4726 4305 4114 3507 2830 3839 4022 3574 3124 2508 4157 4707 3977 2878 3357 2558 2959 3801 4151 4833 4089 2561 4632 4386 4595 4323 3257 3162 4646 4348 4952 3133 3068 3255 4114 3842 2501 4389 4834 3631 2608 3407 3161 4928 3720 4429 2844 3776 4112 2688 4839 3715 4520 2679 4397 2695 4248 4985 2666 3302 3783 4648 2834 2501 4495 3588 4689 3696 3320 3557 3436 3678 2693 4902 4786 3632 4874 4124 3755 4276 4184 4842 4550 3230 3449 4895 4350 4224 2767 4990 3822 4921 4343 4278 4071 2981 3630 4129 4256 3545 4720 3240 4028 2925 4525 2944 4752 3357 2685 2955 4251 4820 4958 3415 3916 3424 2595 3029 4717 3182 4120 2967 4793 4575 2563 4511 4127 3654 3033 3178 3617 4462 4379 3860 3656 3945 2600 2771 3440 3821 3457 4986 4435 3579 4528 3039 3044 4658 3863 2585 2964 3245 3435 2830 2948 2934 3930 3312 2984 4557 4748 4216 3549 4144 3355 4302 4292 2901 4463 4716 4782 3625 4319 4073 4809 2855 2741 3295 2854 4866 3297 3106 4461 3200 4054 4012 4156 4632 4611 3076 3071 4282 3507 4904 2597 2662 4690 2805 3666 4339 3815 4438 3238 3541 4817 2561 2867 38 10 26 38 2 22 26 4 26 6 9 2 4 19 10 36 35 30 33 7 35 36 30 14 8 22 12 35 4 18 11 30 11 32 33 32 11 25 31 38 39 30 27 16 29 15 24 5 29 29 8 7 31 9 20 20 26 15 19 16 6 23 11 6 23 11 32 37 3 33 19 21 6 38 38 29 12 9 34 5 38 37 16 6 32 9 22 10 2 20 3 32 20 3 20 14 28 37 1 25 15 27 7 31 22 34 22 30 19 17 34 37 18 5 16 1 33 21 20 10 37 19 31 23 38 26 16 17 25 15 10 6 14 2 24 7 36 18 11 28 2 1 20 1 34 14 1 27 34 17 20 32 13 20 27 16 32 10 38 27 6 16 15 7 21 29 35 21 16 16 9 3 38 7 29 35 0 12 15 26 34 6 38 14 38 8 1 29 22 33 2 21 13 22 26 27 5 8 31 29 32 35 23 18 9 6 9 18 18 33 18 35 35 17 8 26 24 30 38 28 5 1 11 3 16
4884 3466 2872 2596 3091 4313 4244 4233 3719 4105 4855 3440 4278 3780 3869 4923 3617 4558 3123 3175 3771 2740 2814 4011 4911 4292 2813 4760 3635 2622 4643 4946 3119 3798 4399 3818 4249 3750 3210 4934 2967 2790 4532 4632 4443 3801 3344 2538 4071 2662 3462 3107 4813 3589 3776 4379 4864 4007 4150 3409 4038 3015 4798 3797 3769 4816 3326 3098 4069 4033 3571 4287 3535 3625 4968 3747 4139 3324 3892 3565 2783 3833 3004 2542 3747 4528 2876 3398 3991 2754 4010 4536 2506 2814 2756 2895 4824 3231 3286 3411 3202 3623 4206 3943 2986 4342 4920 2783 4612 4577 2805 4521 2686 2566 4813 3873 4636 2931 4718 4117 4367 4560 2912 3510 4227 2872 3465 2768 2993 4414 2985 3298 2885 3982 3658 3985 4578 2710 2508 4528 2620 4974 3673 2743 3250 2839 4350 2533 2768 4348 3182 3371 3199 3485 3097 3667 3384 3018 4201 3959 2581 4383 4052 3235 3712 3713 3786 3612 4412 3324 3396 3133 4046 4596 2765 4226 4961 2641 4532 4239 3819 2730 3963 4372 4393 4193 4410 4119 3603 3503 4752 3580 4155 4506 3353 4777 4684 3459 3513 4638 3821 4143 3358 3164 4068 2835 4447 3896 2781 4342 3122 4064 3529 4290 2951 4166 4855 2786 4541 3021 4946 4486 4466 4144 4410 12 39 26 15 32 15 8 28 7 15 5 16 27 29 8 2 9 13 34 11 21 7 14 13 38 24 12 4 20 34 28 36 25 13 37 35 34 30 14 19 23 17 22 27 7 37 7 29 26 12 20 15 10 11 23 37 32 11 22 19 38 30 30 22 3 3 15 10 33 36 10 3 9 19 25 39 10 29 3 10 26 27 31 11 1 32 3 11 38 18 20 30 36 19 14 38 18 9 28 22 21 14 34 9 36 2 2 18 29 30 27 36 9 37 27 8 12 7 34 3 24 35 5 22 11 18 30 4 19 7 37 33 38 7 37 33 35 23 33 14 5 28 6 37 9 30 17 30 18 35 24 15 11 24 37 35 27 3 3 15 21 17 38 6 26 19 13 14 36 16 34 30 19 15 2 17 21 0 14 4 11 14 25 16 32 32 13 23 14 32 11 26 37 17 39 4 3 32 8 12 33 6 30 22 16 29 37 36 19 16 27 29 18 8 2 31 12 35 13 19 28 20 27 20 39
4193 4892 3991 3393 4551 4553 4413 3371 3069 4851 2703 2716 3404 4249 3767 2532 4051 3964 4199 2655 3351 4645 4669 3128 4676 4433 2774 4548 4080 4816 4244 4000 3159 3877 2718 3789 2728 4793 2576 8 3918 2964 3977 4484 4044 4522 3563 3902 4701 3931 3358 4849 3663 3699 3491 3839 3490 2500 4519 4970 3277 4899 4489 4769 4922 3624 3079 3592 3191 3746 4329 4514 3965 4405 4303 4726 2809 3373 4712 3259 3531 4291 4571 3958 3960 4308 2823 4378 4866 2684 3992 3565 4922 3490 3972 2977 3878 4325 3904 3139 2588 4222 4644 3182 3763 3332 4393 4236 4860 4224 4137 3145 3892 4332 4236 4688 3025 4697 3956 4013 4512 3767 4361 3789 4646 3291 3125 3230 3181 3686 4920 2981 3678 3027 2590 4208 3941 3845 2706 3250 3660 3671 4818 2937 4643 2894 4390 2999 4210 3672 2901 3119 3819 4539 3288 3318 3225 15 4046 4346 2672 4403 2609 4227 2876 2791 4972 4518 2631 4737 3340 2638 3468 2887 4880 4374 4321 3783 3459 4195 4490 4159 2597 3652 4379 4872 3300 4855 3189 3605 3988 2777 2525 3328 3096 4420 4041 4742 3074 3310 4209 4873 3889 2764 4082 3702 4229 4879 4644 4481 3250 2525 3656 3465 3910 2954 2919 3632 2665 2643 3593 4691 4511 4870 3629 24 35 36 7 10 1 35 25 27 17 34 7 8 18 26 32 38 28 4 37 8 11 27 15 28 6 14 3 15 13 24 32 3 19 23 36 36 14 15 28 16 31 9 12 9 17 16 33 32 3 29 5 19 34 31 19 16 28 21 19 8 30 11 9 5 21 30 31 21 15 9 16 7 29 22 21 31 8 6 32 26 33 22 31 17 29 26 32 21 9 23 37 24 24 10 3 34 29 21 8 39 2 38 36 30 20 20 35 5 12 39 36 8 38 14 28 4 14 7 20 7 36 33 31 18 33 28 35 37 34 14 8 32 9 38 20 18 17 19 39 24 13 6 22 36 38 28 14 14 31 3 3 28 7 11 14 28 39 23 15 21 6 3 16 37 27 39 14 16 11 25 32 18 13 27 2 10 26 0 18 29 11 33 29 27 15 31 27 33 36 1 4 8 24 30 21 23 18 6 6 3 15 18 30 6 22 18 28 9 10 18 3 29 11 24 9 4 11 12 10 7 8 2 8 8
2901 4927 2505 4678 2657 3637 2868 4659 4574 2818 3351 4577 3181 4708 4796 2816 3138 4159 2861 3363 3377 3184 3496 2694 4902 2532 2804 3616 3773 3721 4378 4635 2919 3523 2825 4292 4807 2539 3826 4358 3347 4385 3419 4177 2998 4027 4579 3708 2772 4376 2510 3910 3193 3255 4639 4584 4005 4890 3818 4273 2870 4341 3702 3702 3636 4105 3831 4084 2697 2886 3520 3543 4899 4277 3964 3832 4178 4996 4047 3088 4130 3285 3508 3459 3069 2963 2540 3763 3740 3097 4238 3377 2551 4258 3078 3978 3700 3504 3312 4568 2835 2790 2637 3643 2733 4313 4780 4895 2755 3160 3027 2755 4658 2517 3578 3632 2877 3076 4892 3765 3257 3407 4107 4275 3599 3839 3533 3652 4568 2661 3923 4235 3209 4288 3581 3096 4778 4700 3047 3454 2884 4619 4637 3049 3100 3491 3693 3312 4786 4514 4540 3706 3658 3370 4569 4788 2995 3511 3007 4147 4409 3133 3404 3516 4236 4482 2699 2728 4603 4877 2958 4677 3556 3974 3330 4750 4927 3766 4802 3309 3839 2630 4762 4005 4551 3216 3173 4107 3599 3460 3732 4315 3155 3184 2721 4867 3457 2552 3148 4206 2752 3204 2700 3962 3016 4516 4726 4004 4626 4360 3309 4316 4655 4254 2531 3185 3497 2548 3408 4150 2895 4794 2751 4030 3832 2 24 27 27 24 6 38 23 26 23 16 16 22 29 39 19 30 32 10 2 15 14 2 32 24 4 9 32 25 7 29 5 29 31 38 14 4 39 6 31 35 30 34 6 6 24 3 1 12 25 3 6 21 37 24 22 28 26 1 15 17 5 38 10 13 9 5 30 35 11 28 19 20 3 21 38 23 6 5 13 4 23 35 33 28 27 26 29 11 7 1 2 12 2 19 12 12 27 2 18 12 12 19 27 7 22 23 19 8 12 8 38 9 2 17 18 29 26 7 17 8 14 22 30 12 32 39 11 2 24 35 37 32 3 28 13 7 30 30 24 10 17 15 1 37 7 1 24 38 32 17 15 35 20 34 39 12 11 17 26 11 23 25 17 9 4 19 6 17 33 26 6 19 14 28 16 24 34 3 0 9 30 27 23 22 37 27 25 2 18 6 19 25 13 39 34 1 26 14 25 12 30 27 25 2 3 25 3 14 28 23 9 34 28 4 1 18 16 6 13 17 14 28 29 15
4264 4673 2536 4432 2710 3644 4029 3406 4055 2541 3474 4308 4086 4485 4431 3415 3924 4576 3298 3988 2599 3143 3287 3898 4465 2809 4621 2694 2602 3656 2781 2652 4121 4954 3863 3415 3960 4791 4686 3440 3479 3535 4937 2690 3400 3986 2652 3574 4377 3012 4180 3953 3325 3127 2899 4889 4449 3814 4697 4214 4477 3168 3138 4982 3337 3124 3453 2951 2724 3117 4055 2859 2629 4299 4844 4157 3094 4055 3296 3053 3496 2880 2512 3091 2595 3109 4767 3864 4437 4638 4803 3123 3486 2874 3161 4162 4177 4396 4199 4742 3928 2924 2899 3304 4820 3603 2632 3600 4796 3071 3966 3817 2611 3656 4499 4973 4461 4265 4320 3460 3890 2637 3677 2621 18 3380 2551 4125 4335 2551 3766 2804 3437 3896 3193 4748 3538 3479 4243 3780 3391 2543 4873 4652 3784 4624 3959 4912 4822 3768 3986 3809 4821 2626 3180 3382 3147 3655 4346 2869 2967 2836 4207 4577 3973 2644 3178 2780 4628 3443 3262 4780 4610 3579 4045 2720 3423 2897 3227 3798 2912 3395 3324 3620 3753 3308 4676 4962 2922 2510 2788 2773 4163 4952 4752 2586 3388 4431 3787 3534 3886 4597 4019 4068 2626 4781 4936 2671 4706 4834 2638 3806 3277 3326 4399 3664 4356 2846 4181 2741 4468 4898 3122 2830 4155 1 29 15 17 34 32 15 14 14 35 11 34 18 5 22 31 4 16 28 28 6 9 12 7 6 3 22 2 5 36 9 30 11 6 27 11 4 4 24 18 35 39 36 11 39 7 26 33 23 38 34 28 29 33 17 29 28 6 15 31 24 21 6 29 14 10 21 27 38 15 24 6 11 9 11 30 5 16 13 34 31 27 8 17 1 5 13 25 6 16 31 24 4 25 14 37 1 19 10 3 31 18 9 11 11 11 9 14 1 32 23 34 29 11 13 29 3 26 26 3 26 35 6 12 30 39 24 2 26 2 17 35 17 10 21 27 7 36 24 9 37 16 5 18 35 2 20 25 7 33 9 39 35 38 24 12 20 20 4 4 21 18 32 1 18 29 9 31 19 9 1 38 9 18 16 9 21 8 37 16 0 3 37 16 37 11 5 10 20 12 27 25 9 19 2 3 6 31 38 6 38 30 26 34 33 20 3 22 23 20 36 15 31 31 38 18 27 37 37 18 6 26 27 8 8
2668 4641 4815 2952 3096 4807 3841 4469 2673 2649 2832 3184 4908 3981 3377 3442 3333 3280 2922 2966 3316 2554 4635 3462 4814 4051 4161 2559 2561 2631 4616 3891 4642 4156 3259 3418 3224 4321 4716 3672 4403 3778 3739 3070 2699 3628 4880 2913 3355 2752 4795 3334 4903 3264 2920 3492 4423 4594 3856 4072 2809 3939 4198 4730 3853 3188 3846 4237 3198 3129 3610 2874 3050 2697 3511 4629 3961 4866 4182 3264 3461 3537 2630 3260 3586 3417 2517 4727 2901 3987 2766 3842 4289 3984 3222 4121 4118 3884 3042 3304 4389 3243 3354 2940 2661 2679 2981 3871 3247 3576 4204 2873 2580 4312 4219 2909 3390 3875 2914 2942 4219 2937 2716 3260 3794 3158 2914 2781 3165 3794 3041 2788 2832 2562 3843 2814 3645 4343 4974 3379 3314 3111 4863 4497 4395 3169 3556 2656 2539 3098 2958 4001 3682 4197 3636 3008 4828 3922 4828 4526 4715 3551 2601 3539 3601 3217 2844 4721 4834 3666 3064 4931 4784 3935 2881 3782 2985 4721 3708 4990 4042 4697 3204 4922 3936 2835 3351 4997 2619 4768 3666 3425 2608 2812 3544 4732 4742 3724 4182 4057 4509 4919 4519 3251 3600 3964 3485 3315 2542 4407 2843 3698 3883 4748 4274 3966 4455 3472 4079 3752 4395 2947 4638 3994 3882 33 27 16 37 9 3 29 37 39 4 14 2 20 36 18 14 1 3 19 7 7 2 4 7 12 10 1 26 3 25 9 2 9 9 9 14 17 20 22 37 35 31 3 30 24 21 31 4 4 2 26 28 4 35 4 1 10 39 21 30 7 6 32 28 32 9 31 35 14 20 19 23 25 39 19 33 4 13 1 26 33 14 18 17 2 5 13 5 32 29 7 11 12 6 13 14 12 22 19 37 19 30 14 23 32 30 17 19 39 14 25 24 37 16 8 2 27 38 7 11 5 9 35 35 29 10 31 24 19 39 17 29 7 36 33 24 35 6 9 15 26 31 17 36 19 35 9 17 21 36 35 1 29 33 26 24 16 18 9 16 30 8 10 21 32 28 8 35 38 27 34 19 31 17 38 2 2 2 16 27 35 0 10 35 2 29 38 23 13 8 4 5 28 39 3 31 1 15 13 9 14 33 29 38 16 33 16 39 33 36 2 5 16 16 1 20 39 2 19 37 29 25 14 35 26
4184 3192 2865 4736 3731 4049 3213 4512 2654 2989 15 4789 3708 3906 3625 4791 2720 4177 3136 4462 4259 2769 4516 2524 4346 3137 4033 3049 2760 4270 3232 4670 2739 2501 2778 4617 3719 3186 4591 3478 4224 3011 4927 4001 4425 4805 3352 3202 3995 2516 3155 3159 3061 3030 3495 4990 2759 4561 4552 4741 3316 2858 3854 3883 4652 4942 4019 4327 4479 4953 4820 2772 3390 2764 3965 2872 3675 4758 4338 3329 3247 2620 2778 3736 4791 3495 3401 4450 3048 4066 3693 3161 4813 3331 4456 2645 3805 4977 3725 4312 4109 4656 3949 3772 4567 3297 3732 3347 2988 4751 3830 4706 4830 2818 4018 3118 4050 2537 3776 4739 4298 3671 4803 3519 2728 4929 4459 3835 3267 3959 4841 19 3696 3648 2863 4680 2674 4218 3741 3384 2757 4680 4429 2531 3607 4840 2764 3474 2575 4965 4641 4025 3820 4834 4636 4656 2865 2972 3584 3280 3686 4693 4714 3347 3966 4131 3471 4753 4113 4982 2777 4142 2654 3100 4789 4966 2668 3171 4211 3250 3337 3546 4431 4889 3228 3810 3912 2714 2687 3824 3891 4207 4119 4984 4567 3247 4788 4494 2912 2695 2503 3073 4714 4528 2505 3528 4334 2903 3409 2546 2638 3060 3513 3177 4999 3051 3095 2816 4899 4082 4405 3577 4440 4095 3623 21 5 18 8 33 8 32 25 4 38 27 3 27 35 25 19 2 25 23 19 24 31 13 10 32 4 18 32 10 34 26 24 39 26 18 32 30 20 7 27 24 4 32 11 15 25 32 18 16 14 37 24 7 18 13 21 21 19 28 21 13 5 25 2 28 25 12 21 26 34 35 35 19 36 36 12 37 2 20 36 8 29 9 21 2 9 4 26 19 5 29 22 21 17 27 8 4 4 24 25 33 29 4 25 1 7 27 6 36 5 29 2 30 39 5 24 14 14 14 31 29 34 30 35 6 24 14 24 16 34 35 25 19 5 20 19 38 15 3 30 28 3 24 23 12 30 22 4 33 5 23 10 39 12 13 38 16 29 32 27 35 13 39 27 21 11 22 13 31 19 28 10 29 38 2 28 19 15 37 19 28 18 0 32 11 6 3 39 20 11 18 19 8 4 24 21 29 30 37 21 15 5 15 15 2 20 24 11 30 12 13 27 29 35 31 18 33 21 16 17 38 21 18 17 6
3329 3583 3668 3413 4350 4772 2564 4171 4151 4701 3075 4878 3075 4918 4574 4347 3368 4648 4199 3674 4369 3289 3641 2842 3865 3982 3325 4301 2982 4608 3698 4112 2574 3344 4196 2944 3593 4959 2998 4294 4367 2867 2599 2542 3231 4173 13 4226 3415 4428 3868 3514 4372 3872 2542 4052 2883 3841 4231 10 2957 4865 2939 3905 4557 4618 4485 3051 3694 3713 3662 2784 3950 4116 4626 3971 4722 4301 3084 2997 4331 3198 3106 3216 3457 4175 3542 2679 3735 3803 3298 3121 2791 3206 4737 3671 4799 3223 4396 2872 3474 4870 3892 4581 3244 3008 4192 4086 4597 2730 2798 2797 3703 2537 3010 4363 4975 2512 3276 2582 3301 3830 2847 2775 4381 4337 3936 3946 4880 2749 3585 3810 4743 4749 2991 4889 4020 4987 3276 4112 3805 4063 3457 4125 4972 3032 4438 3752 3571 4547 4240 4145 2888 4236 2763 4086 2642 3122 4303 3762 4770 2776 3261 2741 3475 2711 3483 3573 2780 3511 4122 3225 2664 3967 2505 3607 4727 4054 2901 4490 3483 3521 4123 4776 3575 4794 3024 4247 4400 3140 3757 3632 4063 3239 4201 3293 4339 4597 2801 2558 4670 4548 2927 3468 4232 4854 4776 3730 4116 3053 3042 4678 4065 3472 3530 4490 3474 2603 3650 4736 3929 4632 4836 3112 3054 29 34 7 27 5 3 13 3 23 25 15 8 12 37 24 1 13 17 1 19 34 22 18 8 29 39 10 15 21 35 34 22 29 22 26 12 12 39 29 38 23 30 39 35 20 35 13 9 38 30 27 27 20 5 4 37 13 37 2 11 36 26 25 13 26 18 17 19 3 29 36 25 3 35 27 1 27 12 2 4 14 30 5 38 7 20 31 9 11 3 22 11 3 2 12 32 30 34 34 30 33 19 34 36 20 23 34 13 31 20 2 14 30 28 18 22 7 25 9 36 10 2 36 11 37 9 30 35 23 16 30 22 5 14 1 10 14 11 6 16 15 23 38 34 27 28 29 16 12 27 38 28 19 25 28 2 19 5 12 24 22 1 6 4 9 2 14 18 13 37 23 17 36 24 5 38 37 38 32 24 11 24 21 0 29 3 32 8 36 8 11 12 24 6 27 30 6 25 28 29 3 29 3 20 6 20 34 17 29 19 15 38 6 30 4 1 13 10 11 24 18 31 30 18 30
3946 4717 3448 3145 4184 3432 4909 3408 4719 3818 4458 3073 3203 4082 4890 3757 3686 2685 4478 2763 3887 4538 2770 2712 4250 3091 4575 4031 2906 4013 4933 3663 3702 2693 2772 2741 2888 4062 4629 3377 3419 3172 2694 3614 3278 2542 4692 3029 4600 3249 3319 3873 3382 4124 3868 2555 4722 3915 3385 3807 4314 4301 4684 4621 4352 4279 3032 4772 3145 2514 3470 4774 3187 2713 3335 4080 4850 4506 4106 4659 3159 2932 2803 4116 2829 3250 4059 2804 3780 4392 4318 4107 4878 2652 4342 3817 3716 4648 3771 3284 3510 2652 4127 2880 4452 2828 4705 3022 4323 3969 2861 3287 4544 4180 2833 4432 4173 2584 3569 3628 4785 2640 3731 4843 4649 2500 4800 3928 4283 4330 4269 4595 3877 4419 4639 4272 4760 3709 4682 3270 4571 3520 4773 4963 4643 4452 3248 2828 2840 4742 4511 3792 2804 3559 4031 4176 3060 4119 4565 4997 3442 4114 3546 4365 3816 3474 4945 4008 3866 2936 3594 3667 2992 3183 3805 3549 4439 3281 2999 2644 4275 4035 3067 4788 4375 2563 3021 3556 4755 4547 4501 4025 4032 2504 3142 4590 4764 3285 4138 3551 4814 3715 3162 3924 2558 3030 2757 4199 4957 4597 2555 3718 2753 3101 3002 4340 3433 2970 4427 2827 3386 3034 3055 3269 3152 34 31 20 36 2 2 33 38 27 8 9 19 16 9 7 39 34 28 7 20 28 29 39 21 23 33 13 34 24 30 29 27 23 30 15 23 21 33 34 38 19 15 36 32 14 17 31 38 36 20 2 5 6 31 22 26 39 22 32 2 34 38 22 21 36 37 16 25 17 28 38 11 2 10 15 38 33 37 4 26 15 15 9 15 26 4 28 15 20 32 7 21 19 17 1 23 16 23 5 28 27 8 25 4 31 34 19 8 24 33 25 18 18 1 10 9 17 24 37 25 25 37 12 4 37 2 7 3 32 15 26 24 35 7 32 25 35 14 18 23 11 34 25 3 37 27 14 31 16 29 13 2 22 22 19 34 21 27 20 34 29 13 1 2 6 27 7 24 2 4 1 14 10 9 5 19 32 29 24 38 2 27 12 21 0 26 12 36 6 10 36 6 16 33 17 34 39 22 22 29 34 30 23 27 24 31 15 18 9 5 16 10 34 37 13 23 3 2 30 14 21 4 22 39 26
2771 4764 4240 2571 3964 4242 3156 2671 3398 2623 3257 2709 4477 2899 4617 4952 3466 2553 2518 3182 4608 2767 3647 4532 2993 3008 4202 4436 4539 4659 3713 3813 4153 3676 4337 3843 2801 3993 3312 3353 3783 4729 3824 3088 2878 2991 4146 4264 4815 4807 3235 4625 3358 4332 3233 2550 2874 4421 4844 3473 4257 4515 3723 3075 2767 4553 4255 4724 3779 2631 3319 2542 2783 3170 2615 3110 4572 4491 4325 3106 4275 4319 2742 2793 2705 4298 3258 4451 3593 4835 3900 4357 3867 4848 4682 2659 2840 3269 3657 3470 4107 3718 4644 3725 4085 2955 4967 4790 4715 3639 2885 2633 2929 3048 3760 2688 4485 3238 4636 2555 4057 4762 3924 3636 4822 3692 2750 3317 4445 4006 3388 3770 2672 3925 4103 2842 2873 2867 3495 4318 2785 4266 4424 4076 3429 4106 4996 3406 4846 3107 4897 4920 4308 3677 3702 2783 3405 3053 2795 3627 4720 3571 3638 3722 4133 3404 3525 2783 4836 3274 3490 4118 3050 2838 3207 3735 3277 2597 4308 2557 4580 4832 3325 4331 4637 3893 3579 3870 3792 4498 3719 3619 3294 3183 3863 4078 4902 2918 3057 2593 4599 3098 2801 4374 2817 2770 2645 3609 3302 3461 3499 2532 2648 3654 4608 3987 3756 3470 2904 3687 2542 3851 4700 3860 4853 5 1 30 32 21 11 6 28 17 12 18 32 38 11 35 10 20 22 13 21 39 26 34 13 13 20 15 16 21 18 7 19 7 25 26 1 8 16 6 5 37 21 8 35 15 5 1 21 28 10 38 25 16 7 2 24 19 9 38 30 37 32 30 29 36 24 17 17 5 7 11 26 29 26 23 36 12 36 32 8 35 6 3 7 31 32 13 34 27 33 14 30 36 28 3 5 25 12 2 28 14 21 27 8 32 23 23 20 18 16 12 16 16 27 17 20 26 14 2 35 5 2 28 19 2 6 35 39 5 22 18 10 32 18 27 3 34 12 39 19 27 6 8 29 6 2 19 3 18 6 29 32 36 37 1 33 1 6 19 7 18 38 30 9 26 12 10 28 22 28 34 39 6 30 4 17 32 22 23 3 7 15 7 22 3 0 22 12 3 2 34 31 29 24 11 21 13 33 13 28 9 30 38 22 10 32 28 39 25 15 20 23 24 34 34 20 24 21 9 39 25 7 12 37 38
3799 3254 4409 4707 2839 4585 4188 2837 4959 3478 3666 4689 3864 4997 3465 3344 4287 3573 4698 4479 3660 2566 3795 3426 4711 4163 2718 4777 4114 4970 4313 3735 2726 4208 3348 3897 3560 4483 3346 4421 2795 3242 3050 4697 4124 4801 3918 4940 6 2571 4668 4537 2623 3974 4748 4889 3858 2586 2706 3686 2723 4897 4116 2740 4282 4379 3818 3452 2977 4628 3163 3225 4117 3654 4394 4331 12 3772 4220 4674 4860 3734 4798 3975 3063 2681 4000 3092 4003 3912 3619 4154 4938 2809 3599 4449 3071 4886 2837 3875 3639 4496 3452 2814 4565 3669 4609 3663 2957 3369 3512 3615 4481 3079 4046 4483 3088 2932 3251 3115 2938 3056 2991 4047 2671 4317 3501 2736 3197 4367 4695 4221 4494 3793 3890 2500 4996 2766 4649 3832 4913 4427 3734 3941 3073 2539 3313 4676 4796 4773 4044 2882 4438 4889 3241 2611 2510 2933 3157 3433 3954 4277 4440 4609 4246 4546 2915 3947 3069 3929 4102 3060 4769 4073 3066 4376 3665 4602 3372 3157 4884 3867 3980 4006 3564 4360 4717 4767 2988 4032 4779 4579 4924 4698 2835 3976 4391 3979 3530 3427 4548 3314 3509 3824 3954 3644 4330 3639 3856 4918 3991 2986 4796 3883 4089 2539 3146 4518 4713 3017 2794 3663 3589 4341 3142 18 34 10 17 38 17 22 19 22 12 15 9 30 19 24 31 30 6 17 9 30 26 34 23 12 1 25 35 11 26 9 33 35 38 21 34 33 8 19 25 28 12 13 12 6 24 17 20 10 20 20 27 17 25 1 1 4 22 34 23 10 7 11 3 38 6 24 33 35 6 30 14 5 23 13 27 21 13 15 38 26 9 13 39 34 36 39 32 29 10 34 28 6 23 18 32 22 37 16 4 15 12 17 30 7 39 31 24 39 16 29 5 6 3 8 21 31 27 10 32 21 21 18 30 21 28 30 33 6 16 22 13 8 37 2 1 21 1 8 25 10 8 16 27 39 11 6 20 34 4 8 32 34 6 26 23 15 29 19 7 3 8 27 30 2 17 15 25 7 30 11 4 7 39 6 6 17 38 25 20 24 32 22 32 11 23 0 5 30 16 14 37 24 22 25 38 11 17 22 17 4 35 14 16 3 31 22 34 31 7 25 7 18 6 16 19 1 29 16 34 31 28 37 2 29
3353 2548 3941 3229 4846 2812 2966 4877 3584 2865 3349 3037 2734 4248 4553 2565 4532 4155 3460 3203 4101 3333 3152 3095 3519 2822 2716 4541 4189 3988 4211 4160 3219 2830 2602 2953 4849 4086 2544 4230 2721 4987 4608 4325 4011 4932 3768 4453 4423 2791 4194 3844 4356 3645 4630 3831 3484 4477 3374 4114 3941 3351 4578 3544 2546 4244 2899 3323 3388 4635 3598 4567 4648 4133 3315 4921 4522 3881 3647 2874 4036 4959 2715 3464 4734 4100 4749 2549 2746 3772 2631 3732 4495 4263 4656 4315 4901 4798 4499 4409 2885 3572 3412 3785 3134 4064 2687 4250 3309 3067 2746 3365 3525 7 2796 3400 3353 3886 2614 4158 3236 4727 3707 4492 4337 2815 4179 4818 2705 3373 4689 2847 4162 2712 4647 3752 4815 4359 3560 2616 4493 3478 4714 4741 3718 3290 3919 4974 2594 4828 2989 4085 4969 4094 4417 4604 4540 4683 2763 3762 3927 4560 3578 3476 4473 3791 3175 4125 3533 2607 4448 3705 2719 4967 3191 4298 4135 3546 4049 2965 3272 2678 3923 2568 3243 3797 3062 3711 4985 3297 3884 2905 4274 4085 4022 2536 3376 4847 3976 4210 4070 4608 3677 2585 4572 2664 4895 2960 2838 4736 4186 3565 3932 3432 4677 3923 4711 3613 3537 2788 3338 4721 3891 4103 4890 5 14 31 30 24 7 20 13 26 7 2 18 9 35 39 9 5 6 26 10 34 36 16 10 32 15 32 33 3 25 30 19 34 9 37 8 36 4 38 3 28 9 33 26 4 32 20 18 39 10 11 19 28 14 10 27 22 26 17 21 37 37 7 6 29 8 5 7 39 17 12 8 8 32 20 2 25 11 38 22 38 8 1 28 37 18 7 12 36 30 26 1 5 17 10 9 5 18 28 26 23 38 14 20 1 23 20 15 2 11 33 29 34 38 7 24 6 39 30 10 8 15 27 12 28 10 33 32 4 12 33 25 35 11 29 23 36 9 4 14 17 7 35 30 3 27 32 10 36 27 5 30 13 13 34 31 38 8 22 20 14 20 18 33 19 1 18 11 26 8 27 10 11 4 21 14 33 35 15 21 35 30 38 31 35 17 34 0 19 5 26 38 37 15 23 32 36 13 33 8 30 9 15 21 28 31 29 13 23 32 5 32 10 26 2 15 4 6 3 28 5 14 12 28 15
4957 4445 4873 3365 4211 3585 3641 3033 4986 2737 2620 3077 4277 4950 4925 4448 3887 3552 2934 3568 3167 4048 3083 2928 4719 3300 3456 3748 4939 3408 3723 3376 2507 4351 4961 3808 4880 2576 4532 3473 4143 4012 4736 3618 4249 3875 3673 3331 4248 4793 4223 4333 2680 3410 3147 2846 4960 4334 2852 4315 4762 3072 2661 3890 3596 3565 3647 3877 2888 3005 2731 2893 4945 2862 4955 4566 4434 3653 3178 3148 3288 3651 3762 3013 4967 2650 2846 2643 4116 3598 2576 3829 4636 4935 2950 3454 2847 4414 4375 4669 4141 4896 4171 2897 3831 4080 4844 4834 4366 2658 4020 4679 2526 4903 4704 3283 3220 3537 4256 3169 4445 3005 4620 4996 4496 4582 3439 3176 3961 2637 4151 2985 3728 2765 4888 4414 3105 2899 4593 3872 4345 3052 3079 3157 3586 4584 4996 3264 3349 3919 4477 4209 3158 3656 4504 2691 3646 3668 3051 2658 4256 4176 4304 4709 3699 3266 4361 2808 4431 3482 3898 3004 3625 2803 3542 2860 3580 3592 3484 4092 3605 4968 4029 3713 3942 4806 4746 2715 3719 3029 2521 2676 4817 2638 3019 4658 3428 3379 2765 4904 2868 3877 3470 4824 4099 3551 4691 4796 2730 3974 2925 2666 2737 4258 4725 4398 3037 2822 3020 3683 4480 3555 3423 4966 2818 24 29 14 3 5 31 21 39 39 1 25 18 28 16 22 6 18 15 16 2 15 10 37 29 35 26 17 3 9 3 7 31 24 27 18 33 3 9 9 1 6 34 9 39 11 37 5 25 16 6 36 12 24 39 28 26 16 19 38 13 1 16 25 9 39 13 22 13 17 36 14 34 16 33 19 29 9 32 22 26 3 13 18 24 36 27 22 34 22 9 34 33 33 30 32 35 4 29 21 36 16 22 7 11 33 28 30 24 1 34 35 4 7 26 33 1 10 23 8 2 16 3 19 7 30 7 37 17 9 22 1 11 14 35 34 4 39 25 13 11 17 31 23 30 4 35 8 39 23 23 29 24 27 9 28 14 7 29 21 28 13 19 38 22 12 5 38 19 35 9 27 14 30 16 23 36 29 8 18 18 14 13 24 35 29 35 28 12 0 34 28 21 4 13 39 12 30 4 39 12 1 7 10 30 19 38 26 17 23 1 11 19 13 32 34 25 22 14 18 6 20 20 37 31 34
3997 2974 4364 3764 2635 4784 2765 2676 4717 4537 3346 3177 2937 4474 4399 4739 4222 2759 3204 3753 4200 3170 3802 2694 3425 3848 2978 3692 2603 3054 2644 3508 3950 3034 3677 3900 4173 4507 2794 2536 2973 2634 4817 3676 4565 2822 4600 3468 3519 4786 4404 3282 3607 4892 2605 4739 4439 4837 4837 2951 3109 2761 4778 3137 3565 3635 2712 3920 4001 4682 2926 6 4159 3057 3706 3776 3495 4479 4582 3470 3405 2849 4335 4349 3690 3297 4514 3256 2549 4390 3924 3215 3336 4262 4482 4792 2967 3145 4006 3438 3763 3237 3142 2809 2772 3486 2972 3478 2665 3801 3111 3061 4384 4731 3541 4538 4591 4620 2879 3652 3708 3175 4178 4284 4009 4197 2520 4138 2565 4457 3971 2678 4462 4138 2546 3626 3124 3352 3682 3274 4791 3022 3291 4019 4190 2727 4570 3593 2598 3102 4983 4732 3492 4168 3911 4861 3767 3818 3560 2909 3297 4857 4552 3402 4259 4490 4150 4844 4545 2832 3822 3122 2554 2889 3967 3249 3306 3148 3872 4460 3257 3008 2708 4174 3536 3500 2981 3337 3575 3021 4105 3070 4516 4821 3078 3046 3793 2670 2974 4345 4087 4271 3651 2821 2672 4892 4750 3492 3661 3101 4814 3792 2825 2679 4890 2646 3030 2829 4775 3469 4675 2918 4131 2782 3025 29 26 8 26 24 11 15 16 36 14 20 9 39 2 22 3 27 30 3 29 8 4 28 35 8 5 32 27 18 14 38 20 2 35 16 31 17 3 4 21 35 8 16 22 23 1 31 14 29 23 12 26 17 15 32 20 17 19 37 32 39 2 21 10 9 34 20 31 39 22 11 16 35 8 5 29 24 35 18 8 1 27 10 31 25 38 27 33 8 20 6 19 31 27 26 25 13 28 4 15 14 8 4 35 22 18 14 21 25 15 38 36 24 13 18 18 2 7 36 27 9 23 32 18 23 4 32 37 27 11 17 4 4 7 16 22 6 1 2 14 38 16 11 36 8 4 28 13 5 12 1 8 32 5 37 16 24 2 8 7 24 22 33 22 27 25 25 33 5 11 13 11 10 34 24 11 13 22 9 24 1 13 27 22 19 25 2 20 21 0 3 21 28 7 18 20 27 23 28 26 29 20 31 14 18 14 16 4 24 21 16 1 29 7 36 1 5 8 13 2 3 15 22 9 19
3639 4351 3738 4647 3961 4105 4568 4000 4831 3113 3149 4682 3329 2533 3457 2540 4192 4195 3658 3346 4116 2793 4007 3554 4515 3927 2705 2945 2817 3918 4937 3968 4779 3774 3174 4089 3434 2582 4266 4106 3948 3051 4550 2667 4941 2557 3932 2751 3068 3141 3141 2658 4235 3197 3653 3388 3654 3861 4138 2998 3830 3376 2527 3275 3861 3704 2503 4643 3692 4723 4983 4830 3576 4528 3580 2578 4424 4543 3125 4795 3754 3594 2575 4745 3746 3251 4775 3058 2835 4627 3293 4567 3605 3275 4226 3757 2597 3070 2752 3060 3187 2675 3069 4625 2632 15 4604 3180 3516 3151 3414 3207 4190 3118 3325 3345 2779 3451 4710 3403 3494 3482 4639 4634 3950 3330 3299 4755 4610 3810 4247 4863 3095 3779 3080 2506 4708 2575 4754 3824 3390 2658 4538 4210 3886 4759 4096 4969 4522 4637 3260 2558 3196 4025 4734 3314 4450 4193 4212 2881 3926 3374 3542 3618 4639 2591 3791 4734 3548 4448 4380 3986 4361 3690 3992 3486 3442 3296 3554 3505 4110 4193 3448 3040 4128 4181 4463 4762 4242 2904 4612 3259 3127 3105 4480 4337 4810 3625 4486 4875 3850 4690 4231 3864 3512 2786 3062 2893 3119 3984 3693 3384 3699 3736 3039 2760 3817 2678 3189 4579 3240 4371 4745 3738 3026 11 19 15 25 3 14 39 5 20 34 16 39 8 31 2 34 33 8 18 5 30 28 1 18 35 11 12 6 12 29 7 13 37 30 31 27 15 38 15 14 24 20 1 11 11 36 13 23 38 35 2 14 29 22 37 6 3 24 24 20 3 23 28 18 23 1 14 35 29 39 27 39 14 15 8 16 25 27 6 27 8 30 29 7 9 30 36 14 27 26 19 36 29 6 4 3 1 18 15 18 5 31 6 19 38 12 10 38 27 34 7 36 38 14 31 11 21 11 29 3 25 7 23 15 23 35 6 37 39 24 15 13 2 37 19 18 24 22 21 10 18 19 19 9 35 12 7 21 6 13 14 15 10 35 5 34 32 1 16 15 11 13 5 10 7 21 35 7 31 18 36 35 30 13 33 28 14 34 27 29 39 38 31 11 26 7 13 38 32 39 0 17 39 28 3 19 26 26 39 16 28 39 16 3 2 32 23 28 12 33 26 14 6 33 31 37 36 23 8 26 27 4 9 4 30
4184 3586 3560 4244 4875 2860 3927 3676 4342 2618 4921 3311 2506 4573 3070 3828 2765 4475 2747 3496 4483 2622 4571 3993 4374 3910 3387 2566 3896 2686 3312 4568 3039 2830 2706 3543 2588 4090 3416 4140 2932 4915 3576 3045 4370 2630 3974 2506 4514 3746 3659 4692 3065 3465 3112 3933 3033 2674 4613 4920 3603 3641 3217 4671 3618 4430 4575 3451 3693 3553 4231 2934 3851 3305 4788 3244 3117 2662 4525 3800 3002 2744 3939 2589 4417 3391 3504 4960 4600 3237 4537 2592 2501 4566 4263 3459 2858 2813 4889 4418 9 3070 3561 4169 3962 4586 4735 4680 4343 2899 3684 4039 4050 2739 4906 4773 2954 2539 2713 4167 4360 3808 2574 2529 2708 2578 4611 4856 3946 3622 3762 3888 3339 3258 4513 4351 4331 3538 3351 3073 2751 2964 3572 2977 4003 4609 3425 4248 3747 3192 4996 3455 4934 2694 4577 2596 3171 3955 3871 3971 2771 4954 4833 3865 3604 4620 3544 2953 3319 4544 3733 2667 3025 4579 4417 3086 2811 4535 4164 2998 3778 3342 4958 4266 4550 4160 6 3837 3540 4130 3066 4985 3637 4869 2858 2602 3296 2590 4721 4345 4152 3494 4386 3041 4185 4712 3223 3857 2887 3475 3869 4507 4717 3030 2852 3931 3034 4360 2841 2741 3843 2643 3206 2789 3439 27 32 22 8 38 13 33 30 22 12 17 2 27 35 38 4 31 27 23 38 29 18 32 36 13 30 25 37 13 16 4 31 16 34 12 29 3 17 22 13 22 17 4 12 24 17 32 31 7 3 9 37 3 19 22 32 27 21 18 10 35 32 18 25 3 29 15 33 17 14 11 18 30 37 23 32 13 16 36 23 39 16 9 24 32 28 1 9 30 10 17 27 8 9 16 14 31 31 28 11 15 29 36 10 26 37 24 25 29 28 21 36 32 29 1 29 12 23 2 25 19 4 2 15 26 16 39 18 23 35 36 7 30 22 39 4 35 28 35 28 30 27 25 27 11 16 20 17 18 37 29 12 31 22 10 1 6 12 10 13 17 31 38 27 15 4 38 30 14 20 6 31 32 29 17 33 32 5 2 4 2 22 19 35 6 5 3 2 3 3 33 0 35 16 22 10 7 13 29 10 9 14 3 11 6 39 15 32 22 15 18 5 7 17 29 8 38 12 18 18 17 35 30 15 38
4676 2836 4512 2529 3194 2702 4638 4976 4160 2549 2622 3010 2976 2855 4262 2689 4570 3181 3438 4047 4750 2700 4114 3073 2760 3514 4466 2826 4127 4858 4202 2816 3506 4397 3543 4231 2581 3635 2844 4338 4364 4500 3929 3389 3027 4073 4196 4227 2892 4331 4954 2748 2942 4383 3113 4513 4485 4104 3291 3869 4915 2974 4619 3231 4760 3023 3504 3170 2562 3100 4833 2747 4705 3025 2949 4929 2523 4494 3509 3632 3096 3266 3900 4500 4328 3532 3306 4969 3388 3710 3471 4857 4424 3020 3648 4023 2868 3001 4145 4787 2838 3928 4130 4565 3286 4808 3799 3278 2661 2806 2756 3702 3202 3020 2998 3939 3353 3634 4913 2766 3690 3208 4055 2869 3597 3969 3930 3453 3877 3064 3668 3032 3754 3524 3843 2578 4373 3100 2593 3597 2797 4187 4826 4267 4870 4691 3739 2822 3347 15 4958 3689 4055 2615 3622 4391 2653 3754 2545 3253 2931 2937 3648 3672 2552 3875 3428 3485 3576 4576 4758 3023 4407 3823 4980 2893 4464 4163 4528 4669 3163 4749 3938 4057 3941 4728 3567 4104 4475 4132 3615 3951 2860 3627 2975 3083 4351 4695 3589 3649 3240 4155 4046 4789 4380 4653 4865 4353 4669 2556 4649 4333 4665 2509 4618 3348 4652 3382 3321 4263 3244 3740 4014 3037 3436 1 8 39 20 3 37 29 31 31 21 36 7 9 3 17 20 38 32 38 5 33 20 28 36 35 17 4 31 20 15 30 15 31 4 10 38 22 12 27 35 1 22 3 16 31 8 10 26 27 31 33 27 19 24 19 31 27 22 29 29 2 3 5 33 13 18 31 36 6 24 36 15 39 3 3 30 29 10 29 34 18 14 17 26 16 20 17 2 14 27 8 32 3 10 3 33 3 15 5 23 7 15 16 7 33 16 33 15 6 1 30 39 30 22 30 25 34 39 32 1 29 32 20 28 15 15 39 29 37 19 30 31 13 7 10 21 27 18 22 2 7 36 4 16 21 34 24 11 8 24 19 38 4 8 27 28 15 13 37 37 14 15 7 29 30 12 25 23 33 13 14 36 16 25 21 33 19 28 27 36 27 12 39 15 19 35 2 22 30 13 28 26 0 9 8 32 6 30 33 11 27 5 33 9 32 26 4 7 3 34 29 9 32 31 29 26 37 6 24 34 3 23 1 31 24
3798 4662 3267 3351 2595 2603 3216 3012 3946 4572 3065 3642 3401 2757 3627 3354 3511 3575 4932 2751 2758 2621 2938 4442 4852 4711 3966 3816 3720 4639 4747 4171 4065 4485 4546 2733 4946 3775 4966 2892 3020 4206 3038 3943 4745 2534 2965 3087 2764 3594 4900 4571 4757 3942 4260 3313 4455 3924 2803 4274 3037 3871 4258 3454 4337 4431 4414 2872 4226 3784 3534 2761 3408 4117 4943 4596 2723 3089 3688 3609 3034 2595 2884 4555 3736 4873 4711 3842 4296 3041 3524 3397 4706 4606 2569 3018 3648 4459 4761 3565 4906 4682 3219 4717 3409 4613 4930 3234 3606 4700 2581 4164 3601 4557 4163 4188 3281 4875 4592 3442 3593 2664 3582 4890 2624 2819 3444 3011 4882 4030 3125 2925 4001 3264 4438 3441 2524 3787 2874 3540 2771 3915 4956 4720 4235 4297 4359 4509 2787 3687 2926 3222 4813 3175 4530 2658 3143 4912 4058 2972 4762 3297 2719 3234 7 4654 3387 3832 3423 2695 3288 3944 3508 4903 4861 4877 3243 3587 4693 4848 3000 3816 3631 2849 2907 2992 3282 4746 4009 2739 4095 4128 4498 3931 4215 3444 2600 4934 3371 3856 3108 4315 3034 4890 2986 2623 3024 3183 2623 3467 4817 3351 3282 2794 4661 3225 4121 4356 2655 4439 3201 2844 4914 4975 2767 4 10 10 9 32 11 26 10 3 17 18 17 33 25 15 38 28 33 6 14 26 28 34 22 16 38 21 22 28 1 26 17 7 33 15 8 33 17 36 25 29 14 16 4 30 25 31 37 26 11 37 16 35 10 25 1 33 26 5 5 22 20 5 14 18 27 32 24 21 7 18 6 16 13 2 14 26 25 21 28 36 10 34 18 32 33 16 2 6 16 35 6 35 34 1 15 32 22 16 20 36 31 31 30 9 14 33 36 23 26 38 33 27 38 29 5 30 33 6 31 8 31 20 4 8 27 24 15 17 2 1 35 37 11 8 31 27 21 9 11 27 4 5 11 4 11 31 38 37 11 24 19 35 23 31 34 33 3 14 36 27 24 9 4 2 25 20 32 16 37 26 15 15 11 20 22 15 35 1 10 36 26 9 16 4 17 10 14 21 13 17 36 21 0 6 20 17 4 32 32 39 20 35 7 18 15 18 2 7 20 27 14 8 2 25 28 1 12 5 35 8 15 38 17 12
4191 3515 3997 2981 2643 3894 4128 3929 4398 3265 4643 4214 4284 4428 2741 3275 4085 3245 4776 4257 4662 3221 3934 4581 4890 4094 3802 2891 4831 2831 2678 2636 3934 4756 3670 2573 4770 4942 4227 3400 3342 4188 2823 3754 4565 2756 2756 2821 4042 4458 3297 3146 3543 4721 3457 3771 3082 3267 4994 3538 2526 3146 3542 4523 3286 4730 2893 3618 4578 3667 4241 4996 4260 3618 2941 3808 4670 3972 2578 2669 4043 4309 2798 3473 2858 4810 2620 3353 2652 3661 3894 2555 3088 3877 3254 2536 2817 3824 4040 4849 2812 4706 3192 2892 3917 4592 4954 3320 3875 3286 4590 2544 3509 4271 2572 4005 4322 2767 3813 3717 3368 2823 4644 2639 2516 3474 4299 2818 2840 2869 3000 4637 2848 3804 3038 4519 4512 3743 4193 2820 3132 3487 3636 4177 3232 3799 3265 3266 3845 2926 4031 2962 3892 3542 3298 4666 3550 3706 3554 3748 3521 4750 4235 4483 4602 4447 3605 3621 3197 3616 4848 3901 3472 2980 4749 14 4836 4513 3134 4488 4683 3882 3863 3682 3404 3779 3184 4405 3297 3330 4037 4566 2692 4807 2888 2799 3714 3872 3243 4229 2704 3789 4817 3946 2991 3687 4226 4365 3569 2906 3814 3436 4615 2755 3077 3886 3053 3830 3905 2815 4165 4445 4513 4672 4935 13 1 9 31 8 30 30 16 3 3 33 24 13 9 29 38 11 33 8 30 11 35 1 30 26 14 11 33 35 16 5 30 16 22 7 8 25 17 28 13 7 9 35 34 4 12 14 12 31 30 5 19 1 22 15 14 34 15 28 15 18 13 1 38 37 17 36 15 12 34 26 28 39 29 30 22 15 26 4 13 33 20 38 35 38 39 17 13 27 35 38 4 24 19 17 23 15 29 27 24 29 9 27 31 14 14 33 32 8 33 2 15 35 24 29 20 31 4 27 10 37 10 24 10 26 36 38 4 3 20 16 32 4 32 33 6 19 21 8 16 28 16 37 32 13 14 6 18 21 17 29 30 23 28 32 6 19 23 17 29 32 18 12 28 15 12 4 22 28 7 24 11 20 37 12 18 5 2 20 18 36 9 21 29 19 4 27 19 25 29 27 18 36 10 0 37 28 18 16 6 8 34 35 23 31 30 4 21 39 7 22 21 36 10 1 3 3 20 18 10 27 34 24 9 3
4000 4706 3860 3695 2664 3501 4619 2622 3641 3951 3723 3230 4101 3567 3453 2668 3706 3829 3499 3335 3689 3797 2929 2826 3548 3599 4519 3485 4315 3755 3323 4479 3297 3315 3253 3307 4239 3454 2824 3987 2970 3399 3718 3314 4156 3021 2746 3059 4462 3486 4250 3070 3819 3351 4964 4076 3001 3244 4960 3917 3013 3701 4947 4470 4816 3179 2966 4854 4002 4900 3417 4082 4981 3558 3775 3612 3185 4925 4992 3473 3744 3872 4617 4547 2679 4260 2559 4833 3077 4239 4068 3960 4307 2624 3424 3633 3865 4160 4745 4396 4963 4705 4935 3281 3628 4431 4082 3028 3107 3409 4936 2592 3775 4096 4633 4769 3215 3254 4319 3404 4871 2699 2835 4910 2773 3150 3559 2892 4711 4544 4199 3520 2621 4762 3462 2610 3991 3403 4983 3532 2962 2668 3549 3673 3851 3250 3563 3141 4351 3946 2673 2924 4093 3402 4337 3640 2792 3742 4097 3694 3660 4818 4591 2540 2653 4540 2633 2758 3059 3948 4337 4579 4410 3338 3506 2783 2918 4574 2898 3172 2940 4226 4574 4582 3384 2581 2772 3181 3731 3653 4397 3644 3424 4592 4330 2990 2840 3854 4188 3120 2803 4296 3683 2962 4797 4679 3261 3017 4897 3087 3808 4623 3356 2558 4661 4315 2642 2649 4879 2504 4961 3010 4699 4762 4917 6 29 36 20 17 31 34 4 8 39 19 28 30 35 14 38 2 8 22 8 35 18 24 27 33 35 24 1 33 5 33 13 33 38 27 1 17 5 2 32 30 1 5 20 2 2 27 3 28 26 2 31 13 17 28 24 18 3 17 29 6 16 34 29 10 30 20 21 22 29 19 14 13 31 28 2 32 32 21 4 38 21 29 5 17 37 21 33 18 19 5 37 19 33 22 2 23 17 5 7 4 24 27 22 9 37 19 3 34 23 18 25 21 37 16 3 29 6 21 3 22 18 35 13 26 37 26 23 20 7 30 39 25 6 31 15 32 6 20 39 34 27 6 7 14 15 1 7 11 17 35 25 32 28 30 39 30 13 34 5 13 39 29 8 36 12 10 30 20 28 18 18 5 35 19 3 34 27 39 17 1 24 34 17 16 18 35 27 37 5 25 32 13 1 14 0 38 39 22 27 33 30 29 36 12 5 21 15 12 29 37 2 28 7 33 37 23 21 22 28 8 24 20 5 29
4829 3367 2838 4186 4525 3275 2902 2517 2511 4315 2782 3242 4467 4269 3220 3157 3569 4125 3815 3490 3343 2930 4522 2685 3969 3094 2950 3102 4980 3513 4552 4926 3243 3699 4308 2648 3863 2904 4638 2832 4806 3479 3663 4069 4963 3181 4072 3983 3437 4315 3844 2792 3440 4444 4923 4922 3109 3341 4688 2655 3247 4007 3505 3569 4284 2842 2781 2809 2604 4908 2599 3034 4872 3909 3023 2968 4190 3552 4845 4732 3180 4433 3203 3405 2645 2699 4095 2507 3898 4812 4252 2660 4476 4370 4349 3089 4663 3949 3879 3284 2714 2674 4305 3563 4868 2868 3702 3688 4286 3622 4068 4249 3030 4196 4001 3973 3171 3222 3976 3792 4320 2669 2715 4799 3425 3632 3405 3121 3904 4671 3271 2816 3474 3116 4514 3333 4162 4551 3431 4579 3017 3365 3385 3544 2831 2804 4546 4470 3106 4802 3899 3620 3884 2809 4669 3627 4554 3137 3137 3454 4064 4256 2875 2691 2983 4239 3936 3989 3370 3102 3570 2864 3088 2798 3022 3783 3719 3146 4278 4184 4061 4138 2921 3545 4018 4113 2578 3616 4066 3214 4678 4648 4424 4281 3377 3712 3607 3046 3311 4149 4699 2518 3314 3624 4189 4791 2903 4060 4845 3437 3372 3862 3759 3656 3515 4344 3256 4976 4396 4995 4406 4503 4372 3764 4136 27 12 17 29 5 39 36 13 24 5 1 3 33 31 4 22 32 29 36 22 17 29 37 25 7 4 11 8 12 33 18 28 10 38 29 4 23 34 19 12 37 4 23 12 16 26 27 27 4 3 22 1 15 8 24 37 7 30 25 25 15 28 35 32 1 2 22 35 22 25 3 8 17 37 24 5 10 4 17 21 24 11 9 12 11 22 5 23 26 22 8 27 16 14 38 36 26 38 29 1 37 4 36 31 6 16 31 7 29 18 20 9 36 16 23 26 18 21 7 2 18 36 6 37 23 28 18 4 18 21 13 23 13 36 31 24 15 1 18 1 25 11 17 16 35 7 4 27 19 23 21 12 37 31 15 7 17 30 27 5 39 26 30 19 8 4 11 10 9 23 39 38 9 29 39 13 27 13 27 6 2 37 22 22 18 12 25 8 28 17 3 19 37 26 34 21 0 4 15 14 24 31 29 26 39 24 17 16 3 6 27 13 32 4 37 25 6 19 6 14 14 25 28 14 21
3361 2689 3364 4047 3671 2625 2802 4838 4511 4456 4052 4450 3094 4547 3736 2624 4034 2666 3458 4692 3498 3461 4308 4756 4140 4907 3719 3062 4378 2817 4894 4066 4725 3790 4009 4510 3725 3040 2627 19 2780 3133 3222 4879 4805 4997 2681 2940 2897 3473 2642 4993 4914 4604 4666 3422 2708 4030 4386 3789 3496 3726 3014 2792 3089 2739 3391 4353 3848 3530 4324 2852 3572 2823 2556 3053 4147 4975 3617 3093 3486 4842 4063 3142 4695 4695 2716 4709 3212 4463 2801 2810 4128 2763 4554 3643 3743 4736 3535 3174 3024 3538 3021 4465 3712 4826 4286 3021 3109 4178 4482 2921 4606 3545 3914 4935 3859 2891 4237 4092 2823 4142 3525 3657 3255 4465 4348 4790 4974 4058 3329 2829 2966 3485 4844 3624 4535 3410 4835 4749 4880 3813 3896 3189 4527 3934 3822 4395 4082 2555 2516 4019 3464 4393 4799 4071 3080 4362 4604 4496 3305 4468 2864 2919 3374 3398 4120 3913 3084 4366 4785 4478 4821 2803 4533 3485 4735 3240 3901 3716 2828 3045 4905 4230 2595 4017 2700 3526 4832 4985 3481 3065 4051 4949 3964 4261 3112 3602 2884 2680 2763 2850 3464 4546 3578 4506 3864 3836 4126 3771 3951 3941 4413 2705 3649 4050 4488 3798 4133 4315 4665 3724 4279 2878 3916 1 29 3 12 19 9 19 27 28 7 19 27 32 38 12 27 27 22 13 15 15 34 22 39 4 15 1 12 30 8 4 7 2 35 24 22 7 27 8 30 14 27 3 39 1 3 32 12 13 1 14 14 36 39 1 28 37 24 8 8 36 32 34 19 28 38 17 22 12 25 30 15 3 36 6 24 17 20 38 20 14 39 14 19 24 1 25 9 20 4 34 20 11 8 36 35 26 34 15 36 12 36 15 20 29 33 8 5 34 25 3 28 10 20 17 7 13 10 32 10 3 27 38 18 8 29 12 30 22 12 35 26 9 34 1 24 12 13 4 25 26 18 22 21 33 10 5 15 6 6 26 4 14 9 23 34 15 30 30 14 10 13 35 38 5 8 14 15 30 30 7 23 26 19 12 36 19 24 13 24 23 13 31 5 34 26 39 28 30 2 29 20 6 13 24 29 9 0 29 37 27 2 28 19 37 10 6 20 34 27 21 26 17 27 37 16 36 22 29 28 4 30 25 29 26
4023 4628 4911 3544 3582 2515 3264 2924 4986 3207 3168 3989 4534 4421 4211 4397 4694 3791 3495 4311 3188 3353 4584 4160 4343 2976 4111 4146 2852 3902 4988 3663 4403 4996 4534 4279 2588 3272 2504 2984 4411 3297 3400 4562 3477 4442 4139 2962 4659 3585 4606 4133 4814 4715 4994 3112 3872 3112 3864 2754 4890 2773 4907 2865 4928 2816 3491 3330 3958 2974 4902 2557 2748 3425 3233 4405 3941 2678 3714 4186 3423 2651 4233 3999 4926 2501 3644 2648 4638 4594 3494 2987 4535 4373 4795 4118 3352 2859 2907 4659 2666 2842 4808 4626 2985 3803 2588 3557 3997 3480 2706 4979 3907 4993 4100 2985 3991 3142 3312 3179 4981 3941 3398 4224 3722 3828 3880 4786 4764 2791 3884 4117 3374 3393 2940 3627 3057 3987 4980 3718 2784 2590 3029 2556 3821 2524 4010 2756 4750 4754 4470 3763 4818 2623 3394 4584 2766 4288 4495 3394 4370 4568 2860 4176 4731 2588 3571 2677 3141 4867 3568 4000 3625 2894 3591 4359 2802 3478 4195 3052 3883 3330 4230 3358 3565 3589 3235 4272 4637 4872 4516 3577 4879 4524 2662 2858 3114 3450 2542 3207 4103 4737 4092 2800 2706 3716 3735 3857 4748 3496 3780 4134 2671 4386 2945 4989 4529 2725 4523 4404 4845 3720 3579 2992 4236 6 31 24 38 8 21 22 23 34 34 35 39 12 15 17 15 14 21 33 5 37 5 14 23 12 6 6 32 17 30 19 36 22 15 19 7 1 32 12 36 24 22 14 15 15 12 30 1 30 33 7 39 5 33 35 11 26 18 27 11 3 25 39 37 26 13 7 12 25 1 15 33 16 36 35 36 16 5 39 8 14 30 23 12 12 10 33 33 22 21 25 36 38 30 5 36 20 4 16 14 3 31 2 17 13 5 17 11 38 22 2 37 36 37 34 21 2 7 37 9 23 8 1 13 28 2 9 4 6 23 19 21 14 22 36 7 33 26 32 11 32 6 28 35 32 12 25 18 32 23 16 35 8 15 17 12 5 15 30 33 1 10 23 11 13 7 10 31 33 22 25 8 35 23 31 31 27 23 9 36 33 3 35 6 29 13 5 14 33 26 34 15 30 12 15 39 33 15 0 36 17 12 27 12 10 9 11 19 21 9 37 35 6 25 31 8 29 8 4 37 4 35 18 6 25
14 2956 2974 2567 4688 4278 2669 3295 3484 4762 4049 4745 4278 2713 4223 4877 2721 3409 4403 3812 3042 3939 3953 4596 2589 4875 4841 3189 3728 3214 3130 3530 3018 4714 4344 2982 4084 3117 3326 3838 4303 4781 2506 3544 4823 2748 3241 3458 3635 3048 2656 3013 2577 4556 4398 4354 2947 3862 3738 4194 3088 4982 3303 2917 4983 3649 3274 4337 4822 2775 4390 3252 4111 3447 3596 4866 3246 2532 4354 2508 2628 4095 3489 4253 4047 3746 4127 3310 3540 3089 2855 4731 4918 3880 2526 3902 4563 4457 4711 4764 4518 3806 4169 2737 2671 4972 4383 3870 4071 3684 3400 4792 3322 2867 3748 3598 4018 4523 3617 2648 4863 4410 4178 3308 2605 2666 3540 3911 3238 3100 4082 4199 2944 2660 2831 4086 3993 4989 3649 3006 3397 2576 3355 4645 4585 3458 3566 3154 3848 4189 4687 2878 2984 4425 4882 4340 4017 4383 4860 4574 4710 3012 4437 3922 4780 3307 3640 4228 4757 4863 3814 3764 3032 3272 4451 3745 2927 4292 3814 2570 4558 4282 4373 4552 3196 3408 2562 3912 3517 4742 2515 4464 3007 2624 3203 4445 2675 2513 3167 3000 2704 3195 3807 4160 4385 3594 2679 3350 3569 3200 3268 2991 3693 2988 4452 2802 4548 3209 4294 4469 2703 3489 3274 2603 3980 36 28 7 23 1 6 6 10 32 28 38 26 15 26 9 21 33 19 31 10 38 25 22 24 32 5 3 27 33 36 18 13 13 36 28 1 15 5 6 18 38 23 36 36 24 38 26 27 8 18 16 2 36 36 19 37 37 19 36 35 35 23 16 24 29 6 13 22 39 11 3 32 38 23 21 28 31 36 24 33 9 23 16 16 23 25 34 1 35 18 4 32 34 29 11 16 7 36 31 37 39 14 31 21 23 9 16 22 8 4 33 21 11 39 2 8 27 13 36 15 38 19 6 5 37 26 13 3 39 30 28 33 35 30 10 21 12 15 19 5 33 5 13 24 27 1 21 24 7 22 37 20 14 22 6 16 13 16 26 34 8 27 35 37 26 2 11 9 25 3 32 8 30 36 29 15 32 21 26 20 17 2 28 34 11 36 16 1 37 31 33 12 23 24 21 38 31 8 27 0 32 33 18 19 32 39 16 37 26 18 26 16 16 28 30 11 38 10 35 19 13 13 21 27 3
3244 4766 4242 4058 4434 3353 3385 3846 3705 4485 2635 4161 3798 3391 4859 2837 4763 3880 4077 3710 3224 4871 2913 3437 2640 4022 4366 3298 2904 4723 4820 4342 3711 4772 3331 4148 2722 2869 4852 2896 4793 4325 3988 4414 3344 2948 2925 3173 2767 4876 2575 2697 4207 3327 3988 4493 2854 4675 4663 4265 3935 3868 2977 3511 3174 4399 3441 3242 3737 2560 3860 3945 4683 2877 3244 4320 4195 2553 2645 3415 2501 4482 3329 2893 3737 4361 3109 2826 4856 4287 4704 3740 2998 2877 4913 2645 4830 4637 4247 4735 4154 3439 3874 4113 4090 4349 3011 4819 3232 4736 2768 4926 2903 2506 3665 4669 4425 2985 3814 3279 3995 4996 3606 3239 3117 3973 4465 4172 3254 2633 2642 2584 4636 4033 4929 2614 4060 2741 2974 4534 2634 4980 4750 3137 4290 3015 2829 4785 4253 4303 3245 4114 3100 3800 4568 4634 3351 4362 4357 4494 4829 4902 3311 3868 4758 3653 3999 3721 4776 3191 2856 4015 2510 3370 4640 4373 4531 3453 4407 2747 4714 3698 3373 3723 3139 4362 4603 4979 3168 3887 4301 3631 4367 2807 4400 2569 4169 4997 2848 3143 4742 4304 4855 3861 4091 2995 2941 3100 4977 4135 3309 2747 3912 3277 3897 2896 2692 3424 3345 3048 2867 4001 2681 4319 4945 31 15 26 33 19 10 39 29 7 3 22 21 22 31 9 23 9 33 7 13 29 6 7 21 33 39 24 36 14 31 26 28 4 16 23 10 33 38 7 1 19 36 34 28 25 27 31 34 15 1 10 22 12 1 11 17 19 37 9 10 12 12 35 28 20 37 32 13 7 5 32 23 18 37 28 27 38 28 26 3 12 15 7 14 19 8 12 6 11 34 16 34 20 19 12 8 17 22 21 39 12 36 15 5 6 14 37 38 13 6 19 16 18 25 1 22 20 39 8 9 27 30 23 23 39 8 21 34 37 2 5 37 14 2 25 26 22 20 19 36 1 19 38 22 10 23 9 39 12 8 5 36 26 16 24 4 9 20 28 26 34 16 21 32 15 19 8 8 24 37 15 26 38 24 23 30 14 13 5 25 39 27 33 15 12 37 33 35 11 13 39 8 34 13 3 6 33 13 39 19 0 21 7 38 5 38 1 3 23 6 18 23 15 13 11 28 20 14 17 1 19 31 33 34 11
2518 2809 2554 4970 3944 3473 3480 3038 2733 3392 2718 3706 3194 2719 3914 2532 2876 4374 4674 2690 3774 4940 2793 4561 3984 3451 3511 2814 4708 3487 4265 3261 4314 2719 3534 4620 4486 4519 4159 4473 4294 4442 4333 3856 4729 3196 4849 4778 4638 3887 3721 2536 2868 3778 4372 4932 4227 4166 2740 3771 3548 4679 2625 3974 10 4779 4074 2565 3635 3928 4077 4593 2502 4108 4354 4132 3788 2680 4210 2512 4557 4519 3588 2750 4484 4901 3999 4210 3874 3422 3977 3702 3648 4584 2832 3586 2563 2636 4230 3665 4115 4368 4073 3876 3253 4472 2954 4062 4636 3475 3740 2901 3888 4868 3036 4266 3288 3172 4233 2780 3532 4262 3718 3312 4176 3329 2599 3833 4690 3381 3306 2899 4273 4011 2986 2508 4220 4734 4258 3012 4927 4122 3293 3802 4478 4320 4618 3987 3046 3781 2857 4582 4714 4287 3381 4534 3584 4240 3821 4331 4611 2502 2693 4235 2748 4168 3301 2942 4895 4869 4015 2855 3605 2528 3301 4720 4981 4627 3275 3403 4015 3054 2994 2863 3007 3434 4654 3271 4665 3198 4979 3515 4240 4134 4707 4657 4656 4974 3396 18 2988 4912 2703 3017 4345 4250 2816 4975 4541 3931 3040 3998 4099 3091 2908 5 3223 3397 4200 2674 2792 2830 3854 4815 3881 22 21 18 9 19 20 37 36 25 33 16 1 22 25 6 38 26 18 17 19 34 38 26 22 37 5 17 16 21 21 30 34 23 20 27 10 14 32 37 38 32 30 20 17 5 20 39 8 24 23 25 19 16 5 14 24 15 16 6 16 7 26 30 21 31 31 33 19 15 12 3 15 27 3 18 9 17 34 4 13 13 12 4 25 18 6 14 4 17 10 31 27 32 21 16 36 31 32 19 31 3 25 13 37 21 29 38 15 18 4 1 23 23 22 22 12 31 27 10 3 10 13 30 12 30 31 7 39 26 10 14 5 22 22 15 18 7 28 1 17 36 27 24 24 18 26 7 1 35 2 36 13 17 1 9 37 17 29 21 23 38 35 27 13 16 26 37 8 4 37 13 16 9 21 27 30 13 12 34 14 13 37 36 37 9 29 37 10 19 33 6 24 24 38 33 35 11 26 1 34 15 0 39 18 38 38 37 31 15 18 38 6 7 19 33 28 17 26 31 11 5 21 19 13 22
3898 3953 4386 2838 3700 2590 3969 4466 4328 4137 4614 3210 3936 3479 4110 3762 3323 4587 3494 4078 2971 3686 4719 3318 3765 2505 2979 2912 3666 4355 2918 2864 3260 4599 2908 3017 2501 3202 3809 4621 4827 4817 4458 4337 2967 4352 3824 4321 2504 3551 4395 2690 3184 3363 3502 2907 4839 4830 3984 2545 2882 3827 2609 4987 3015 3328 4946 4109 2573 3829 4295 3576 3343 3977 4251 4787 2696 3084 4438 2668 3934 2717 3004 3813 4460 2802 3435 3018 3431 3136 3645 3890 4528 3926 4087 3084 4391 4837 4962 4561 2760 3894 3540 4259 3642 3174 4233 3179 2692 3164 3878 4630 2970 4794 3952 3379 4909 3723 4838 4969 3196 3619 4804 4294 4444 13 2786 3717 4971 3317 4724 2741 2523 4617 3327 4069 4916 3248 3283 4853 3291 4266 4274 3074 3513 2768 4264 3901 2579 4760 4455 4946 3409 4109 3398 4270 2622 4156 3802 2947 3825 4759 3118 2889 4236 4541 2729 2533 3746 4683 2914 3550 3529 9 4969 4918 4650 4609 4410 4692 3948 2827 2756 2751 4136 3076 4475 3507 3568 3037 3448 3828 2754 3429 4244 3846 2758 3656 3420 2655 3869 4333 4230 2903 3744 3672 4830 3724 2719 3403 3337 4281 2790 3963 4872 3166 2749 3862 4293 4334 2854 3769 3293 4944 2720 5 14 35 38 25 3 12 36 26 38 28 29 4 36 8 1 10 32 24 19 16 35 38 13 19 1 37 32 3 16 17 35 25 9 33 7 26 21 18 16 34 18 24 35 29 4 32 22 37 29 12 29 13 33 28 22 5 10 27 24 23 37 14 14 38 34 30 16 7 38 20 21 1 25 15 2 10 38 8 39 32 11 18 11 38 22 34 20 8 36 15 6 30 37 36 28 29 10 25 15 32 21 39 1 35 18 15 6 25 32 1 5 7 25 22 34 36 38 18 12 14 31 28 2 36 9 37 8 31 11 38 39 23 26 10 34 33 21 32 35 6 24 38 32 28 11 34 37 35 23 11 24 10 3 32 7 26 23 35 11 28 5 6 13 14 18 6 3 19 16 16 23 31 28 16 5 4 30 19 5 30 28 9 36 3 28 33 14 20 16 27 34 24 35 26 38 29 21 12 1 18 9 0 19 19 4 16 33 39 14 25 38 10 23 9 31 31 25 4 4 12 23 11 23 23
4608 2834 3038 3529 4040 3740 4016 2912 2821 4621 4420 3384 3492 2553 3175 3483 3884 3679 4113 3860 3456 4086 3321 4050 3976 4053 3435 3830 4670 14 3405 3681 4137 4191 4286 4595 4605 2560 3670 3922 3169 2553 4893 3940 3064 3566 4694 4229 2865 2713 4816 4334 4279 4607 4108 4224 3866 4859 3572 4556 4584 4422 4860 3977 4464 2724 4643 4631 3926 4143 2613 2699 4540 4937 4724 4276 4693 2975 2773 2685 3407 4811 4649 3143 4839 4518 3728 2846 3125 4527 4127 4373 4757 3827 4667 4088 3499 3245 4952 4243 4567 2964 3927 2527 2830 3018 3548 3212 4160 3461 2565 3597 4195 3860 4881 3088 3183 3157 3549 2922 3825 3109 3456 4649 3456 4253 4222 4810 3871 4008 3793 3116 2535 3175 4343 4610 4278 2574 4248 3539 3396 4894 4471 3372 2654 2915 3407 2837 4932 4272 2968 3463 4412 3411 2760 3322 4055 3345 4485 2838 3601 11 2939 4936 4835 2885 4883 4953 4911 4602 3919 4138 3817 2965 3727 4813 2983 2943 3633 3437 3760 3976 3633 4357 2801 4359 2587 4685 4284 3608 3069 4802 4152 4640 3070 4007 2531 2593 4051 4706 2822 3056 3744 3503 2979 2657 3627 3276 3664 3320 3327 3552 2751 4924 4790 3837 3651 3355 4645 2990 4987 3529 2771 3465 2776 3 15 6 33 32 19 19 33 2 6 29 10 9 1 36 16 37 23 5 28 35 6 21 27 3 22 33 9 10 30 26 13 29 1 15 28 3 24 15 27 20 21 5 31 39 36 30 18 27 31 16 18 19 34 21 11 22 11 2 24 21 25 27 15 26 4 25 20 10 19 17 29 35 3 4 26 3 5 1 17 38 8 13 23 3 20 20 27 3 9 16 31 9 16 34 18 24 28 17 12 14 1 25 19 11 10 38 20 14 5 10 19 24 4 2 1 24 25 29 32 22 28 21 38 7 6 5 20 4 16 5 11 12 15 14 28 14 1 9 4 36 35 33 38 11 35 15 9 20 22 16 6 19 21 10 9 28 6 4 27 15 24 13 6 1 21 34 28 36 30 16 25 27 5 11 17 28 5 15 11 22 10 13 30 20 20 18 39 9 12 36 25 13 22 16 13 11 26 24 11 6 29 23 0 14 34 28 38 9 19 25 4 9 36 27 23 39 22 10 28 26 9 32 29 12
4902 4283 4470 2632 4197 4379 3972 4430 2811 2983 4563 4954 3450 4313 4040 3248 3941 3015 4492 4317 2597 2551 3710 2581 4743 2778 3454 3353 3654 4299 3516 3899 4654 3783 2961 2961 4351 4258 2629 2810 3781 4985 3683 3776 2718 4746 4923 3600 3922 3954 3149 2943 4526 4718 3624 3769 4586 3158 4804 4744 2923 4562 4928 3890 3045 4265 2702 4892 4140 2986 3421 3042 4230 3812 4009 3442 3185 3663 3005 3568 3353 4116 3000 4009 2690 2759 4752 3720 4915 4359 4332 3038 3031 2737 2740 3072 4028 3145 3606 3985 2574 2875 3733 2529 3603 2544 4328 3340 2653 4052 2927 4281 4075 3326 2842 3778 3246 4908 4465 3969 2767 3810 3771 4696 3312 4519 2538 3882 3989 4410 2759 3976 2608 3166 2709 4825 2545 2798 2569 4438 3311 4374 2632 4834 4588 3008 3578 4904 4772 3097 2534 4893 4086 4141 4290 4572 4497 3918 4716 4330 4369 4913 4914 4103 3656 4966 4404 3395 2742 4888 3849 2941 4906 4268 3689 4480 2983 4460 3880 3596 4416 3154 3434 4467 2517 2793 4886 3162 4698 4631 4050 3522 3615 3470 4218 3666 4987 2672 2803 2837 2903 2537 4936 3177 3752 4282 2573 3199 3843 2567 2838 4196 3549 3574 3381 2529 3205 3114 2522 2526 3446 3372 2872 2874 4106 26 31 3 15 26 10 16 33 39 7 13 16 17 34 32 15 35 18 18 6 27 34 26 5 39 8 16 26 30 19 5 34 2 20 23 2 39 20 38 24 3 18 8 2 27 17 14 33 21 29 17 17 26 26 18 6 11 4 12 37 4 21 4 35 1 31 5 15 10 31 12 5 27 24 10 13 29 1 22 28 37 8 1 24 16 20 25 38 12 23 7 2 25 2 25 35 23 26 26 28 22 30 19 14 34 19 29 26 30 29 3 34 35 28 28 36 10 21 22 12 1 39 23 31 8 2 26 18 14 22 5 39 36 27 34 23 9 29 30 8 6 2 17 23 2 15 28 14 12 14 15 12 25 30 4 27 26 3 21 38 25 25 27 9 2 31 12 22 35 28 18 10 27 10 18 19 12 28 15 19 26 16 12 36 30 11 20 7 36 12 11 38 38 33 39 15 36 21 39 10 12 4 14 8 0 24 23 23 16 10 22 37 36 38 31 34 6 32 23 19 2 33 32 20 13
4984 4943 3517 3965 4882 3856 3330 4662 3649 4097 4690 4827 4076 4200 3804 4496 2598 2948 3710 4229 2931 4067 2724 3582 2862 2801 3561 3546 3107 4097 4765 4607 3388 4086 4821 2987 3303 2589 2686 2853 4490 4547 4947 3564 4857 4087 4847 3749 4053 2610 4590 4229 3104 4787 3345 4917 3512 3470 2556 4879 4355 3185 4427 2996 4294 4345 4645 4185 4635 4572 3243 3566 2668 4998 3144 2677 2665 3815 4579 2949 4137 2560 3235 2622 4313 2930 3788 4957 3844 4003 4923 3808 3662 3571 3126 3816 3143 2890 4253 3949 2810 3644 2522 3615 4921 3097 3381 3946 2910 2648 3183 3576 4241 2873 2632 3153 4826 4083 3860 3259 4515 4528 3778 2540 4746 3386 4250 4086 3656 3213 4090 3804 4031 4749 2789 4623 4606 3784 3787 3299 4743 4194 4700 3397 4894 2773 4614 3515 4197 4772 3060 3143 4251 3792 4710 3643 3534 3357 4841 3021 3244 2793 4932 2702 4339 2972 3057 3249 3442 4355 4474 3442 4328 2953 3307 4184 4384 2697 3383 4076 4413 3391 4078 4618 2903 4350 4352 3693 4138 4089 3334 3977 3645 4883 4693 4546 2728 3572 3056 2674 4879 4960 4776 3833 3891 4278 4450 3559 2978 4670 2915 4515 3918 4670 2656 4643 3576 3415 4278 4631 3429 4433 3107 4857 4890 21 3 35 22 12 14 27 6 24 36 16 34 26 29 8 24 26 23 39 27 4 22 30 18 2 9 9 24 19 15 21 7 36 34 17 23 26 27 10 34 7 22 33 39 15 27 33 38 8 16 18 39 9 17 22 13 7 39 3 26 14 15 6 15 37 21 34 6 20 23 20 14 34 4 33 16 16 37 10 11 14 34 11 17 2 30 17 32 18 32 5 24 29 18 5 34 11 33 34 14 7 19 4 12 12 35 30 4 37 17 36 16 34 14 25 12 36 20 10 14 6 3 16 11 1 8 11 27 10 21 39 29 11 4 26 9 18 4 16 7 36 17 15 36 2 20 39 7 34 15 33 27 5 18 35 20 26 5 5 24 21 4 28 21 2 37 29 19 38 27 27 34 36 31 15 20 33 12 34 34 14 28 33 6 26 7 10 34 28 28 6 24 18 6 36 18 12 5 20 3 34 3 17 15 24 0 24 6 11 10 33 32 14 23 32 12 11 20 13 18 6 22 12 36 29
2900 4699 2642 3763 2713 3211 4770 2653 3371 4354 3063 3086 3667 3550 3395 4788 3726 3145 3768 3250 2567 4419 4552 3987 3671 4795 3353 3768 3576 2661 2682 14 2817 3323 2730 3462 4169 3057 2709 3385 4238 4789 4212 4321 2928 2692 3325 2517 3040 3123 2737 4706 4355 4084 2510 3162 4155 3281 4175 4825 4475 3971 3560 2745 4260 3544 3795 4051 3730 3140 4930 4584 4454 3086 4512 4782 3790 4984 4318 3270 3647 3218 3846 4065 4915 4565 3563 3085 4186 4955 3900 4296 3080 4171 3928 3933 3165 3970 2524 3800 2707 4029 4052 4492 4597 2751 3057 2774 4686 2802 3789 2608 7 3514 3004 3710 4530 3696 3177 3716 2571 4977 4315 4581 3976 3176 4634 2567 2821 2518 2655 3132 4872 3916 3121 4269 4702 2541 4126 3461 3786 3653 3956 4004 4683 4522 3310 4387 3305 3285 3999 3802 4961 3444 3871 3226 4021 3787 3472 4315 3017 3945 4544 3811 4861 2809 3646 3371 4494 4120 4937 3801 3977 3770 3940 3358 2951 3725 4374 3832 4710 3186 2942 4908 4057 4685 4353 4037 4191 3076 2534 4091 3903 4559 3813 4894 4848 3066 3876 4823 4306 3357 3096 2568 3573 4316 4508 4449 3506 3420 2897 3695 3100 4798 2784 2741 4915 4232 4556 3071 3427 2506 2964 2587 4531 34 9 31 26 19 38 26 35 22 37 14 25 8 22 22 24 29 18 23 18 26 17 8 9 9 20 25 8 4 23 28 36 17 36 36 9 31 10 28 39 24 8 2 24 3 9 18 27 5 23 21 10 6 32 38 18 9 5 21 25 6 23 1 13 11 27 29 34 4 3 1 10 7 39 3 38 26 26 34 4 38 32 24 26 16 12 20 33 4 12 19 4 29 2 21 35 20 21 3 29 21 2 23 5 25 28 15 35 18 30 9 12 19 15 5 39 38 3 22 11 35 18 17 34 32 28 13 10 35 22 8 14 23 1 16 12 10 17 16 26 14 9 4 31 6 28 2 23 36 31 5 16 29 30 1 32 24 7 16 3 34 37 8 16 11 13 8 6 25 7 14 20 10 9 21 4 19 38 9 6 15 24 7 5 19 29 3 4 9 24 7 8 21 19 25 27 10 3 5 21 22 7 24 23 26 23 0 6 10 23 5 7 12 5 32 30 23 24 39 14 4 5 15 26 35
4263 3833 3663 3120 2566 3017 4131 4786 4610 3541 2901 2845 4889 3659 2621 4325 2797 4212 4904 3110 4625 3525 2959 4726 2552 4968 3126 2574 4874 4591 4873 4165 4933 4404 4030 2904 3482 2753 2565 4914 3379 3796 3210 3983 4707 2717 2920 4834 2617 3896 4367 3536 2858 4294 2786 2586 3372 2551 4627 3411 3491 3967 3419 2689 3367 3906 3386 3997 4100 3157 3634 3092 4147 4407 4466 3911 4106 2795 3930 4923 3339 3635 3799 3482 3937 2642 2839 3908 3991 3702 4203 3599 4277 2937 3245 3136 4353 3188 3806 2762 3739 4853 4144 3600 3630 3706 2565 4171 4437 4739 3368 3891 4470 2815 3329 4348 2636 3999 2871 4942 4055 4488 4562 3857 4715 3636 4504 2837 3685 3337 3987 4355 4624 2957 2942 3063 3201 3461 3525 3822 4049 2513 4028 2535 2991 4272 2724 3359 2894 3803 4982 2914 3149 4161 3021 4896 2531 3260 4268 4456 3477 2594 2631 3518 4742 3672 4619 3570 2958 4920 4098 3360 4104 3404 3196 3906 2668 3299 3548 4473 2716 4140 4880 4030 3176 4119 3197 2620 3964 4951 2945 3560 4291 3807 3249 4307 4613 3404 3784 4541 3336 3114 4697 4102 3300 3971 3004 4473 3188 4691 4345 3104 4338 4491 3889 2824 3232 4338 3621 3101 4381 2727 3658 3396 3176 22 35 10 35 30 23 1 29 29 1 2 17 8 21 33 36 10 28 25 16 13 19 9 12 32 38 29 16 37 13 21 26 21 32 3 21 12 15 27 5 37 39 3 24 3 31 30 20 31 7 8 27 35 6 15 28 12 19 34 6 30 8 30 8 20 32 16 10 27 33 31 22 14 39 32 3 19 1 8 8 6 19 4 12 37 5 34 5 5 16 12 26 16 12 6 36 39 19 34 17 7 13 36 5 35 25 26 1 10 37 11 13 3 30 29 38 30 1 10 11 12 21 30 16 11 15 27 10 17 13 9 36 8 34 16 19 33 10 28 36 33 3 39 3 8 39 17 27 22 12 1 23 4 17 21 20 22 37 9 20 2 15 14 14 39 37 17 36 14 5 32 11 22 32 12 8 20 12 31 27 22 33 12 18 8 8 20 19 28 38 38 28 25 26 16 32 34 6 15 6 22 16 1 20 31 25 9 0 1 25 19 22 33 14 12 5 30 34 24 10 33 2 36 33 14
4118 3483 6 3016 4381 2685 3141 2672 2636 3492 3198 3904 4468 3357 4676 3911 3405 4519 2651 2997 3754 4985 4716 4691 4114 4359 4963 2999 4318 4359 2872 4366 4207 3785 2512 3796 3300 3109 4166 2863 2531 3947 2801 3080 3981 2771 3263 4674 4960 2970 3155 2527 3673 4861 3184 3067 4096 3710 4387 4312 3831 4089 4471 3752 4417 2610 4101 2565 4669 4197 4817 2871 4559 4380 4164 3701 3608 3376 4527 3666 2507 3096 4294 4057 2736 3127 4321 2778 3232 4702 3126 3159 3779 4386 4168 3242 4564 4428 3758 3122 2972 2993 4696 3905 3423 4004 2505 4834 3603 3779 2861 3109 3769 3823 3088 4821 3042 3225 3554 3606 4013 3216 4079 3016 3334 4705 4236 4980 4587 2969 2822 4484 3007 4976 3516 4986 3565 3488 3048 3886 4093 3307 3687 4066 3878 2701 4506 2632 4431 3908 4259 4734 4997 3331 2784 4210 4068 3210 3958 4529 2900 3435 2986 3435 2994 2565 3519 3918 3638 4687 4448 4233 4848 3530 2910 3624 2754 3860 4797 3036 3642 4325 4386 3573 4593 4833 3626 2973 3037 3476 4928 4792 4493 4725 2956 4904 4685 2903 3641 4961 3495 4152 3434 2948 3069 3499 4232 3523 2751 2556 4971 4802 4845 2528 3511 4872 4655 3958 3915 4745 4525 3492 2981 4146 2566 14 30 19 30 38 2 15 38 20 13 19 27 22 27 27 32 32 29 27 27 22 24 30 6 28 11 5 19 21 11 7 15 34 37 20 23 18 21 9 11 29 4 21 3 10 19 1 37 15 39 1 17 16 17 6 33 29 10 21 34 14 35 21 25 34 16 10 3 5 20 17 29 9 15 25 34 34 8 12 13 34 22 11 22 38 29 20 26 14 7 4 25 29 4 1 28 15 2 6 21 19 11 15 29 11 37 30 28 11 15 19 35 10 11 13 31 24 21 32 24 25 15 6 35 32 14 12 4 35 24 35 21 36 6 24 39 4 36 7 4 3 33 17 21 1 24 17 4 14 14 23 7 33 28 37 30 13 39 32 26 12 6 20 37 14 15 28 19 30 14 34 36 16 21 8 20 6 13 11 15 22 35 30 1 7 28 10 3 17 14 12 34 33 9 35 3 29 15 11 12 1 23 20 31 30 18 6 6 0 36 38 6 26 9 13 8 26 20 1 11 18 18 36 17 13
3385 2945 3945 3828 3924 2960 4436 4203 4444 2620 4110 4688 4102 4577 4781 3885 3679 2700 3719 4157 3277 4185 3701 3517 3732 2862 2900 3457 4495 3096 3268 2793 2715 4596 3921 3147 4210 3683 3848 4794 4212 4650 3204 2818 3386 3891 3034 2794 3966 2619 3516 3371 3513 4879 4768 2592 4555 2697 4794 4078 2674 3221 3062 2736 4828 4860 3041 4805 3236 2538 2783 2690 2770 3197 4994 2922 4772 4504 3528 3081 4064 3614 4912 4231 4780 3252 2777 2592 2616 3992 3053 4819 2611 3475 2780 4410 4349 3276 3855 3471 3105 3540 2794 4049 2879 4735 2992 4854 3248 4332 3697 4877 3698 3012 3683 4339 4454 3786 4148 3948 2671 3992 4673 4511 4603 2695 4881 3186 3193 2749 2513 4312 2550 3249 3142 4957 4220 3168 3498 4440 2968 3111 4525 3122 3641 3813 3387 3834 4841 4179 2731 3504 3266 3031 2724 3487 3440 4444 3892 4155 4839 4425 2790 3902 2580 3709 4783 4262 4842 3522 2762 4549 3602 4852 4400 3143 3683 4581 3350 3559 2632 4435 3172 3501 4945 3902 3710 3802 2707 3175 3585 3219 3469 2997 3929 4119 2595 4416 3065 4770 4857 2629 3440 3067 3916 4588 4214 4457 4545 3920 3342 3931 3867 3733 3724 3746 4258 4906 3738 4590 2540 4242 3022 3090 2627 28 10 28 7 21 35 3 5 30 12 31 24 36 22 11 31 18 19 1 15 18 14 32 11 38 9 10 2 21 13 21 19 10 24 18 12 24 21 1 26 31 16 4 29 15 16 5 18 35 16 21 13 1 9 30 8 3 10 19 25 39 3 29 25 34 2 19 19 1 24 4 13 35 15 3 19 22 18 38 18 11 5 30 13 6 12 35 35 20 36 29 13 24 6 22 14 36 37 24 9 11 18 26 8 26 20 1 17 1 35 10 33 7 13 25 15 39 38 34 26 26 19 11 16 22 18 2 34 6 23 12 2 34 9 20 3 17 15 30 37 35 23 9 32 36 35 36 19 33 3 30 31 10 24 7 38 38 37 18 28 11 6 31 33 14 12 22 36 26 7 22 19 38 21 23 9 13 14 28 13 11 7 15 3 2 31 24 20 29 20 13 2 9 17 28 14 9 6 38 3 31 27 6 30 25 5 13 35 17 0 10 18 22 12 3 21 11 28 31 18 25 36 7 20 9
4628 2862 4059 4500 3521 3768 2844 3859 2973 2778 4773 4963 4365 2870 2893 4270 3216 3864 4669 2733 4590 4050 4093 2858 4352 2627 3194 3693 3103 4280 2979 3560 3906 4449 3410 3469 3445 2959 3611 4349 3759 2873 2954 3248 4935 3512 4138 3900 2887 3325 3339 3415 3443 4747 2696 3833 3650 4265 4998 4578 3996 2825 3541 3946 3493 4900 3007 3442 3579 3623 3619 4524 2736 4243 3886 4123 3481 3695 4104 2792 3511 4169 4824 4982 3386 4244 4156 4774 4252 3441 4107 4132 4020 2560 3689 2962 3954 3867 3451 4667 3484 3918 4713 3722 3971 4676 2931 2739 4263 3112 3811 3586 2711 4134 4796 3262 4255 3918 3445 4580 3766 3822 3259 3251 3402 4917 3270 4071 4227 4013 3221 3676 4244 4884 4556 4210 4632 3459 4903 2858 4884 3649 4948 3057 3259 4922 2915 4175 4297 2512 2711 3275 3570 4534 3804 4925 2766 4169 3365 4421 2900 4912 4856 3387 3738 4818 4035 3876 4696 4784 3018 4327 3298 2576 3507 3421 4766 3058 3491 4759 2647 4252 2829 3602 2825 4276 4018 3180 3871 3059 2802 4140 4750 3985 3016 4215 3639 4849 4643 4995 4950 3464 4561 2809 3256 3081 4281 4584 3286 3347 4816 4800 2795 2909 2790 3748 2766 4032 2616 3740 3073 2844 2685 2746 4843 30 13 39 20 21 20 17 38 6 24 35 14 19 13 22 30 37 22 28 30 24 36 15 2 38 18 36 11 13 23 9 3 14 16 13 16 12 6 7 36 28 35 7 13 12 5 17 4 13 23 28 38 34 7 5 19 17 22 23 23 18 8 13 2 23 28 34 13 12 5 36 28 33 14 9 18 28 31 22 19 37 12 17 17 2 18 11 30 12 30 18 8 36 37 7 35 14 6 31 20 34 17 13 10 17 24 14 30 6 8 4 7 12 9 16 18 24 6 4 31 13 18 5 23 11 15 26 16 21 36 10 3 2 9 29 27 24 7 5 12 2 13 3 18 32 7 24 30 32 18 4 30 32 13 31 30 15 4 26 30 25 1 3 38 20 25 32 7 17 29 3 8 19 36 22 38 29 12 22 25 1 25 28 11 24 21 11 8 33 11 9 15 19 21 14 31 16 8 20 23 24 19 7 18 18 28 39 32 38 31 0 24 20 11 22 4 8 11 27 5 19 5 25 12 16
3760 4665 4719 4559 3727 2554 3718 3508 2581 4566 3465 2534 2571 4065 2537 4206 2797 4490 3035 4474 3334 4981 4653 4826 4432 4435 3661 4525 3364 2593 4155 4867 4335 4642 3254 3348 3853 3921 4331 4217 2535 4791 4092 2883 4374 2903 3998 2667 4102 3253 3754 3480 3074 4186 2777 3582 2975 4163 4679 4765 3135 3295 3854 4524 4405 3363 2556 2760 3965 4938 3187 2578 3286 4159 4762 3754 2752 4293 4043 4464 3147 3230 2524 3459 4972 3925 3800 3870 4236 3059 4295 2978 3362 4998 4535 2619 4492 2708 2726 3185 2747 4186 2840 2679 4765 3610 3288 4761 4935 2646 3508 3801 3614 4943 3683 3674 2618 3428 3210 4038 3649 3278 3277 4264 4085 4605 2553 4430 4902 3107 4554 3135 4823 4311 2969 4489 3472 3670 3478 4240 2542 3622 2998 4023 3806 3483 2716 3027 3899 2714 4233 4745 4138 18 4973 2801 4220 4329 4448 3743 2988 4669 4042 2584 4787 3756 4697 4484 3340 4229 4159 4857 4502 2587 4885 3800 4193 4057 4247 4994 4271 4470 4158 3667 4379 3424 4680 2623 4687 3085 4003 3378 3851 4282 3647 2709 4957 3403 4567 4463 3269 4489 2738 3488 3841 2680 4924 4150 3128 3009 4661 4008 3242 3420 3319 2758 4112 4687 3845 3038 2918 3649 3579 3471 4269 4 30 13 2 39 8 14 10 6 24 5 3 19 31 12 17 17 36 2 33 31 33 20 13 30 37 9 21 30 13 14 5 23 33 4 21 6 16 29 37 7 7 27 10 28 20 21 1 9 32 17 12 32 1 17 24 25 15 21 19 18 21 21 33 13 28 11 5 20 37 21 30 5 14 7 1 24 27 7 15 8 32 7 12 38 35 10 2 30 17 32 25 33 20 32 17 7 35 36 34 27 30 24 17 17 19 11 39 26 29 9 15 21 6 4 27 29 11 14 3 18 3 22 18 33 1 21 29 7 29 1 33 33 26 17 39 31 34 21 13 2 31 16 39 12 2 20 21 29 5 39 24 28 5 24 23 24 20 12 36 9 31 9 4 9 5 28 28 10 3 12 20 22 27 1 22 37 25 16 1 38 33 30 31 39 29 38 27 23 31 29 23 28 39 27 4 36 4 36 15 35 32 2 7 36 17 19 28 30 33 33 0 31 21 31 32 15 39 11 32 29 16 30 39 16
3262 4221 4194 3582 3402 4681 4213 4655 4319 4793 3592 4538 4067 3319 3171 3830 4193 4103 3261 4610 3248 3167 3999 3350 4919 3137 3426 3628 4576 4680 3871 4225 3033 4287 3316 3745 4774 4582 4471 4006 3602 2703 3913 4967 3146 4109 3237 3309 4485 4129 4017 2867 2891 3904 4690 4619 4745 2573 3714 2662 2545 4918 4574 4661 4014 4754 4194 2666 4009 2974 2955 3381 4976 2913 4162 4786 4208 4771 3165 2878 3152 4106 3968 3695 3237 3592 2514 2501 2577 3456 2963 2601 4010 3414 4809 3063 4393 4244 3796 3458 4830 3268 3155 4192 3737 4669 4555 2919 3287 3676 3974 4868 4692 4823 4549 4574 4716 4031 3825 4081 4982 4059 4895 4867 3100 3272 3683 4415 3860 4806 3726 4036 3695 4158 4768 3186 4068 4995 2968 4070 3083 3313 3347 3388 2879 4793 2784 2779 4362 4767 2549 3571 3524 3307 3546 4581 3513 4564 3136 2774 3199 3267 3062 4697 3719 3284 3693 4056 3489 3401 3272 4655 2940 3480 3264 2649 3549 4018 3101 3887 3005 3045 4172 3993 2776 4716 3524 4425 2700 3681 3097 3603 3435 3387 4357 3982 3201 4704 4922 3603 3939 4244 2863 2964 4551 2699 4819 2760 3002 2589 2540 4493 4517 2877 3763 2836 4933 3288 3624 3361 3447 3272 3917 3637 4769 19 33 24 2 3 38 32 11 19 28 35 36 2 39 8 13 8 9 2 25 11 11 24 7 27 30 31 12 39 35 18 5 14 31 5 21 36 26 25 7 23 15 26 15 1 13 21 22 38 6 17 32 6 9 39 19 38 26 19 33 16 1 5 30 4 29 5 24 3 7 17 9 7 10 3 32 24 2 14 8 11 15 34 38 18 17 38 32 25 14 26 22 8 34 23 5 22 19 14 14 4 30 26 34 25 26 16 4 16 17 17 22 13 10 39 16 31 1 13 18 7 39 21 33 12 30 39 19 15 22 13 28 37 33 20 24 11 39 21 4 26 3 14 7 9 6 18 4 32 20 16 22 16 28 18 27 5 7 26 5 33 19 8 36 6 11 16 14 23 38 13 21 1 35 14 27 27 17 31 30 25 13 38 27 34 14 27 32 18 39 32 33 10 27 8 15 9 3 26 7 28 35 24 8 31 19 23 28 18 2 20 17 0 25 37 27 17 24 36 2 11 12 6 4 4
2806 4079 4650 4887 4111 4387 3755 2946 4449 3673 3591 3373 4242 2876 4399 4594 4749 2972 3679 2904 4531 2991 2858 3305 4911 4775 4490 2918 3419 3212 4673 2812 4319 2617 3485 4935 2732 3582 2594 3809 3105 3040 4121 4626 2512 4301 4984 2957 3107 4142 4721 4446 4749 4227 2972 3540 4522 4412 4771 4410 3029 3302 3468 3547 4816 3291 4460 4019 4257 3267 2527 3899 4792 3904 2767 3869 3034 3046 4789 3332 2906 3475 4842 3764 4575 3119 4933 3798 4152 2819 2971 4455 2904 3194 3728 3877 3846 4219 2886 2968 2530 4101 2598 3159 4466 2667 2863 2660 4005 3424 4765 4155 2742 3066 4046 3782 3714 4421 2802 4926 2833 3587 4916 3606 3774 4055 4591 3739 3594 4169 4640 4243 3393 3711 3040 4467 4737 4227 3175 4724 3473 4029 2702 4363 3091 4905 2635 4988 4602 4519 3509 2721 3557 3500 3868 3738 4552 4548 2836 3647 3700 4410 4239 4858 3495 3708 2834 3674 4835 4423 4423 3964 3307 4627 4741 4626 4240 2665 2713 3874 4039 4277 2578 2738 3423 2659 4148 4338 3480 4153 4000 2656 4018 4058 2942 4517 4002 4224 4442 3145 4341 3562 3364 3744 4862 4033 4425 3634 4183 3748 4871 3856 3703 4518 4634 3035 3076 3633 3821 4785 3885 4584 4143 3556 3481 30 27 10 8 7 16 19 10 19 2 13 26 19 7 15 21 14 14 22 3 25 1 33 6 35 13 31 11 1 24 11 29 22 13 11 29 27 23 5 22 22 30 16 17 18 34 4 5 13 5 4 37 29 3 12 31 3 13 17 7 1 9 39 35 2 2 32 34 28 35 26 21 31 19 14 35 3 30 13 29 30 27 16 30 2 34 5 13 5 12 11 20 18 26 19 29 39 13 28 37 14 25 18 13 32 10 29 13 39 20 30 30 34 23 25 37 22 36 25 29 11 39 12 33 12 33 16 25 7 2 14 21 25 23 25 38 34 11 1 31 14 11 29 5 2 18 15 2 18 11 28 7 13 12 29 14 13 15 1 20 29 3 30 4 34 19 22 30 32 16 11 6 3 5 26 37 32 29 19 23 3 33 29 27 23 30 31 20 34 33 23 17 31 9 21 22 39 19 22 37 20 3 29 16 21 28 24 8 5 18 24 38 25 0 23 9 28 2 16 5 35 14 9 9 5
4514 4700 4219 3408 4092 4325 3934 3153 4288 2529 3722 3507 4767 3636 3184 2976 2673 4951 3832 2942 3286 4567 4089 4962 4489 3062 4796 2578 3901 3482 2653 4347 3733 3479 2501 4471 3692 3112 4952 4541 2742 3844 3288 3689 3706 3435 3634 3949 4112 2893 3000 3835 3215 4549 4405 4207 4912 4168 2731 3900 2684 4938 4876 4556 3161 3917 4081 4553 3691 4698 3102 3899 2913 4215 3761 4627 4633 3052 3458 4619 3963 2915 3594 3901 4351 3895 3041 3089 3988 4793 3861 4929 2542 2847 2916 2565 4736 4184 3630 4835 3449 4891 4159 4436 4391 3513 4821 3156 4132 4381 3647 3717 3388 3164 3654 4465 2767 2536 4010 4135 4267 4758 4152 4276 3044 4280 4325 4140 3581 3041 3332 3559 2643 3369 3306 4912 2664 2537 3710 3954 3184 3855 2978 4416 2508 3580 4180 4954 2577 2669 2890 4938 4012 4971 2878 4651 3410 4901 4642 3959 4870 2844 4137 3268 4987 3058 2601 3683 4783 3874 3510 4576 4761 3260 3881 2825 4710 4160 3514 4333 2941 2757 4043 2712 3965 3064 4358 2662 4118 4605 2560 3051 2924 4925 3395 3630 3307 3085 3188 3623 3301 4538 3512 4033 3626 2506 3065 4787 4722 4535 3221 3550 3382 3298 4060 3241 5 3250 4598 3730 3783 2843 4620 4320 4573 19 13 11 12 18 19 22 14 39 14 32 8 35 39 37 12 37 30 14 12 29 20 25 29 34 3 31 21 18 8 15 25 39 3 37 24 19 9 26 12 24 32 8 34 38 29 9 23 33 24 6 34 31 11 17 31 34 8 10 6 16 11 22 27 32 4 18 15 27 21 12 11 32 22 8 21 18 20 38 35 23 6 12 7 31 37 23 21 7 34 8 12 12 9 20 11 26 13 14 12 35 7 24 35 33 32 18 31 29 11 18 4 12 31 34 25 8 37 10 36 2 39 28 36 3 33 31 22 32 29 2 17 20 8 4 2 26 9 25 16 19 18 24 24 35 25 21 7 38 33 13 15 13 20 12 10 30 26 36 33 14 14 2 3 5 35 7 29 3 25 31 20 17 27 31 32 5 4 3 6 18 18 22 21 23 28 35 6 15 28 24 39 21 21 31 18 12 30 20 31 16 26 27 12 1 13 37 22 1 4 17 32 21 2 0 13 1 39 3 5 30 33 28 12 15
4570 3112 4950 4805 4694 4228 4809 4824 3881 4580 2886 4974 3146 3511 2885 4372 2764 3030 4090 2923 4977 4793 4405 4189 4452 4897 3890 2744 3482 3446 4789 2612 3569 4352 3328 4010 3833 2851 4592 7 3933 4948 4806 3982 3792 4974 4698 3584 3198 3145 2907 4516 4606 3012 4957 4265 4896 2940 2811 4946 3163 2967 2905 2828 3166 3511 4075 2543 4082 3231 3135 3349 4972 2661 3461 4204 3005 2909 4956 4345 2855 4283 3930 3826 4582 4784 4144 3199 2872 2982 2833 2564 3610 3565 4613 4603 4292 3094 2863 3495 3111 3418 3032 3128 3498 4205 4636 4285 3985 4948 2660 2694 3532 4442 4225 3975 3938 4452 4091 2854 3522 3030 3984 4913 4147 2989 4133 2928 2927 4030 3732 3067 3925 3697 3536 3272 2853 3458 4405 4847 3610 4297 2892 4933 2905 2577 4061 3627 4112 2941 2533 4976 2517 3983 4988 3698 3874 4702 2839 2609 4686 4952 4715 3579 3520 3300 4991 4480 2838 4912 3520 3880 3266 4471 4287 2519 3473 3868 4666 3920 3573 3283 4235 2815 3515 3316 3597 2742 4997 2767 3468 4818 4809 3813 4244 4084 4187 2624 3955 3446 4594 4697 4103 3843 2507 4232 4740 3660 2706 3597 3466 3550 4926 3768 4488 4303 3121 4988 4905 3896 4209 3671 4324 3817 4174 35 10 1 38 33 19 4 18 33 21 27 17 26 30 9 2 29 5 22 38 9 17 27 3 26 33 17 23 15 11 31 8 39 25 31 30 31 9 2 30 12 18 14 25 6 26 21 39 25 25 32 11 36 21 21 5 19 30 27 37 26 20 24 32 39 1 6 29 37 27 32 20 20 23 4 36 8 16 5 38 1 23 24 28 30 12 28 10 3 6 1 1 20 4 34 31 16 35 14 15 21 13 34 9 38 30 21 26 32 19 27 19 7 11 23 12 15 4 36 9 10 3 4 15 19 6 21 22 39 11 35 37 3 15 29 16 8 39 2 8 8 5 26 39 25 10 18 12 2 9 25 32 4 29 27 7 8 33 22 4 38 27 26 36 11 12 15 18 34 37 32 37 9 5 11 18 7 19 38 16 39 26 19 24 17 33 37 2 39 33 15 29 22 11 12 13 14 6 15 27 31 27 8 38 37 32 28 11 35 2 22 9 31 16 1 0 14 17 20 26 28 4 25 32 10
3043 4299 3371 4159 3823 4494 4841 3717 4731 3952 2733 3196 4465 3641 4098 3775 3543 3804 2585 3239 4740 4469 4348 3853 4318 2655 4731 3083 2732 2659 4220 3219 2927 2764 2690 4581 2866 4659 3647 4742 4994 4581 4330 4475 4951 2720 2979 2715 3898 3737 4074 3778 3908 3182 2595 3053 4805 4934 4827 4645 3092 4734 4496 2764 3045 4251 3789 3085 2918 4931 2938 2713 2826 3347 2979 3906 3101 3019 3295 4279 2877 3658 2823 4557 4500 2764 2759 4530 2706 4295 3450 3736 3549 4075 2523 3439 3886 4583 4543 4124 3092 2530 4233 3740 2545 2642 4494 2627 3409 3529 4623 4053 4598 3087 4945 3918 4019 4330 3213 3685 4571 3622 4979 2927 4508 4480 3067 3681 2585 3642 3583 3087 4113 3691 3404 4782 4066 4498 4655 3209 4496 3377 3403 2914 4544 3236 3412 4148 4595 3345 19 3938 3050 3947 2739 3182 3366 3070 2686 2547 3732 4927 3127 3405 2852 4180 3967 4796 4340 4981 3579 4059 3516 2739 3263 3412 3236 4620 2799 2846 4618 4426 2686 2920 4082 3943 2830 2853 3411 3244 4089 3472 2822 4106 4611 2653 3510 4280 3257 2861 3344 3458 4281 4096 2574 2876 3063 2965 3822 3677 3729 4641 3638 3444 2765 3386 4373 4617 4525 4176 4941 4034 4910 4405 3144 30 31 4 5 30 25 38 21 31 3 10 23 6 30 15 22 38 15 16 29 18 34 21 12 37 22 24 3 21 27 26 25 26 35 26 37 6 1 10 39 38 20 6 24 29 39 5 39 20 39 11 15 8 31 33 30 38 4 7 29 29 20 39 2 7 6 17 3 7 12 22 19 3 8 4 30 39 39 29 11 13 12 19 39 13 7 16 18 1 16 29 5 33 33 31 23 28 35 22 39 3 37 17 3 8 10 2 13 22 13 16 28 16 9 17 4 21 10 22 23 21 26 28 17 39 3 1 10 15 37 25 21 37 24 32 32 38 17 3 20 6 38 21 37 39 18 19 25 1 30 28 39 14 26 30 26 25 13 19 16 9 13 1 12 14 28 24 12 31 23 28 32 12 37 9 21 5 37 28 29 14 4 39 32 17 32 24 32 7 37 3 34 33 9 2 34 28 28 5 33 23 32 19 7 17 25 27 19 3 33 14 11 29 22 25 18 0 6 36 5 20 8 14 23 36
4723 4856 4593 4042 2958 4381 4839 3136 3411 4982 2825 4892 3585 3604 4933 4028 2925 4980 3350 4943 4115 2795 4569 3952 2633 3136 2873 4713 3955 4064 3365 3088 4487 4463 4511 2684 2666 3754 2815 4296 4251 3171 4572 3246 4682 4748 3334 4190 3795 3640 4096 4680 4968 3029 4795 3789 3167 4604 3902 3961 3055 3371 4777 2877 4243 4247 3007 4702 2523 3446 4668 3176 4041 4622 2563 2608 3108 4317 3988 4853 3482 4375 3819 4142 3183 2687 4735 3749 3778 4553 2670 3882 2900 3847 3580 3551 4835 3371 4252 3294 4297 3195 4208 3543 3288 4478 4167 4439 2544 3374 3089 3657 3710 2858 4636 3967 3144 3735 3958 4496 3546 3765 2819 2990 3911 4320 2561 3382 3673 3464 3538 3451 3066 3898 3594 3307 3082 3800 3065 4760 3911 2684 3596 4396 3824 4429 4017 2797 2508 4579 3898 2794 3510 3219 4443 4183 4630 4581 2992 2599 4323 4861 4612 3071 3624 3856 3480 3864 3539 4143 4298 2841 3987 3157 3546 2858 3224 4590 4278 3080 4961 3407 4614 3948 2846 4521 4363 4932 4145 3281 4761 4931 2964 4129 4851 3144 3065 4164 3893 3756 3755 3780 3958 2572 3542 3231 4685 3063 4837 3386 4111 3516 2991 2840 4478 3882 2624 4761 2789 2892 2501 3638 2862 3567 4670 4 30 22 28 39 19 25 33 8 30 27 35 33 18 9 2 31 14 22 27 1 21 36 28 31 14 30 9 25 4 24 9 8 28 38 5 21 24 15 5 31 22 32 1 36 20 1 34 23 4 30 1 17 22 10 16 5 23 34 37 12 34 14 25 21 39 16 21 14 31 3 28 18 18 12 1 35 26 10 26 26 34 26 18 34 16 11 2 12 32 18 18 18 7 38 24 14 39 5 5 7 6 18 26 20 23 36 30 9 13 11 5 39 26 20 5 10 13 5 37 25 26 20 21 34 34 14 11 17 6 20 34 35 18 31 19 30 14 36 11 26 38 24 23 23 22 4 15 22 7 1 25 1 24 32 26 21 11 7 24 24 31 12 34 22 8 17 13 27 38 37 34 16 17 25 4 39 33 10 25 23 4 38 21 10 37 3 29 16 4 33 32 37 20 11 2 39 7 13 37 20 2 38 10 6 18 18 28 18 23 5 21 29 35 17 8 10 0 31 5 29 38 11 31 1
3845 4585 4409 4563 4506 4721 3519 2699 3993 4816 3996 2932 2502 4772 3406 3039 3500 4802 3865 2504 3736 3448 3896 4350 3454 3778 4849 3791 4106 4975 4717 3167 2768 3294 3925 3052 2756 2955 3795 2520 4248 4309 2708 2664 4680 3570 2547 4670 2944 3934 3726 3271 2854 4725 4860 4031 2849 3102 2666 2929 4811 3852 3352 3165 3958 3241 3690 4681 3508 3851 4595 2960 4723 4646 4398 4295 4615 4944 2895 3388 2977 3843 3010 4814 3807 2543 3282 2637 3092 4155 4004 3074 4350 2900 4453 3501 3835 3322 4513 4273 4719 4562 19 4026 4544 4383 3034 3390 3498 2542 3015 4410 4001 3964 2863 2702 3487 4784 4983 4971 3021 3753 3075 2889 2992 3755 4107 2718 3258 4766 3299 2537 4346 3532 4037 4550 3295 3724 3876 2538 4879 4351 2934 4773 3239 4164 3848 2680 4651 4258 2679 3619 3527 2711 2686 3571 4319 4905 4754 3532 2840 2985 3601 3869 3092 4958 3804 4897 3247 4526 4266 3427 3810 4815 3130 2751 2824 4305 3941 2725 3507 2729 4599 3453 2503 3309 2942 3276 4435 4278 3032 4300 4571 4472 4017 4456 4720 4545 4963 3115 2863 2574 3155 4813 2624 3787 3715 3515 3075 3415 2553 4104 3376 3039 2548 2645 2826 3125 3276 4524 2660 4641 4883 2751 4981 6 26 30 10 31 33 8 19 16 8 24 4 28 20 18 7 9 2 28 38 10 21 19 31 5 39 29 13 35 8 19 27 32 12 21 10 21 37 6 18 21 24 38 21 8 17 8 12 10 35 37 24 22 36 20 5 29 34 39 23 2 7 15 14 4 9 3 6 4 12 32 8 4 4 1 11 12 30 11 36 2 6 10 32 17 18 7 5 27 19 36 8 6 13 37 10 22 7 28 18 21 30 8 3 36 36 37 13 24 8 19 16 35 17 17 30 27 35 1 25 33 24 13 25 3 10 20 32 32 1 15 27 2 15 16 22 29 33 34 3 20 20 9 14 5 21 5 17 25 20 31 3 3 35 27 39 6 23 37 3 26 35 39 14 24 19 33 30 31 8 26 27 13 23 10 22 20 8 3 13 9 2 26 39 10 13 28 11 18 1 30 23 39 33 24 28 5 13 22 29 13 23 12 39 34 2 17 15 23 22 19 33 35 11 5 6 11 16 0 1 2 13 8 18 35
3800 4763 4690 2635 2737 2674 12 4724 4140 3140 2778 3992 3129 4546 4103 4931 3056 4536 2548 3309 3305 4583 4475 4577 2994 3019 3482 3455 4826 4849 4468 2511 3034 4657 3852 2775 4339 3048 3038 2909 4115 3944 3334 4743 4364 4294 2599 4235 2845 3361 4583 3512 4465 2570 4333 4877 3048 4059 3727 3588 3768 4786 3979 4956 3830 2817 4418 2567 4286 3539 3916 4619 2794 4992 3249 3421 3918 3448 4377 3848 4964 3946 3198 3994 4540 3613 3370 3597 3193 4292 3608 4155 2531 2702 2752 3924 3425 3191 3133 2564 2698 4083 4587 4954 3723 4527 3858 4884 4836 3245 4685 4242 4714 4589 4737 4837 2820 4611 2627 3520 4341 2991 4283 3657 3227 4497 3253 2564 3864 4541 4056 3955 4722 4595 3656 3329 4577 3709 3242 3093 2663 4788 4319 4528 3010 3926 4203 4904 2615 2635 4651 3906 2796 4603 4330 3449 4390 3331 2701 3691 2703 3287 3910 4491 3076 4825 4977 4068 4127 4166 4585 3297 2906 2876 3076 3732 2774 3667 3860 4744 4280 4033 3529 3988 4810 4089 3799 4972 2815 4008 2691 4173 4484 4899 3224 3869 3270 3784 4712 3833 4599 3630 4448 2596 3970 3349 2761 4618 2851 2688 4649 4598 4972 3663 3571 4077 2940 3952 3937 4161 4927 4027 3877 2803 4082 12 24 28 10 11 35 33 30 24 36 36 19 5 25 27 28 4 6 7 6 17 9 24 34 14 6 17 2 14 7 10 16 14 13 31 8 24 15 23 27 6 24 2 22 24 32 12 38 37 30 21 9 22 21 20 29 24 4 28 6 38 13 5 30 25 28 17 9 1 19 21 1 21 22 9 5 12 10 22 10 32 20 13 29 22 25 14 4 24 38 27 19 25 3 21 12 7 7 12 19 32 27 37 8 9 16 37 22 34 4 31 9 19 4 31 10 36 28 9 3 19 31 26 31 31 8 33 5 10 14 15 27 3 18 17 27 27 29 25 14 30 13 18 39 32 27 30 28 27 16 23 34 4 8 22 26 11 39 13 25 5 13 30 32 10 39 35 11 22 9 7 23 14 17 19 2 22 18 2 39 22 29 20 23 24 4 19 7 1 33 7 12 32 36 36 27 6 26 34 16 6 20 20 11 39 30 35 14 31 3 3 9 26 20 28 6 23 16 24 0 24 14 17 18 15
3696 3357 3951 3568 4619 4785 4170 2608 4595 2981 3031 3874 3707 4158 4480 4893 3309 2771 2968 4172 4883 4296 3539 4115 4607 4492 4108 3272 3729 4766 2721 3132 4849 4196 3240 4854 3585 4294 3788 4327 3714 3407 4018 3220 4405 2898 2954 2956 3233 2838 4586 4258 4863 4159 4138 3356 3294 3028 4008 4193 4313 2756 4428 3806 4855 4281 3600 3565 3411 4020 4676 4222 3687 4492 4354 4155 3596 4076 2762 4022 3527 4627 4396 4315 3083 4778 4917 4607 4547 4219 3504 3118 3841 3867 2874 3450 4761 4875 3733 3901 3557 4309 2519 2515 2980 2991 3893 3654 3271 2779 3683 4349 3584 3541 3190 3262 4090 3876 2505 3331 4326 18 4411 3846 3394 3763 2992 4613 3247 2775 3674 4661 2535 3796 3376 3411 2515 4325 2761 3128 2856 2761 4946 4857 3559 3566 4098 3751 3511 3876 3174 4321 3752 3480 2670 4987 4564 4645 3005 4957 4588 4379 2775 2783 4416 3059 4303 3518 4812 4219 4854 4297 4565 3453 3987 4296 2976 3165 4570 3043 4652 4496 3898 4452 3146 3530 2809 3749 4494 3585 2929 4389 3174 2574 3142 4267 4734 3402 4067 2891 3640 3773 3110 4866 3339 2798 3899 4461 3440 4502 4243 3797 3988 3304 3897 3298 3461 4110 4622 2638 4737 3591 4496 4406 4487 28 31 16 21 14 21 7 8 34 19 9 26 34 26 28 18 12 20 7 18 1 6 38 31 11 23 34 20 8 23 14 18 10 12 8 14 19 16 24 8 21 29 34 31 4 11 20 35 22 20 38 3 26 29 1 6 3 15 8 13 4 2 3 9 19 16 1 9 23 17 14 39 24 9 36 16 3 20 39 28 5 4 33 12 16 11 27 25 11 18 17 20 11 38 2 1 7 7 37 4 27 36 19 28 5 2 15 9 38 22 36 22 28 27 12 11 8 30 38 14 4 35 27 11 13 38 3 31 35 29 35 4 14 30 36 36 24 19 21 12 31 16 10 9 32 16 30 3 21 20 13 26 25 28 1 17 25 13 34 14 13 39 26 33 13 5 36 18 4 28 4 4 37 13 18 30 37 6 30 8 39 39 11 24 7 31 6 27 32 12 28 6 10 24 6 2 26 5 7 19 24 15 26 3 3 32 33 11 13 18 13 5 14 32 37 31 12 15 5 7 0 39 7 8 17
3109 2897 2893 4332 4065 4777 2799 3760 2860 3204 3010 3281 4677 2852 4379 3505 2609 4960 3743 4008 3363 3762 4161 3604 4540 3649 3939 4365 3020 3626 2608 3355 3552 2773 3313 4001 3841 3992 4140 4107 4701 4141 2839 3236 2760 3254 4881 4572 3575 4667 4487 3544 3135 4502 3284 4756 2501 3427 2737 2688 3127 3445 4479 4911 4282 2526 3555 3047 3275 3590 2821 2950 3563 4253 3748 3320 3878 3340 2818 3106 3277 3251 4233 3768 4060 3491 3389 3828 3187 4154 4451 2700 3375 3665 4467 3313 3503 2773 4912 3596 3371 2705 4216 4196 4996 4877 4758 2994 3710 4532 4355 3913 3380 4572 3253 4522 4782 2859 4002 4145 3693 2562 2601 3244 3178 3218 3944 4842 3897 4433 3264 4472 3731 4418 3138 2527 3573 2508 3840 4955 4001 2812 3996 4575 4074 4426 4052 3183 2659 4990 3577 4293 3254 4345 3544 3732 4838 4982 3829 2863 4884 3985 4058 3977 3591 4233 4203 3307 4003 3239 4770 3520 4214 3513 4334 4090 3727 2603 3520 3147 3418 3974 4550 4812 2655 4742 4373 3678 2832 4420 3850 3649 4869 2889 2572 9 4057 2553 3753 3879 2519 3363 3914 4218 4234 3066 4896 3409 3465 4541 3485 3416 4141 4105 4084 2913 3403 2935 2838 2861 4779 4256 2941 4399 4376 39 1 23 38 31 21 39 14 13 21 31 8 19 16 16 11 30 3 12 19 38 31 19 31 8 6 20 27 16 22 8 29 38 1 15 21 32 9 31 24 34 27 24 2 2 29 28 12 14 2 24 31 7 34 20 9 26 37 14 28 12 21 32 23 1 32 8 1 26 29 32 22 15 16 9 20 6 4 18 17 37 7 33 35 30 8 36 38 36 38 39 31 28 24 30 7 10 38 31 35 12 7 32 17 20 24 32 3 34 31 28 11 26 11 34 31 24 19 12 8 23 3 3 3 33 17 1 26 25 9 1 16 37 2 9 16 2 35 34 38 12 12 2 23 29 2 1 28 34 1 24 7 33 26 23 18 39 36 2 36 39 19 25 27 23 13 19 36 39 34 34 31 17 12 3 16 34 32 3 21 2 33 25 27 3 16 21 5 5 4 17 20 30 7 27 34 20 33 21 36 2 31 1 11 26 27 15 10 36 18 21 34 9 7 16 31 31 9 31 19 23 0 11 34 22
4290 4551 3813 2722 3155 4596 3696 2555 3194 2532 4226 3677 3325 3281 3583 3949 4893 3845 3626 4598 3891 4129 3155 4676 2966 4982 4313 3516 4657 3395 4112 2977 3916 2923 4263 4739 3236 3075 3616 3781 2521 3467 4267 3661 3659 3732 4303 4113 4880 3936 3895 4173 4263 2738 2807 2955 2878 4088 4566 2995 3957 4520 3225 2816 2997 3121 2967 3987 2777 4158 3563 2976 3027 4760 4872 2700 3181 3995 4020 2643 4392 3740 3636 2699 2714 3947 3260 3772 4594 4439 3835 4965 4981 2818 4967 4861 4040 3618 4619 4424 2624 4448 3632 19 3759 4533 4616 2863 4985 3311 4039 2690 3065 3813 4198 2553 2599 4623 2797 4415 2892 4420 4528 2560 3723 4850 2862 3564 3381 3363 2666 3466 3639 4980 4046 4065 4518 3701 4809 2905 3874 3323 3265 3662 4849 4265 2723 4553 4838 3485 4664 3469 2916 4713 4825 4910 4618 2728 3195 3791 4559 4080 2614 4673 3311 4450 4270 2768 4036 4818 4557 4323 4015 3675 4048 2522 2577 3069 3648 4685 4156 4638 3326 4991 4492 3707 4296 4670 3705 4559 3609 3655 4742 2579 3899 2855 3745 3929 2843 3575 2791 3135 3057 4857 3957 2642 4323 3496 3324 3520 3868 4636 2752 4592 2726 3760 3380 4641 3018 4300 4387 4820 4715 11 3844 35 11 17 8 26 17 21 18 19 27 25 30 25 29 2 14 35 20 14 9 31 29 11 30 39 22 18 31 20 24 16 3 18 18 17 14 21 3 30 38 31 16 3 26 22 34 38 3 32 27 24 4 23 19 30 7 32 5 25 16 4 14 10 39 34 37 24 25 15 29 7 27 2 28 5 16 7 31 9 5 9 23 19 27 14 30 20 16 5 1 7 33 22 14 30 25 15 11 19 2 29 36 25 15 27 10 12 19 36 30 35 16 32 18 28 3 32 10 21 1 34 10 17 12 17 9 27 6 35 35 11 9 23 5 5 24 6 26 27 15 21 26 39 3 32 17 22 12 33 35 3 36 16 25 33 24 6 14 12 27 9 27 33 9 9 39 33 9 13 18 3 6 12 37 17 37 22 17 4 2 9 1 31 19 12 35 11 16 33 17 31 24 33 18 29 11 23 7 33 17 11 38 34 31 38 13 28 14 17 20 25 32 23 21 23 34 35 30 2 22 31 36 0 5 33
3164 3898 3920 4956 3774 3924 3497 4709 4843 3348 2664 3122 3824 4786 3233 3226 3874 4087 4054 4935 4856 4052 3259 2559 2982 3659 4685 3564 4297 3187 4598 3537 3558 3402 3849 4077 4266 3822 3201 4312 3055 4512 4825 3829 2707 4481 3006 2805 4140 4632 4855 4697 2810 3455 4871 3401 4477 4843 3419 4301 4555 2848 5 4948 3934 4600 2945 4038 3998 4947 3233 4847 3920 4437 4464 4783 3030 4452 2844 3438 3031 2831 4506 2582 3142 2778 4594 4719 4316 4832 4211 4428 4319 4141 3355 2520 3422 4868 2696 4471 3883 4915 4654 4496 3317 4901 2981 4877 3313 2630 3764 3191 4141 4052 3644 3385 4916 4004 3872 3676 2626 4117 3233 4335 2912 4362 4952 3317 4090 3373 4742 3759 4538 3989 4228 4634 3792 2626 3475 2635 4764 3005 3084 4443 3884 4484 4903 3414 2862 4682 3466 4768 4187 4403 3198 4579 3311 3089 4625 4930 4256 3738 3732 3152 4047 4250 2693 4650 2649 3937 3177 3292 2568 4709 4459 4886 3102 4802 4124 2953 2509 4134 4043 3199 3969 4486 2606 2899 4593 3277 3642 3446 4821 3416 3179 2552 3694 4762 4381 4185 4565 2878 3360 4159 4188 4021 4591 4603 4458 4525 2574 3987 4570 3580 3237 3886 3876 4173 3193 4480 2929 3541 3487 4389 3528 23 16 37 29 36 30 25 14 23 7 10 4 15 34 36 26 8 12 25 7 28 9 1 18 32 21 17 29 6 12 19 38 7 20 12 16 29 14 6 18 11 11 22 39 2 5 10 25 13 35 37 13 23 4 37 10 18 32 18 39 5 1 17 1 14 13 31 22 29 16 20 33 7 15 17 21 8 34 39 29 27 7 16 32 8 35 28 35 22 4 29 30 6 32 14 26 30 4 33 28 12 20 38 24 14 20 10 36 9 34 9 34 30 20 11 5 5 33 11 35 6 19 20 23 34 6 33 29 22 19 23 11 28 30 33 29 29 39 2 35 17 32 20 29 33 21 25 31 4 30 38 3 27 4 31 33 17 18 20 21 3 16 39 27 20 26 30 11 29 18 25 13 4 19 20 3 12 35 31 20 18 23 34 20 3 1 4 12 24 11 16 11 19 19 22 5 34 35 32 9 15 17 15 6 2 9 16 30 38 8 19 31 28 15 4 36 16 24 20 32 33 14 14 0 9
3838 3398 4848 4491 3474 3899 4805 2877 4905 2566 4587 3390 4193 3458 3039 4405 4481 4215 4589 3673 15 3742 2782 3739 3265 3398 4151 4760 3248 3180 3417 3016 3500 4147 3378 2677 4748 2885 4678 2992 3851 4356 3677 3688 3514 3698 3843 3161 3776 4826 4775 2890 4933 2984 3643 3373 3100 4037 4721 3719 4693 4123 2849 4632 4074 4358 2650 4576 2569 3821 3575 3259 2702 4970 4752 3484 3723 2833 4479 4441 3030 3951 2526 2807 3156 2653 4059 3988 3484 2751 2958 4334 3585 4046 3871 2514 2686 2786 4962 4205 3105 2839 2603 3469 4100 3799 3796 3686 3776 3213 3106 2787 2916 4782 3531 3106 4371 2820 4775 2972 3292 4682 4285 3912 3623 4245 4220 2758 3836 2555 3568 3991 3257 4611 4667 3806 3299 2598 3871 4457 2578 4731 4457 4444 3272 2803 3601 3198 4835 2595 4194 4597 3163 4473 2932 4422 4410 4802 4130 4246 2702 3277 3834 4892 3106 4807 3285 2827 4157 2959 4027 2981 3564 2644 3936 3090 4094 2709 3703 3358 3231 3812 3921 2863 2923 4182 3770 2897 4224 4499 3255 4475 3207 3688 4054 2617 4128 4815 2763 4794 4066 3063 2580 3125 3448 3159 4099 3468 2988 4738 3446 4739 4952 4567 3317 3722 4356 2590 3560 3960 2543 4295 2603 4753 3095 29 35 23 29 10 32 14 39 21 13 12 15 6 32 11 17 3 12 38 10 20 28 23 30 16 33 21 20 13 4 39 26 9 29 7 33 8 7 8 16 14 14 6 22 7 27 6 15 1 10 8 37 19 22 37 20 30 26 1 4 3 12 34 19 4 9 6 32 10 31 26 31 28 19 11 13 16 24 9 22 23 17 4 22 26 34 10 34 25 21 30 15 24 35 16 4 5 10 2 2 7 5 24 5 6 14 39 9 34 19 19 38 11 34 35 34 32 16 19 3 9 7 27 39 3 7 29 9 1 3 28 26 4 32 9 4 12 1 9 2 11 7 1 20 8 16 34 20 14 21 19 11 39 24 4 28 36 14 21 2 25 13 3 28 23 19 34 32 7 28 30 10 30 23 2 38 12 12 7 31 10 30 11 1 38 18 17 11 15 5 16 13 5 27 38 4 39 9 38 29 33 2 3 13 8 10 29 39 25 23 5 1 7 1 10 31 22 20 28 3 26 6 7 35 0
EOF
