NAME: christofides_hard_n425_s0
TYPE: TSP
COMMENT: christofides_hard generated explicit tsp
DIMENSION: 425
EDGE_WEIGHT_TYPE: EXPLICIT
EDGE_WEIGHT_FORMAT: FULL_MATRIX
EDGE_WEIGHT_SECTION
0 17 8 27 24 5 38 34 19 13 2 9 12 39 28 32 2 1 35 21 5 37 15 13 3 19 11 26 36 4 27 35 17 6 19 18 1 14 6 33 32 4 39 34 39 17 32 25 28 27 21 2 15 11 20 12 4 1 24 15 19 3 13 37 39 28 21 9 31 7 37 5 37 38 22 13 35 24 34 4 38 26 10 31 14 36 14 18 7 5 24 30 13 7 13 32 11 25 36 22 35 5 23 11 30 31 35 14 3 16 20 6 20 1 29 36 16 2 28 28 36 29 2 23 34 6 27 24 5 24 3 4 11 37 19 22 20 14 32 5 3 14 16 2 10 39 31 27 36 12 16 11 36 38 3 5 26 11 16 3 9 39 18 39 34 9 27 18 37 28 37 39 2 14 28 16 24 33 33 26 7 7 24 25 1 7 5 10 39 5 29 7 38 24 39 2 5 38 24 37 25 6 27 39 20 21 15 37 10 22 14 5 3712 3176 4256 3504 3171 4220 2768 4332 3445 4730 4076 2558 4491 3159 4665 3557 2726 3865 3311 4989 2673 4357 4797 4998 4302 3911 2643 4889 2830 2944 4961 3688 4016 3313 3814 3652 2663 3971 3042 3172 3839 3135 3977 4136 4322 4496 3883 3672 4826 3425 2725 4137 4237 2650 4183 3119 4635 2749 2798 6 2647 3389 4951 3608 2820 4664 3446 3597 2964 4398 3724 4967 3396 2729 4598 2827 3789 4084 4358 4964 2633 4322 4377 2706 2609 3815 4138 4346 2959 4535 2731 4613 3581 4307 3537 3169 4406 4779 3714 4073 4946 3873 4811 4204 3550 4487 3953 4263 2830 4186 2567 3428 2524 2661 3002 4245 3450 2646 2527 3883 4596 3454 3356 2984 4388 3152 3391 3456 3362 4263 2795 4583 4118 3470 2711 4222 2504 4798 3866 4984 3595 2783 4382 4078 4987 3464 4494 4112 3138 3588 4404 4131 4288 2605 3391 3669 4755 3298 4817 3818 3018 3331 2975 3178 2807 3152 4678 3971 3975 3672 3478 2637 4527 3470 3106 2814 4853 3053 3901 4621 4116 3044 2705 2831 3906 4709 3273 3987 4265 3968 4939 2871 4765 3939 3924 4723 3787 2941 2517 4250 3421 3591 3738 3809 3258 3754 4534 3477 4021 2816 4075 4378 3632
30 0 14 10 21 14 28 11 27 17 16 26 21 7 12 6 26 32 1 39 26 6 29 32 26 27 6 3 14 19 31 3 2 37 2 25 11 13 32 36 32 9 15 37 16 2 19 11 27 21 9 30 36 33 36 19 30 37 20 35 34 19 4 28 14 20 26 27 24 12 15 36 33 15 29 36 2 7 16 6 7 9 30 36 9 9 25 1 18 15 9 7 7 37 22 8 33 9 12 7 32 11 1 31 4 3 31 33 6 5 37 24 30 39 28 16 23 19 11 19 8 18 2 12 14 3 21 36 17 3 12 21 19 23 10 30 4 8 28 24 27 11 10 34 13 5 33 28 2 14 16 30 25 28 14 39 30 32 19 30 18 38 18 11 8 26 32 23 4 11 15 31 14 15 18 8 38 13 24 9 9 20 31 39 5 31 4 24 17 3 37 24 38 29 13 17 10 20 33 12 26 21 32 24 10 31 32 22 3 5 1 11 4316 3308 4417 3436 4399 4578 4004 3752 3040 3950 2903 3100 4566 2670 9 2720 3502 4714 4958 3208 3863 3599 4898 4261 4419 4393 3923 3182 2518 2930 2581 4473 4597 3361 5 4703 4746 3628 4407 3080 4503 2725 4990 4900 2704 4511 18 3363 4725 3411 4762 3944 4478 4043 3059 2885 3125 4275 2943 2566 2531 3793 3634 3646 3135 3106 4198 3011 3821 4351 4418 4901 4150 4203 4527 3277 3458 2916 3461 3394 3016 2763 3441 3020 2829 2854 3878 3274 4959 4681 3440 3431 3162 4563 4835 4454 3291 4854 4148 2964 4589 4540 2852 3599 4233 3103 4014 4018 4718 4736 3077 4117 2927 3011 2575 3489 2907 4628 4208 4810 2846 2614 3077 4882 3965 3979 3555 2969 3828 3734 3311 2521 4916 3727 2951 3047 2781 2675 3652 2921 4824 3690 4603 3693 2780 3854 2640 3650 4392 3528 3832 2901 3670 4616 4590 4944 4388 3020 4126 3176 3088 4393 3332 2895 4362 4241 2555 3941 3526 2582 2678 2968 2967 4602 2887 4561 2634 4775 3229 4615 3081 3153 4023 4299 2587 3990 2823 3939 3677 4240 4042 4849 3798 2756 4558 4032 3978 3507 4814 3357 4237 3257 3206 4738 4126 3596 4818 3357 4399 2700 4717 3338 4118
30 19 0 15 4 34 35 39 24 13 10 27 8 16 27 38 3 36 9 1 12 35 10 27 28 37 27 26 29 24 29 39 26 20 10 38 29 8 17 39 19 39 18 2 16 34 3 35 9 26 31 22 9 12 8 39 21 5 20 30 26 30 6 21 35 8 35 16 17 19 27 33 32 34 34 30 21 12 27 37 39 28 18 36 5 31 14 24 35 30 15 22 27 11 26 32 35 23 35 1 37 2 13 30 11 22 27 30 20 9 4 22 3 35 33 9 31 28 5 23 3 9 8 21 32 35 16 2 29 38 33 17 33 18 23 25 23 39 4 18 3 32 13 6 9 9 14 18 34 30 7 7 24 1 17 13 4 1 1 16 30 39 29 39 26 10 4 8 9 7 11 12 39 26 38 22 22 4 35 6 38 11 25 22 32 32 27 33 18 16 15 3 7 21 8 37 8 39 14 32 17 18 35 9 34 9 33 3 13 4 26 2 3674 4408 2653 4114 4681 4492 2719 3802 3037 3262 3607 3477 2631 3112 3542 4833 2630 3969 3785 2906 4377 4203 2715 2595 3875 4913 3729 2717 4574 4496 3966 3688 4279 3077 3491 3594 4431 3766 3210 4308 4470 4841 4534 3100 3896 4822 3257 3249 4556 2512 3079 2652 2981 4734 4350 3183 4313 4480 4374 2935 2907 3012 4654 3147 4081 3038 2930 3115 2999 3424 4084 3183 3554 4554 4272 4078 2917 4494 4053 4209 2617 3082 2530 3565 2604 4685 4321 2901 4833 4082 2986 4695 3657 4278 4778 3895 4286 4209 2910 4501 4178 3635 4688 4420 3672 4342 3982 3882 4513 4789 3463 4619 2960 4086 4402 3096 4618 3307 3893 3675 2901 3081 3153 2663 3046 4862 4217 4098 4016 2758 4101 3917 2672 4194 2990 3615 3673 4991 4565 4896 2527 4522 4332 3869 4921 2946 3654 4594 4715 4176 4611 3918 3409 4307 3602 4075 3457 3520 3445 4619 2543 3771 4274 3867 4932 4293 3459 4984 4308 3981 3247 3457 3269 2977 3708 3813 3055 2676 4703 3053 3876 3769 2602 3784 3436 4267 3791 4260 2840 4229 2646 4298 3003 2566 2935 3797 4682 3051 3452 2564 2505 4672 3340 4468 2599 3394 3120 2783 3170 4599 4915 3718 4378
29 16 34 0 12 34 5 1 16 32 35 12 18 23 37 38 3 30 36 6 21 10 13 33 17 33 32 23 37 32 39 9 2 15 15 27 3 18 23 34 13 1 14 31 1 35 5 4 23 15 26 10 2 25 19 31 29 16 3 31 20 12 6 5 37 24 4 2 37 20 29 30 6 5 18 38 29 16 6 35 20 15 5 26 22 11 8 14 31 30 8 3 9 30 23 13 36 8 28 37 34 21 15 9 23 35 32 15 7 18 22 38 34 36 9 29 7 38 36 1 26 22 11 26 22 26 34 23 18 21 23 31 12 21 16 2 5 10 1 20 9 1 7 25 10 4 29 13 28 17 1 13 33 18 24 38 36 32 35 19 30 35 7 14 13 33 5 25 32 39 30 12 34 11 15 37 19 19 13 7 5 34 16 14 23 18 24 11 36 35 4 29 3 27 37 38 29 16 26 13 16 24 38 8 19 26 31 39 12 14 21 38 4455 2977 4192 4865 4079 3230 4624 4203 3384 3322 4292 3333 3438 4534 2952 4399 3482 4769 3452 3901 4883 2518 4281 3134 4287 3388 3601 4370 4735 4047 2521 4026 3874 3262 3679 2870 4615 4612 4702 4457 2834 4647 4587 4676 3002 4281 3439 3885 4985 4140 3643 2617 3471 3624 3636 4162 3069 4374 3428 2790 3561 4109 4562 3353 3836 4021 2759 3257 2536 3177 3467 4888 3869 4157 2509 3411 4676 3095 2886 3664 4450 4876 4389 3092 4888 4849 2815 2519 4755 3493 4547 4299 3277 3078 3142 3828 4018 4447 3440 3624 2754 2518 4985 2779 4994 4554 4544 4116 4352 4409 2693 3984 4697 4140 3025 3910 4116 3115 4873 3910 4035 3389 3074 4716 3341 3944 3543 4856 4136 3564 4667 3518 4000 4398 2555 3302 3249 4629 3088 4652 3367 3589 2963 3677 2828 4773 3107 3719 3249 3233 3366 4046 4853 3833 3523 4392 4363 3731 4821 3795 4494 3619 2580 3637 2805 3456 3407 3776 4378 3864 3770 3585 4082 4858 2617 3280 3563 3642 4727 3220 2931 2910 3424 3500 3997 3928 3803 3056 2666 3875 3869 3536 3018 4750 4750 3102 2622 4836 4124 3769 4691 4167 3931 4923 4119 3310 4304 4074 4680 2881 3463 3202 2862
11 36 2 12 0 21 11 15 16 34 25 12 10 24 14 37 16 33 37 15 15 17 16 30 12 24 39 31 6 30 26 35 30 17 5 24 26 39 34 36 26 19 24 14 38 30 35 29 13 2 1 2 4 13 20 36 21 30 5 3 31 15 28 24 23 36 5 32 21 3 37 2 32 8 33 31 39 12 34 27 35 22 18 4 12 19 34 35 38 20 8 23 13 16 8 12 14 35 22 17 3 22 21 28 10 38 6 31 39 2 26 11 28 3 21 5 16 29 29 14 8 17 35 4 32 36 13 36 39 8 7 21 26 28 36 23 31 21 12 38 1 10 35 19 32 5 28 13 10 33 5 14 26 38 13 3 25 29 4 27 3 3 19 8 7 17 16 7 21 4 23 27 17 17 12 25 7 39 30 18 11 1 25 17 6 31 23 19 2 6 20 4 31 6 21 36 16 3 27 21 28 38 5 17 36 20 30 32 20 27 22 28 2513 4610 2750 2980 2512 4241 4088 3461 2622 3263 3901 3942 2529 4130 3154 3068 4048 3581 4619 4754 4966 3399 3399 3263 4705 2632 4770 3291 4750 3693 2831 3960 3135 2863 4473 4913 4523 4600 4573 3040 3391 4968 3653 4220 3162 2547 3003 4840 4427 3024 4261 2777 2709 3752 3306 4049 3426 2666 3608 3880 2723 4926 4147 4114 3236 2845 3019 3255 4351 4281 4417 3167 2684 3472 4123 4409 2916 2743 3898 3922 2619 3125 3213 4422 4494 3958 2884 4824 3192 4191 3210 4574 4494 4937 2873 4377 4905 4684 4318 4250 3332 3460 4585 3159 4592 3175 3770 3622 2675 2695 3485 4982 2676 4909 3209 4052 4429 3183 3894 3865 3874 2506 3191 3955 3338 3004 4402 3524 3391 4552 3021 3586 3526 3877 4536 2821 4286 3889 3845 3847 3208 3289 4639 3790 2988 3128 4235 3627 2719 3610 4783 4880 2617 3642 3410 4522 3711 3954 4144 3825 4674 4718 4124 2538 2902 4839 3306 3429 3773 4235 9 4191 3201 3260 4937 3181 4074 4323 2740 2986 3599 4198 3855 3146 4684 4563 3393 4574 4508 2577 4518 3111 3158 2503 3333 4665 3636 4923 3754 4408 2501 2910 2661 3049 3335 4457 4889 4474 4954 3453 3193 3075 4274
21 27 6 10 4 0 30 29 11 24 29 14 32 28 4 1 15 6 2 7 30 10 30 22 20 12 29 36 36 28 36 35 15 12 25 26 30 38 27 27 33 21 30 35 7 19 13 24 14 13 5 17 15 39 12 8 2 21 28 14 2 24 8 39 35 26 25 15 36 6 27 16 23 35 3 31 16 27 33 9 15 7 20 23 20 26 18 1 31 21 9 10 9 36 17 38 1 32 15 14 18 34 10 38 21 5 17 3 21 4 33 35 13 5 27 18 6 29 4 12 28 8 38 1 17 4 28 23 27 25 27 21 24 31 9 1 26 6 2 8 26 5 16 25 25 36 6 34 28 15 10 35 30 19 39 13 29 36 27 38 27 24 29 5 10 35 22 22 2 19 26 21 1 4 28 7 12 26 24 31 11 2 25 20 35 22 22 19 18 9 1 28 34 17 19 28 38 31 29 29 12 36 3 1 11 38 11 9 20 4 7 34 4868 2734 2900 4182 4287 3735 3906 3744 3187 4584 3567 3585 3488 4572 4317 3320 4093 4983 3574 2621 3609 3162 2575 4679 2736 3983 3285 2831 3058 3730 3508 3301 19 4445 4505 3595 2509 2634 3674 4613 3444 4741 4730 3865 3243 4581 2846 2545 2683 3945 4628 2723 3199 3999 4097 3785 4026 3483 4167 4008 2751 2668 3162 3209 3484 4976 4410 3304 2704 3708 3691 4199 3225 4812 4119 4041 2831 3999 2635 3354 4178 3179 2916 3107 3343 3765 4273 4380 3306 3722 2501 3025 2951 4032 4359 4305 4854 3311 2840 3997 3320 3097 3258 2859 3951 4473 4117 2778 2927 2656 3470 3895 2842 3288 2713 4262 4369 4074 3402 3535 3298 4907 4404 2776 4126 4642 4048 4244 2904 4968 4411 2939 3157 2610 4364 2999 3603 4222 3376 3836 4229 3468 2711 3953 4296 3312 4202 3445 2705 4715 4837 3296 3907 3454 4341 4520 3950 2548 2898 4310 3780 4430 2946 4432 3895 3517 4883 3680 4036 4611 3049 3107 3331 2524 3537 3321 3817 4213 3992 4678 4603 2827 4631 4192 3806 3309 3961 2998 2611 4339 4540 4007 3911 3955 3870 3993 4255 3697 3834 3906 4538 2730 4287 4367 3382 3363 2837 3834 2886 3573 3784 3727 3920
12 7 12 4 30 31 0 31 6 10 4 12 12 24 31 27 15 7 26 31 25 29 3 9 17 38 17 33 19 39 4 7 34 36 31 34 11 3 7 38 29 32 18 18 37 19 29 10 27 39 12 20 10 10 23 28 1 12 31 11 11 32 26 8 35 37 35 1 5 20 19 11 33 33 3 35 7 39 12 1 28 2 17 23 8 18 22 12 24 19 21 10 5 17 23 27 33 32 28 7 32 20 24 9 6 5 36 27 3 5 29 8 6 17 30 30 20 19 13 12 22 20 8 30 17 23 26 22 7 13 33 11 29 12 27 25 21 11 7 23 39 14 16 3 35 11 2 6 33 24 13 38 9 11 19 2 30 14 27 24 39 7 3 37 5 31 16 20 2 31 35 26 18 2 31 26 38 2 1 14 31 24 3 1 17 4 10 32 29 1 30 33 4 23 33 39 7 17 4 20 23 4 25 32 3 1 37 18 36 22 22 2 2993 2715 3582 4504 3984 2751 4154 4023 4115 3398 2877 4369 3397 4293 2737 4951 4890 3193 4681 2797 3026 2634 3679 2530 4156 3604 3852 3076 3081 4629 4312 3213 3752 4894 3532 3977 3376 4220 2803 2779 3602 3447 4021 3216 3617 2643 4494 4574 3465 2672 4241 3959 3845 3128 3334 3623 3745 3123 4433 4381 4638 3822 4131 4444 3290 4132 4747 4662 2559 4602 3454 4584 4824 4185 3888 2867 3028 3345 4169 3636 4430 4526 4270 3524 3082 3535 3758 4236 4809 3091 4640 2754 2563 14 4308 4971 2684 4851 4536 3981 3920 4939 3275 4538 3187 3547 4264 2875 4676 3936 4553 4482 4286 4806 3516 4802 3745 3398 2692 4909 3115 4822 4060 3810 3962 4798 4914 3215 4392 3382 3047 4730 3781 2656 3060 2955 2812 4814 2844 2916 3168 3302 4184 3983 3664 2952 2865 4857 3947 4287 2529 4006 4583 4314 4563 3322 4818 3706 3821 4698 4325 4734 4138 2515 3126 4261 4875 4696 3376 3668 4318 2527 4085 4481 4380 4879 3259 3000 3915 3646 3202 3830 2872 3124 4700 4639 3887 4589 2525 3669 3299 3409 2875 4738 4452 4956 4347 4141 3704 4163 2979 2605 4788 3802 3168 3615 3620 3738 4675 3625 3571 3820 4142
15 19 30 37 23 31 2 0 8 34 33 4 12 10 26 22 2 4 29 5 5 24 36 24 34 21 27 3 38 24 28 35 27 11 2 12 1 10 39 2 8 9 13 21 38 3 15 37 26 39 15 11 34 34 19 36 22 26 26 16 36 31 25 26 13 15 1 15 24 27 2 9 38 35 19 37 9 10 16 15 34 24 6 10 14 32 15 27 30 35 27 3 31 4 28 4 5 7 14 11 10 29 12 11 36 7 17 22 4 17 37 3 24 24 32 6 32 18 10 2 8 21 23 18 14 26 33 2 15 18 2 2 32 16 7 5 24 25 16 21 14 37 4 28 13 7 31 34 32 18 3 6 32 22 38 4 29 19 22 4 9 12 31 19 26 7 33 3 22 29 23 8 14 37 28 5 26 2 29 27 22 3 28 3 8 24 22 18 33 36 19 22 22 17 22 30 39 27 16 37 18 10 9 20 21 23 39 9 30 25 36 35 3435 4396 3333 4935 3386 3612 4197 4367 3572 2680 2628 3051 4391 3938 4244 3946 3618 4891 3661 3453 3211 3668 2772 4249 3494 3988 3244 4911 4895 3184 3306 3869 3501 3132 3024 4695 3841 4497 3842 3455 3213 2890 3524 4654 4710 10 2506 2557 5 4019 3465 3787 3917 3319 2774 4356 3657 4141 3704 4238 3444 3971 4740 3482 2973 3901 3455 2855 2726 2879 3427 4094 3905 4551 4850 3390 3838 3541 3982 3155 3260 3126 3208 4024 4342 4177 3486 4326 3580 4477 2782 4126 4009 4748 3608 3479 4061 4941 4437 4843 3851 4802 3342 2950 3813 4082 4523 4915 2972 4930 4739 3193 4944 4720 3991 3401 3633 3142 3289 4916 4592 4858 3186 3246 3152 2924 2669 4101 4407 3540 4493 3658 3236 4789 4843 3068 3875 4256 4757 2885 3238 4176 4608 4364 4766 4417 3747 2689 3445 3126 3327 3093 2618 3633 4843 2871 4450 3506 3849 3408 2631 4193 4737 4094 4980 4780 3936 2557 4345 3958 2630 3253 3730 4989 4382 3841 4372 4395 3788 3885 3258 3882 2915 2866 3982 3605 3834 4682 3344 3029 4944 2640 4358 4788 4750 3392 3899 4372 4259 2828 2623 4797 4139 4887 4597 4367 4918 4831 4393 3606 2796 2818 4879
19 14 35 18 21 20 28 39 0 26 38 14 30 19 19 17 13 15 39 38 5 33 8 22 28 32 14 23 4 33 9 39 35 9 20 5 4 33 19 36 36 28 17 4 2 25 35 21 33 33 31 27 8 13 23 3 8 15 37 34 23 18 25 15 11 12 31 2 13 15 10 30 35 6 17 23 36 22 13 5 13 8 26 4 5 27 9 36 19 16 28 16 27 2 19 29 31 27 26 11 14 14 38 29 27 33 28 35 39 1 2 20 6 27 19 18 35 13 25 31 27 31 10 21 18 38 33 24 20 10 6 11 15 7 27 16 27 5 3 7 9 30 15 6 18 10 2 1 5 32 25 1 11 24 7 10 1 3 5 34 33 18 32 11 6 21 14 13 3 23 13 14 35 31 38 33 17 2 6 11 35 19 30 5 25 2 36 6 24 33 39 10 34 38 29 34 8 25 39 25 8 6 12 1 21 35 8 33 8 35 33 31 3864 2740 3461 3267 4605 3705 4230 3315 3785 4158 4038 4241 4023 4890 3453 3263 2901 2880 2548 4546 4296 4030 3593 3725 3525 3583 3853 3014 4265 2544 2710 3483 3208 4508 4908 3764 3910 2613 4987 3696 4626 4919 4075 3574 3167 3938 3218 3028 3596 4765 3485 2903 3660 2819 3834 3632 4184 3480 2770 3270 3034 4391 3356 3085 4649 3943 3773 4355 4857 4623 2566 3025 3799 2885 3537 4814 3588 4749 3350 4830 4503 3433 3189 4249 3351 2812 3194 3932 4267 3855 4483 4987 4604 2597 3726 4863 3381 2512 3913 2592 3778 3351 4343 3868 2659 3876 3768 4484 2605 4288 2669 3914 3153 4491 2839 2934 4813 2781 3958 4130 3035 2956 3534 2769 4833 4073 4271 2724 4042 4686 4452 3164 4115 3497 4998 3406 4824 4430 4999 2646 4375 4485 4149 4982 3494 4541 2781 4072 4224 2670 2648 3555 4945 4973 3792 4524 4736 2555 2723 3150 4285 2990 2852 4634 2921 4931 4789 4970 3812 3701 3483 2509 4370 3875 4836 3882 3680 4723 3019 3510 3918 3806 4936 3741 3973 3668 4405 3237 3130 4075 2937 4774 3700 3587 4911 4393 3707 3883 3530 4590 4276 2639 3389 3239 4900 3437 2826 3512 4442 3267 2949 4224 2701
25 34 6 9 38 23 36 14 12 0 34 4 8 27 10 9 17 34 38 26 26 13 7 21 24 28 33 33 8 24 15 33 34 16 27 14 38 23 10 28 33 22 36 9 34 14 18 5 19 31 18 2 15 11 36 27 6 9 34 17 36 25 31 38 11 35 12 30 11 25 29 31 3 29 28 23 29 39 33 10 14 11 33 17 22 15 6 2 23 5 8 37 29 27 34 19 16 13 5 28 23 25 5 33 20 21 6 21 29 33 3 13 19 5 23 8 2 36 7 11 30 23 23 37 28 36 22 39 22 25 17 15 11 3 22 2 38 28 20 11 2 16 31 5 30 20 33 18 7 29 3 31 33 11 11 17 25 19 26 15 38 36 14 20 27 28 3 27 22 39 37 29 8 39 37 9 11 5 38 32 4 20 23 23 34 6 13 35 38 26 16 34 11 28 14 13 9 14 28 26 1 14 18 17 21 28 20 12 11 9 26 1 2736 4665 3925 3314 4845 2716 4970 4776 3258 4500 4211 2634 2526 2889 3650 3042 2537 2703 4789 3132 3123 3975 2527 2923 4389 2662 4453 2596 3783 2956 3747 3565 2524 4785 3452 4450 4662 2546 4975 3316 4463 4732 4851 3745 4975 3549 2769 3990 2672 3284 2544 4146 2506 4923 3169 2724 4054 4008 4871 3285 3167 2779 4971 2679 3417 3805 3201 3053 3261 4318 3890 3670 2600 4281 4806 3350 4650 2590 4931 2615 4992 2937 4090 3478 3343 2890 3860 3779 3417 4154 4911 4880 2931 3199 3875 3612 4419 3321 2817 4684 4653 3138 3837 4627 3819 3741 4196 4238 3305 4568 2571 2505 3526 4373 3416 3436 2928 4296 2569 4171 4592 3533 4122 3991 4885 4026 4384 2806 3591 3927 4058 4749 4020 2754 4910 4087 3114 3309 4066 4692 4945 4753 4424 2699 3457 4347 4127 4188 4054 2557 4983 3170 3254 3107 4544 3507 3159 2603 4886 3307 2536 2972 3995 3204 2581 3205 4682 3172 3085 4829 4382 3812 3498 2660 2662 3825 2667 2873 2820 4515 3860 4982 4272 3097 3590 3623 4723 3265 4347 4386 4585 4172 2872 3791 3613 3599 4780 4098 4127 2503 4385 3568 2659 4616 4829 2731 4633 3873 4641 4908 4840 4985 3442
24 33 13 7 13 19 20 23 19 31 0 37 6 22 7 39 36 31 32 17 29 21 10 31 11 8 32 13 18 25 2 31 31 27 5 11 28 29 22 19 34 16 3 22 1 2 26 35 12 14 31 13 17 35 19 8 36 13 20 14 20 26 33 12 31 6 35 32 8 37 12 31 38 10 29 30 15 25 8 22 3 31 29 22 32 24 8 27 39 2 2 12 18 34 32 25 37 18 20 19 26 5 35 9 27 15 24 14 3 9 31 19 37 11 4 37 23 22 17 26 5 33 29 30 30 19 21 14 23 6 36 4 25 3 36 1 23 16 8 31 10 6 8 20 25 26 28 16 25 21 16 5 31 36 19 8 10 24 8 7 5 34 28 37 32 2 36 31 2 36 25 7 26 37 6 4 21 35 10 12 1 31 1 20 35 31 30 10 22 21 12 14 13 39 11 30 10 38 31 9 9 4 32 18 36 23 22 1 25 22 31 24 3299 3058 4943 4726 3883 3587 2892 4646 3579 4173 3972 4480 2724 3170 2940 2771 4826 2944 3424 3049 4359 3444 3904 4084 4417 4479 4437 4584 4316 2881 3828 3247 4557 4980 3437 4953 3810 4558 2611 4077 4649 4677 4174 4088 4269 4206 4968 3142 3220 3208 4321 2513 4562 2533 4512 3594 4647 2888 2889 2518 3376 4386 3730 3858 4783 4507 3428 3830 4477 4758 3296 3807 2885 3534 3163 3657 2548 2897 3800 3993 3461 2695 4966 3884 3492 4128 2832 4575 3226 4304 4980 4535 4784 3336 4460 4514 3155 2746 3888 3819 3979 2778 2763 4826 2849 4784 2557 2892 4400 4373 4886 4082 4460 4158 4696 2859 4425 4655 3001 3186 3299 3587 4653 2953 4977 2588 2897 4895 4504 3666 2706 3002 3247 3529 3013 3095 2513 4482 2690 4524 4649 4183 4508 4570 4310 3372 3304 3859 3209 2958 3570 4322 4893 3535 2589 3909 4675 4814 3220 2544 4019 4551 4261 2648 2694 3048 4630 3470 2597 4561 4236 3333 4017 3149 4846 4194 4716 4392 3200 3813 3095 2522 2545 3032 3807 3008 4472 4601 2832 3490 4044 3687 4405 2982 4355 2545 2846 3286 3847 3426 4945 2616 4499 4736 3146 2826 3616 2529 4484 2788 3224 4422 4092
26 2 5 26 12 30 19 11 39 31 6 0 19 31 3 26 13 18 39 31 38 28 19 13 25 13 4 32 1 8 7 25 28 4 18 35 25 28 33 29 7 19 12 21 3 16 38 38 3 8 17 3 16 37 14 18 23 7 37 6 7 24 37 36 34 9 38 7 6 15 3 32 11 13 33 31 30 17 28 37 25 8 25 7 36 13 1 24 20 29 18 27 15 12 10 23 29 35 36 13 19 30 16 25 35 22 25 3 9 31 6 15 32 31 11 17 24 8 20 15 4 35 2 23 25 13 5 7 12 6 29 30 16 7 2 15 5 39 26 36 36 27 14 31 30 13 6 33 21 20 14 30 33 36 21 20 19 15 29 28 7 26 16 14 3 13 33 3 18 11 21 4 30 2 15 39 28 30 17 17 16 13 5 9 19 35 14 8 29 39 14 13 7 24 26 14 6 10 34 25 31 3 6 21 26 4 25 27 4 17 18 7 4181 3073 2994 4281 2930 3038 3683 2882 3214 2852 3833 4499 3318 3672 3279 2640 3450 3988 3168 3027 4946 3428 3623 3519 4689 2503 4176 3455 3067 4317 4032 2682 4984 4120 3456 2654 4373 3290 2624 2538 4205 2718 2971 2932 4325 3481 3346 4345 4605 2554 2877 4615 2508 3357 3870 4625 4936 4037 4652 3998 3369 3730 3555 2981 4496 3629 3565 4469 2539 4443 4985 4379 3031 4805 3648 3491 4809 4600 2584 2945 4980 3954 4677 4125 2815 3627 4739 4303 3785 4566 3012 2557 4695 4833 4983 2680 3160 3366 2766 4354 4307 4791 3955 2712 3255 3348 4690 3315 3012 3798 2645 2887 3978 2896 4401 3248 3245 4737 4652 3764 4971 3158 4885 4472 2646 2647 4076 2559 2941 4298 3490 2620 4339 3324 3553 4228 2881 4012 4033 3807 4884 2648 3283 3304 3372 4706 3100 4702 4968 2953 2517 4678 3440 2606 4060 2594 4749 4577 4996 4088 4570 4379 3918 4738 4352 4199 2814 3262 4179 3313 4564 3046 2799 3664 4086 4328 4249 3411 2876 4678 3614 2568 3922 3017 4654 2549 4057 3736 4205 3988 4459 2988 3615 2600 4449 4568 4884 4071 4625 4235 3028 4926 3442 4915 2770 4413 4063 3229 4827 3587 3036 4439 2878
11 32 13 33 5 9 23 9 10 11 5 36 0 4 11 28 21 19 27 17 34 13 7 6 23 31 26 34 5 7 8 26 38 4 31 5 23 34 16 33 26 9 1 5 24 4 32 35 13 31 13 30 20 28 21 13 19 24 30 11 33 1 25 18 16 18 6 21 15 13 5 12 23 21 28 22 24 27 23 24 32 28 28 6 3 1 8 3 17 33 31 32 17 1 2 18 9 23 1 37 19 38 4 8 12 9 38 1 12 18 8 8 9 39 8 17 11 6 7 11 14 34 28 19 32 16 38 19 26 24 8 5 16 34 11 22 5 11 9 20 37 27 31 4 18 33 39 18 22 20 29 29 32 39 35 20 18 34 30 11 7 1 26 10 29 21 4 1 2 5 28 4 20 2 5 19 28 18 12 20 17 12 15 17 33 14 33 22 5 5 3 19 39 4 23 23 21 28 1 1 14 2 25 31 3 21 9 37 18 32 39 28 2604 3898 4932 2624 3077 3221 2992 3976 2863 3174 4712 4302 2883 2740 4819 3155 13 4188 4329 4948 4530 3063 4824 4220 2713 4363 3747 4361 3164 3955 4767 3033 3408 2855 3371 4714 3409 3734 3676 2628 4609 3553 3991 3732 4770 4896 2578 2545 4048 4900 5 3901 3823 4027 2886 4316 3458 3590 4725 4067 3305 2868 3793 3085 3038 4119 3477 4076 3564 3406 2795 2645 3691 3055 2537 4444 2828 4185 4627 4199 4405 4254 4415 3740 4872 3237 4483 4005 3833 3322 3340 3191 4556 2529 3449 3437 4527 2574 4773 2828 4654 2629 3309 2980 4729 4660 4472 4446 3714 4582 4277 4202 4546 3686 3034 4365 4596 3352 4980 2781 4255 3637 2547 2767 3334 2538 3868 3069 4855 4059 4820 2777 4361 3331 2600 4550 4319 4174 3496 3728 3612 2984 2814 3371 4290 3916 2572 3277 3926 4493 2692 2840 3616 3071 2963 3562 4751 4936 4702 3971 2997 3264 3531 4054 2729 4831 3856 3411 3582 3553 3476 3051 4494 3609 3592 3873 3075 4240 3633 4914 3604 3918 2757 4178 3351 3660 2719 3161 3502 2891 3733 3143 4974 3245 2501 4917 2999 4303 3803 4475 4210 3707 3446 4438 2694 2787 3375 3531 3856 4000 4384 2870 3317
38 38 26 26 36 31 3 29 28 25 36 14 30 0 37 4 26 31 20 19 37 9 18 24 22 22 31 15 29 3 13 3 11 7 35 21 32 32 2 17 5 15 13 15 29 25 24 30 24 14 28 18 25 6 39 26 20 38 8 17 28 5 4 1 25 28 38 13 7 12 37 5 9 37 27 21 15 2 1 20 35 28 20 10 23 24 27 2 6 24 18 37 32 4 33 33 10 32 7 14 26 15 14 4 13 37 1 16 28 32 16 2 16 27 3 8 30 6 2 28 11 18 28 4 20 15 28 19 19 33 17 4 9 9 5 20 2 3 2 2 20 20 31 39 30 25 25 2 37 1 1 29 18 35 3 10 29 19 36 3 34 15 32 34 19 22 20 21 29 28 36 13 39 11 35 12 10 14 31 34 16 26 32 24 8 15 27 28 24 3 19 36 3 32 39 19 28 7 12 29 37 37 26 15 9 2 10 17 25 17 13 38 3229 4005 3559 2864 4388 4457 2881 4215 4326 4792 4945 4370 3360 3554 2607 2625 4498 3516 3871 4948 4149 4380 4296 4626 3502 3528 2862 2746 4288 4141 3766 2653 3451 4818 3203 15 3317 3419 4604 2938 3402 2860 3277 2745 4155 4069 4231 4483 3938 3814 4173 4643 4849 2611 2671 3868 3624 3445 3331 3083 3647 4237 4647 2805 3201 4893 4528 4134 4342 3091 2511 4545 4390 2532 2640 2855 2510 3483 2515 4077 3470 3298 4091 4428 4796 4687 4146 3895 4618 3374 3773 3565 4855 2520 2780 4483 3954 4379 4578 4098 3703 3066 4277 2911 4642 4276 3831 4295 2874 3893 4976 3169 4258 2875 3801 3933 4507 2685 2893 2590 3238 4241 3701 4296 4718 2584 2756 4619 3106 3963 3066 4477 3833 3645 3770 3088 3434 3009 3933 4015 4764 4551 3139 4072 4667 4696 3542 4257 3379 3409 2703 3470 2569 4861 3429 2736 4957 3397 4477 2633 2892 2516 3939 4316 4727 4810 2876 3798 3482 2625 4387 3105 4687 4540 3949 2688 4095 4828 4972 2736 2564 3560 2511 4498 4719 4002 3822 2967 4186 4140 3091 4310 2912 4810 3067 2595 4621 3203 2828 3089 3711 3875 3865 3284 4695 3179 4802 3487 4135 4673 3695 4494 3021
4 18 22 15 7 30 39 25 14 9 19 34 27 7 0 5 11 25 3 34 17 19 39 36 15 14 35 26 33 38 18 1 29 8 6 33 13 34 8 17 7 19 27 10 16 33 17 31 12 3 23 31 3 31 33 24 33 21 28 31 3 24 1 33 19 31 15 7 29 33 26 18 27 27 6 34 5 2 22 37 8 28 9 9 26 21 18 10 31 25 28 5 19 14 32 37 12 26 28 32 13 17 7 23 36 37 16 9 35 18 39 2 33 32 20 25 1 34 4 15 22 39 36 17 25 31 21 22 26 28 4 31 17 24 14 9 14 20 12 35 37 19 29 9 16 1 32 11 4 34 20 7 15 1 28 19 11 22 7 8 13 33 16 4 19 38 36 26 1 26 18 18 20 2 14 13 13 26 15 12 2 10 4 27 8 1 2 29 18 22 10 22 11 10 21 1 10 8 30 9 12 4 37 3 9 35 22 22 37 20 24 24 3286 3450 3426 3748 3043 3578 4368 4041 2890 4488 4945 3090 4306 2570 2520 3629 2818 2847 3022 2963 4057 2587 2834 4481 4102 4458 4249 2683 2818 2788 2960 2723 3546 4468 3628 4521 3592 4189 3654 4905 3974 4708 4156 4193 4567 4104 4410 4247 3079 4251 4619 3905 2963 4090 4080 3545 3572 3429 3825 4385 3030 3561 2564 3637 4312 4966 3123 2596 2730 4415 2834 3806 2632 3050 3571 2697 4902 2865 4590 2934 4926 4653 3775 2752 3983 2544 4414 4123 4507 4436 3123 4468 3073 3708 4967 3036 3642 2707 4498 3481 2969 4512 4794 4865 2579 2578 4705 3574 4279 4574 2739 4964 2870 4949 4669 3305 2879 3947 4213 2661 3593 3444 4657 4918 3443 3127 4076 4730 2701 4815 4586 4451 4899 3808 4454 3436 3794 4957 4598 2649 4861 3119 3537 3711 3045 3761 2874 4124 4956 2671 4194 4630 2757 2598 3068 4490 3052 2873 3376 2929 2504 4100 4215 2989 3587 4957 4711 3431 4573 4718 4657 4599 4350 3339 3511 2783 3630 3431 2803 2635 3036 4555 4747 4579 3527 4651 4529 4138 2985 4791 3734 2946 4423 3593 4787 3671 3137 2725 3604 4478 3626 3455 4989 2635 2653 2829 4477 4039 4203 3645 3696 3182 4952
4 5 33 9 34 28 25 3 33 6 18 15 23 25 2 0 1 31 5 15 21 19 24 7 11 32 18 32 19 39 9 15 20 10 25 7 4 7 8 2 27 3 39 32 19 14 6 12 6 4 32 31 22 14 37 30 7 14 24 39 11 11 5 1 33 2 32 16 31 26 38 7 36 32 35 3 32 36 23 33 23 16 29 23 37 37 9 32 10 39 21 21 4 22 20 37 23 17 31 27 34 19 7 28 24 9 38 24 30 37 34 10 12 12 14 21 14 23 26 20 7 7 20 39 21 29 34 6 31 36 6 25 6 37 29 37 36 28 26 24 5 33 35 30 11 5 26 6 15 1 26 10 5 18 2 31 8 29 10 1 17 12 13 34 18 13 32 7 6 39 38 19 15 32 38 20 8 29 9 32 1 28 30 32 31 15 33 19 24 18 32 10 2 10 11 33 30 33 17 5 19 14 23 7 38 25 22 22 18 26 38 29 3029 3061 3522 3267 3937 3558 4225 2764 3146 3187 4718 3931 4653 3190 2550 3664 3034 3425 3841 3796 4456 3149 3477 4985 4364 3265 3297 3161 3999 3295 3432 4979 3513 3809 4358 2798 3283 3117 4553 4769 3135 4430 3492 3718 3732 3417 3469 4440 4576 4499 2634 3411 4405 4536 2774 4968 2945 2611 3392 4131 3946 4962 2690 2800 2958 4581 3016 3158 4002 3241 3478 2753 2575 3414 4097 3271 4723 4691 2977 4077 3683 3945 4865 4542 4951 4643 3396 4688 3446 3393 3023 4170 3624 4228 4379 2591 14 3170 4452 4611 2974 4870 2895 4653 3175 3634 4429 3742 4323 4376 3993 4899 4478 3911 4542 4293 4804 3491 3845 3425 3329 4418 3743 3559 4492 4789 4605 4146 3048 4989 3413 3275 3290 4992 4919 4817 3885 2594 4895 4520 3880 2837 3756 2942 2901 2619 2778 2921 3640 3400 3328 4588 3609 2934 3221 3053 17 4495 3224 3815 3698 4455 3352 3368 3789 3345 4522 4727 4037 4617 4911 3138 4551 4994 4056 3918 2790 4943 4803 3144 4759 4059 4607 3650 3206 3400 2500 4827 4816 3812 2626 4412 4285 4101 4388 3414 2844 2801 3528 4256 3157 3113 4667 2813 4157 2632 4219 3810 4392 2698 3775 3846 4207
1 21 1 36 15 4 37 19 19 20 2 24 14 28 25 20 0 4 34 6 36 26 19 36 29 35 33 19 2 32 28 10 1 11 8 10 6 25 2 37 6 33 37 1 25 34 20 1 11 24 26 18 7 16 21 1 29 26 6 24 25 22 36 11 11 28 26 20 18 27 10 8 2 18 33 10 28 6 36 14 22 15 34 3 16 5 20 14 25 34 27 22 25 8 4 33 33 16 32 18 34 20 39 8 18 24 14 24 5 32 17 32 24 31 23 29 24 1 23 35 13 39 21 8 14 30 14 15 30 8 14 29 34 2 12 33 30 14 17 13 19 35 24 37 3 4 36 20 36 27 32 23 14 28 39 7 24 12 1 6 5 38 20 10 22 13 5 17 29 33 29 21 19 9 13 34 14 29 7 8 31 8 6 7 26 21 22 3 13 27 8 19 5 34 23 10 20 35 19 34 39 6 11 12 20 35 33 7 17 21 17 12 4104 3469 3741 3350 4221 4251 3500 3575 4579 2681 2503 3999 3667 3963 3352 2780 3567 4165 4765 3881 4576 3452 3080 3588 3071 3833 4286 4482 2826 3463 2895 4059 4281 3202 3957 3068 2654 4816 3994 3204 4563 3222 4744 4729 4203 3151 3805 3790 2529 3199 3076 4919 4659 2808 4811 3929 2613 3307 4601 3808 4837 4998 4272 3009 3502 4069 3528 4435 4566 4644 4117 4349 2819 3482 3035 4358 4468 2955 4541 3080 4302 4531 4796 4794 2988 4294 4681 2711 3678 4818 3624 3148 2685 3357 3118 3706 4409 3271 4185 2860 3730 4994 4433 4657 3987 3523 4453 2934 3753 3015 4445 4699 4546 3649 4684 3103 4443 2720 3312 4708 4670 4997 3387 4951 3697 4844 4026 3404 3634 3894 3382 3530 3195 3185 4683 4987 3695 4018 3831 3166 4769 4065 2908 3609 3630 3656 3501 4761 3411 2791 4724 3472 2988 4253 2815 2973 3616 4013 2580 3525 3233 4083 4772 4383 3367 4914 3469 3288 2705 4826 4210 3884 4779 3232 3081 4520 4786 4861 4676 3705 4927 4584 3773 3456 4277 3416 4942 3417 3239 4955 3532 3210 4468 3946 4385 2586 4262 3345 3902 4534 3041 2585 2740 3116 4779 3723 3500 3108 4898 2910 3291 3968 2877
19 34 9 37 9 21 20 19 34 32 6 31 26 10 9 29 27 0 18 33 13 15 15 2 25 39 30 25 18 29 36 16 5 29 39 10 22 31 16 31 10 39 2 6 6 15 8 28 5 39 35 32 35 35 4 4 29 8 19 25 2 6 16 11 33 35 15 19 33 16 22 35 7 9 38 36 6 22 32 23 34 33 3 24 4 1 35 8 39 16 21 13 17 16 1 30 10 9 18 19 34 11 35 2 21 22 39 28 25 24 30 6 5 34 6 12 8 4 11 18 13 24 33 7 4 9 29 33 14 14 1 30 31 33 2 13 4 21 39 20 33 17 34 19 30 8 32 35 15 5 2 38 15 34 36 19 23 16 17 15 3 10 3 27 34 1 31 3 30 15 33 6 6 18 30 16 39 31 30 32 25 4 2 30 20 6 35 13 17 29 27 32 22 5 11 22 2 31 20 2 17 19 34 12 24 4 22 30 14 30 18 30 4924 3161 4053 4168 3917 2800 3662 4123 2830 3220 2712 3846 3283 2668 3781 3422 3926 3244 4747 2728 3921 2665 4039 2945 4750 3747 3643 4291 3208 3840 2695 4817 4722 4520 4443 4151 3290 3891 3951 3649 3816 2724 4946 3163 4478 3009 4427 3587 2501 4943 4635 3044 3107 4825 4860 3012 3074 2710 2956 4216 4768 2585 3388 3700 4248 4008 4477 2537 4567 4894 4471 3796 2830 4021 4977 4725 3014 4435 3865 3412 3601 3515 4477 3700 4771 2618 2552 4735 3567 3979 3984 2645 3884 4757 4657 4991 3583 3921 3670 3799 3059 3307 3467 2919 4967 4509 3911 4108 3996 4258 4245 2970 4211 4757 3266 3443 4653 3664 4192 2541 4670 3618 3229 4574 4143 4131 4530 2897 3095 2793 3228 4228 4098 4618 2914 4699 2704 2875 2754 4791 3003 2517 3267 2795 2874 3031 3593 2553 3524 4007 3222 3869 3021 4926 3219 4281 3178 4783 4591 2673 4056 3426 4593 4093 3863 4236 4561 4509 4999 3475 4165 2768 3136 4223 4657 3614 2728 4686 2507 4493 4208 3783 4876 2709 4507 3728 4720 4934 2862 3818 4957 4794 4804 4637 4360 2983 3523 2674 4600 2897 3585 4731 3601 3797 3603 3027 4975 3203 3349 3862 3556 4882 4452
5 18 33 8 23 14 5 37 32 34 32 19 29 24 1 24 13 11 0 9 36 18 37 10 32 24 34 38 21 32 8 17 37 31 30 38 13 3 18 10 37 38 4 18 26 19 22 27 13 32 21 7 34 27 24 9 3 34 34 3 27 28 36 5 26 35 14 26 38 15 3 36 34 29 39 18 6 14 21 21 3 13 3 3 18 4 23 34 33 13 10 18 32 14 29 1 18 33 37 2 12 17 18 32 14 38 28 30 37 35 17 4 30 4 7 31 13 10 27 34 14 29 14 6 5 12 32 15 37 24 21 17 16 37 15 19 4 8 33 23 26 35 29 18 12 36 1 36 6 14 12 15 31 38 13 11 34 11 19 3 10 37 24 7 9 9 2 3 31 12 27 39 39 26 31 15 37 39 26 3 33 34 11 11 10 38 9 7 29 11 26 22 19 21 17 30 39 33 7 2 27 30 20 5 16 16 1 29 28 5 21 32 4646 4066 4836 3635 4649 4743 4443 4475 2982 4487 3461 3141 3413 3263 3328 4052 4023 2846 3972 3930 2980 2596 4880 4693 3633 2954 4479 2919 3452 4308 2576 2883 4947 4389 4101 3640 3648 4195 4496 2534 4209 3154 4824 4985 4736 15 3103 3134 3029 3979 2927 4504 3708 4414 4480 4702 4590 3314 4743 4973 3459 3865 4872 4667 4400 4939 4034 4099 3131 4219 3984 3079 2966 2981 3540 4394 2891 4097 4875 2977 4475 4296 2926 2748 4234 3564 4410 4270 4642 4980 4144 4454 3191 4448 3096 3225 4790 3351 4635 3266 4813 4703 3509 3852 3295 3789 3838 3031 3996 3795 3583 3995 3275 4560 3823 3983 3924 2904 4626 2672 4818 2968 3281 3046 3673 4636 3454 4033 2791 4367 3258 3615 3808 3677 2713 3208 4412 2761 4936 4235 2556 3478 2937 3459 3926 3551 2524 3850 4182 4033 3377 4224 3700 4118 4051 3527 4575 3715 3030 3922 4735 3361 4578 4530 3857 3404 3435 3586 3698 3450 4021 2610 3958 3591 4377 4695 3269 4193 7 3345 4347 4312 4315 3464 4075 4400 2604 3271 3064 4489 3734 2636 11 4977 2746 3349 2849 4228 3781 4169 3085 4223 2856 3418 4202 3677 3698 4562 4985 4382 4866 2894 3511
25 16 3 5 22 4 30 32 38 25 17 26 39 8 5 6 21 25 36 0 13 36 28 3 20 1 2 37 18 33 7 14 9 29 36 17 5 2 5 15 9 30 4 26 27 11 13 18 8 24 16 25 29 21 38 25 9 29 33 6 11 7 35 17 27 24 14 30 27 25 9 20 24 9 24 14 9 12 32 22 39 20 3 5 7 32 3 26 37 18 8 23 12 39 37 16 7 24 31 1 20 22 6 22 12 27 12 38 17 5 22 10 34 13 24 15 23 11 34 4 11 13 19 30 34 37 17 27 4 5 27 32 35 19 5 11 26 33 6 17 1 14 4 6 7 13 25 16 14 2 9 28 17 14 24 3 24 22 18 39 29 31 5 27 35 7 9 1 16 4 13 32 7 25 39 38 23 11 31 8 34 27 16 17 31 34 32 32 37 37 13 37 21 39 1 20 13 20 5 30 2 27 15 33 17 16 12 36 13 25 22 38 3694 3976 4455 4869 4201 2744 4867 3450 4046 4535 3929 3494 4121 4874 2831 3194 3639 3325 4711 3265 3027 3639 2675 2602 4610 4359 3335 2642 4461 3021 3919 2553 3274 4939 4931 4155 3950 3621 15 3040 3083 3142 3934 4198 4661 3028 2596 3116 4581 3849 4052 4413 3661 2664 4896 3307 4592 2865 3873 2644 4491 3132 3599 2953 2574 4743 3662 3769 3824 4505 2754 4478 4070 4735 3132 3457 4426 4619 4212 3434 3285 4032 4469 4886 4877 4791 3992 3495 3529 3085 4325 3759 4577 3367 3991 3598 4574 3569 4644 3211 4967 2942 4411 2769 3641 4815 3810 4239 2931 3511 2515 2921 4693 3427 3910 3150 3476 2534 4151 4367 2718 3875 2983 4253 4803 3724 3593 3186 3189 3075 3253 4839 3714 2947 2777 3134 4252 3620 2964 4516 3420 2583 3726 4194 2947 4115 3677 4800 4569 4339 3748 4121 4146 3121 4409 2506 3075 4079 2824 4671 3778 3267 4906 3313 4298 2906 2626 3105 3478 2818 4987 4532 3150 2508 3899 4841 3972 2944 2956 4563 4773 4912 3201 4984 2683 3640 4544 3157 4497 2606 3799 2911 3139 3135 4569 4986 4504 4008 4716 4619 4104 4867 3627 4593 4732 3276 2567 3785 4574 2807 2682 2895 3605
28 11 11 29 30 35 26 39 7 7 10 9 19 38 25 8 34 10 30 20 0 33 26 22 11 12 6 34 29 18 27 11 15 20 11 34 2 2 6 2 10 5 24 14 22 29 5 25 35 4 33 35 12 36 9 2 13 18 18 23 18 30 36 39 29 21 11 36 37 25 6 25 11 4 10 29 38 36 23 34 7 31 19 37 16 1 39 21 25 37 8 36 19 7 14 20 13 12 5 39 27 14 33 38 31 16 30 38 11 6 26 8 11 19 6 12 4 11 34 15 19 27 12 36 22 18 35 5 14 14 3 28 33 33 17 23 22 11 21 7 30 13 25 2 30 22 39 16 18 26 23 20 5 33 14 30 19 20 19 15 32 21 14 15 35 18 37 39 22 39 16 26 2 11 20 9 15 16 35 10 24 19 14 28 32 24 8 6 14 1 21 17 7 33 25 30 1 36 2 13 26 22 1 23 10 21 7 11 38 1 14 18 3987 4935 3692 3454 4436 3920 4328 4521 4442 2663 4545 3421 4280 4720 4946 4050 4501 4589 2853 4475 3083 4351 3706 3032 4965 3611 3337 4687 3313 2866 2852 4358 2551 4943 2873 2796 4330 4386 4245 2856 2658 3047 4147 4667 2501 4068 4126 4788 2821 3389 4465 4079 3837 4811 3637 4474 4958 16 4262 3305 3482 3900 3994 3531 2603 3318 3335 3553 3494 4141 2758 3339 4510 3038 4972 4015 3757 3080 2809 3249 2680 3186 4451 2734 3394 3005 4202 3638 3172 3971 3917 4326 4602 4805 3793 4514 4024 3873 3864 4636 3041 4237 2906 4055 4727 2755 2769 3732 4446 2640 4843 2938 2687 3140 3950 4756 2595 4426 4607 4103 3581 3346 4947 2981 4237 3230 4616 2629 4547 3735 3169 4048 4270 2648 2703 2759 4609 3553 3609 4780 2533 2521 3491 4579 4976 3089 2721 4339 4318 3385 2805 4495 3305 3923 3545 3629 4885 3386 4401 2856 4551 2872 4174 2829 2842 4367 3279 3823 4768 3980 3413 4490 2575 2627 3375 3732 2610 3722 4081 4131 4352 4976 4117 3179 3483 3460 4142 3047 3391 4671 3300 3917 2741 4338 3581 4557 4354 3512 3545 4295 4035 2535 2988 2839 4765 4253 3081 3081 4348 4141 4510 4544 4286
36 33 21 13 20 11 7 20 19 21 4 20 32 10 16 36 37 22 19 4 37 0 14 27 1 31 35 25 28 22 13 11 24 13 9 23 5 2 29 14 3 16 30 31 35 7 14 3 35 4 36 11 36 11 29 14 36 21 17 23 36 29 9 38 25 26 20 36 32 38 3 13 14 30 26 17 29 37 23 14 2 32 22 7 29 3 21 31 30 39 25 30 22 29 22 38 13 29 19 24 23 35 16 2 34 37 37 14 22 25 1 11 3 14 6 19 31 4 26 35 25 29 10 13 10 10 34 30 31 3 4 27 1 35 16 36 16 37 17 6 37 34 36 7 26 34 14 1 6 27 9 19 34 9 34 17 26 3 12 36 12 39 20 25 24 4 6 29 9 15 19 4 29 28 11 36 1 5 34 4 2 21 34 11 35 3 14 5 25 4 25 21 38 37 18 9 35 22 39 38 37 35 17 24 30 20 23 13 4 34 3 38 3614 2887 3075 3512 2527 4336 3811 2834 4536 3794 3544 3365 4455 3014 2923 4821 4488 3187 2694 3959 2669 4189 4826 3213 2835 19 3654 4413 4396 2596 3889 3726 4508 2688 4622 4641 2863 3253 4270 4571 4950 4951 2836 2649 4112 3751 2547 3554 3288 3911 3471 3368 2962 2587 2926 4259 3077 2511 4407 4362 2636 4510 4943 2741 4395 4460 3652 3151 2941 2716 2517 4757 3743 3739 2879 4259 3256 4293 2928 3654 3446 3864 3684 3087 4122 4211 2815 3972 4771 4654 4344 2511 3873 3794 2922 2595 4701 2824 4753 4469 4671 4462 2743 2847 2791 4453 3694 3044 3896 4787 2816 2725 4491 12 4012 2725 4452 4700 4425 4937 4522 3872 3352 2735 4438 2956 2637 3233 4057 2682 4694 3939 3152 4849 4421 2796 4815 3009 2915 4685 4241 4285 3589 3816 2617 4281 4593 4419 4323 4495 4758 16 4199 4790 4083 4705 3102 3031 3983 2739 4792 4175 2845 4828 4677 2503 4732 3783 4195 3654 4951 3935 2721 3928 4036 2566 4879 4770 4861 3945 3716 3434 3378 4925 3009 4831 4517 4272 3377 3825 2876 3851 2578 3956 3635 3730 2719 3733 3263 3826 4552 3606 3376 4095 3472 3087 2799 3588 4036 4499 3378 4657 4344
6 21 1 22 6 36 27 8 20 5 28 2 22 16 34 6 4 37 20 30 36 22 0 33 31 38 20 22 17 2 4 33 31 15 4 4 38 10 37 14 22 32 31 25 23 21 21 7 23 24 30 9 35 36 1 7 5 1 6 32 27 23 24 28 29 15 25 31 37 5 9 4 10 20 28 20 37 9 28 9 9 24 5 30 37 21 18 38 38 19 16 17 34 1 7 6 17 38 13 28 25 4 31 11 30 8 15 30 18 23 32 10 33 21 12 6 36 1 31 39 19 34 35 36 33 31 9 4 8 1 20 14 16 20 24 34 28 33 13 14 20 22 3 26 37 17 22 2 17 18 23 31 20 36 24 14 24 12 38 34 3 23 6 26 35 8 38 18 12 14 39 37 34 31 18 11 29 33 2 37 30 26 25 16 12 16 2 39 2 24 17 26 16 10 3 4 27 36 8 34 37 18 35 35 30 4 5 1 35 22 32 30 3178 2541 3357 4538 2846 3486 3569 3364 2792 3964 4825 4696 4156 2992 4632 4930 4561 2811 4050 2790 3441 4301 2644 3710 4493 4952 4967 2597 2607 4517 4007 2723 4063 3174 3869 3286 2768 4346 4485 2505 2767 2859 3963 4339 4523 4702 4273 3459 4620 3775 3799 3796 4511 3218 3918 3498 3912 4338 3103 4316 3990 2646 4993 4014 3443 3319 2566 3676 4139 4321 2806 2569 4943 3698 3985 4011 2504 2967 3197 2934 4990 4953 3072 4199 3334 3781 2853 2856 3408 3029 3502 3190 4298 2842 3977 3037 3491 4300 3600 3665 4317 3156 3960 3242 3253 2974 2887 3842 4947 3697 2511 3057 4502 3146 3753 4583 3789 3709 3978 3537 4992 4632 3689 4567 4606 4034 2894 4650 2587 4540 3329 4243 4843 3402 4291 3126 4502 3328 4627 4759 4978 3943 3260 3093 3066 4388 3025 3672 4754 2540 4424 4400 2500 4854 3869 4511 3464 3928 4399 4737 3079 2723 3193 3591 3316 4403 3900 2803 2899 4020 3932 4678 4406 4007 4559 3605 4024 4758 3189 3700 2772 2951 2573 3353 4374 3337 3622 3082 3855 4181 2739 3512 3657 3028 4770 3900 4887 4746 3599 4972 2571 3090 4320 2999 2996 3206 2568 2693 2900 4034 4200 2745 3528
11 39 37 37 3 27 39 38 5 17 9 10 17 22 39 2 14 32 3 16 35 39 9 0 39 34 4 26 10 33 18 29 22 19 16 23 2 25 38 9 35 1 12 30 5 18 2 31 10 26 25 36 25 35 38 13 30 14 22 25 2 8 29 38 16 20 8 6 7 8 27 12 2 17 11 22 12 7 12 32 39 6 13 36 32 12 16 36 21 35 39 19 3 11 11 14 8 7 7 16 26 2 30 16 16 3 30 38 10 18 20 14 36 35 13 23 16 21 32 23 32 19 34 24 26 28 28 23 18 28 13 38 4 9 39 29 30 13 39 16 23 16 35 30 4 33 34 32 3 16 38 1 23 16 5 18 11 15 25 35 9 26 24 10 24 34 36 18 4 14 32 8 24 37 30 7 4 34 33 9 16 22 37 20 15 21 36 3 4 26 13 35 22 29 24 33 4 22 15 4 13 38 4 23 15 24 34 12 1 36 11 28 4533 2839 3100 4755 4462 4733 3439 3450 4929 3790 4829 2564 3506 4534 3478 3051 4372 2637 4940 4221 4198 4409 4455 2970 3651 4615 4736 3016 3720 19 3376 4143 3545 3648 3924 4176 2985 3111 4582 3596 2534 4171 3624 2555 3711 3421 2570 2638 2873 2558 3500 4325 4651 3667 4756 3046 2935 2656 3053 2596 3894 2752 2540 3686 4166 2710 4202 3693 2874 4447 2611 3028 3084 4707 4622 3299 4972 3841 3978 4707 3160 3958 3977 4962 4201 4619 2705 4826 4089 4844 3796 3710 2556 4958 3133 2670 4468 4080 3795 3198 3535 3797 3716 2949 4118 2766 4199 3338 4503 4241 3497 4654 3951 3443 4630 4523 2708 4711 2539 3020 3813 4686 3527 3825 2812 2864 3313 2652 4921 4166 3524 4600 2597 3092 4052 2537 4168 4682 4790 3577 2591 4055 3407 2562 3089 4567 2984 3863 3349 4481 3439 3574 4376 2806 4593 4988 2576 3038 2526 4608 3340 3074 2592 4340 3276 4059 2931 4776 4562 2837 2755 3023 3547 3777 3530 2647 3512 3706 4582 3479 3838 2719 4045 3182 2971 3109 4602 3113 2825 3232 3836 2641 3127 2532 4506 3389 3225 4481 3713 4425 2592 4134 4620 4101 4523 4374 3893 4011 3338 4924 3127 3786 3048
25 8 4 25 19 30 34 10 28 27 36 26 3 16 13 16 8 12 34 24 4 22 5 10 0 18 5 35 38 28 7 31 27 20 5 32 29 17 12 13 27 27 4 27 34 36 6 38 37 11 39 29 33 9 33 16 20 28 8 29 11 22 33 9 35 3 34 22 9 35 33 8 37 36 33 20 9 9 14 11 5 9 29 20 11 14 38 27 28 12 5 38 5 6 14 30 4 2 33 8 8 27 31 1 22 7 14 23 22 9 28 14 8 13 13 19 22 16 20 37 32 16 15 23 1 39 33 3 31 20 13 2 5 1 37 7 37 14 31 4 16 27 26 27 18 6 15 11 29 4 25 19 3 24 6 28 15 37 39 9 37 20 27 27 37 17 7 2 7 29 2 32 12 30 2 13 27 32 30 6 12 36 36 38 35 6 16 29 11 36 13 8 25 1 17 5 27 23 3 14 6 14 34 6 12 20 6 8 35 22 33 25 3032 4957 2598 4986 2774 4200 4327 3991 4275 4814 3525 2862 4307 4940 3314 4104 3006 4978 3499 3353 4985 3751 2659 4425 3507 2917 3335 4311 3656 2882 4038 3493 4929 3784 3116 3483 3384 3623 3921 3430 3554 4748 4644 4171 2599 4583 3608 4676 4621 2726 3364 2593 4537 4401 4193 4413 4916 2885 4769 4186 4308 4100 3293 3161 3124 3884 4728 4069 2978 3270 3446 3730 4234 4645 2842 3182 4571 4274 2649 4247 2591 4564 3584 4947 4342 3204 2561 2788 2503 3726 2860 4773 4757 4224 4854 4948 3028 4082 4609 3900 2669 3946 3498 4668 4914 3894 4062 4529 2742 2721 4720 4329 3034 4706 2982 3484 2648 2886 2692 4253 2941 4406 4708 4636 3315 2711 4902 4650 2675 2938 4030 4878 4346 4154 2875 3771 3666 4963 4624 4893 3956 4102 4365 3713 3439 3868 3829 2684 3900 3557 3903 2961 2752 3352 2587 3633 3890 2565 4685 3640 3074 4611 2936 3132 4758 4152 3055 4593 3122 4949 4547 2791 4841 4840 4028 3093 3619 4474 4775 3275 2901 3033 3752 4749 3108 2757 3621 3308 4793 3347 3500 3901 2663 3581 3472 3559 2988 3486 4798 4314 3390 4680 3820 2840 3377 2856 4684 4366 2707 2937 2695 4332 4541
26 34 14 34 1 29 19 26 36 17 2 12 35 3 26 16 2 19 19 34 15 31 35 2 17 0 14 34 29 28 38 25 14 26 34 32 25 21 31 3 34 36 5 17 16 15 2 24 21 9 36 11 6 33 17 11 38 30 28 13 11 13 8 29 20 16 26 3 29 10 5 39 38 25 21 35 1 8 23 34 19 3 31 4 35 36 34 20 19 9 39 39 22 17 3 16 38 31 18 35 7 1 11 5 25 39 11 21 25 24 1 11 16 30 34 35 17 39 3 27 35 36 12 31 7 2 39 6 37 39 3 9 37 12 36 1 26 29 11 2 2 28 36 36 35 32 35 19 25 38 13 11 7 37 15 8 13 21 15 22 27 5 10 23 27 16 38 28 17 28 21 7 19 6 5 8 6 24 24 17 33 31 30 38 3 2 18 18 2 1 28 30 28 33 2 39 16 33 21 27 29 35 30 25 24 3 10 38 19 10 35 29 3547 4306 2804 3612 4246 2945 3427 2574 3183 2689 3515 4270 4701 3566 4101 4759 4591 4561 3246 3290 4361 3508 3165 4465 3309 4810 4439 3551 2781 4595 3603 2782 3091 4756 4795 3574 3378 4999 4466 2789 3825 3845 4987 4452 4063 4418 4791 2750 4937 2633 2962 2645 3271 4066 2941 4809 4764 2836 4106 4464 4092 2537 4150 3098 3649 3451 3034 3814 4633 3670 4186 4502 3748 3008 2751 3943 3559 3016 4386 3832 4811 3885 3608 3839 4744 4536 3962 4457 4862 4600 4891 4992 4080 4531 3592 4083 3152 4900 3473 2972 3816 2749 3908 4974 3490 2920 2856 4068 3888 4411 2602 4823 4251 2582 3304 3475 2748 4487 4669 2960 4392 2636 3791 4310 2760 2757 12 3627 3497 3718 3711 4497 4345 4539 3378 3021 3881 3160 3615 3585 4108 4624 2789 2958 2597 2719 3043 4765 2652 4263 4351 4522 3375 19 2513 2508 2752 2544 4805 3543 2632 4829 2966 3470 3258 3487 4726 3307 4517 2883 4027 3355 2575 3417 3905 4572 2619 2740 3115 4408 4373 3985 3452 4265 2897 3550 4897 3569 4614 3628 3455 3282 3187 4049 3165 3669 4956 4772 3587 4377 3450 3546 2704 4898 2917 2649 18 4063 4308 2938 4396 3949 3703
16 28 28 13 11 32 12 15 38 39 18 15 6 33 8 5 12 32 32 39 29 27 29 4 22 31 0 37 12 30 37 26 34 26 28 26 27 22 37 27 22 8 5 15 31 5 8 38 24 16 38 14 3 10 35 23 15 6 25 17 30 29 24 32 2 22 36 19 16 35 38 2 33 10 17 14 29 8 3 16 25 20 36 9 21 8 38 3 10 30 13 28 11 3 26 36 1 36 15 22 3 32 7 37 27 8 35 5 36 27 29 4 25 19 30 1 36 9 30 7 1 7 16 24 32 34 12 11 13 9 21 37 2 6 21 9 32 39 5 5 34 33 17 4 6 15 18 7 10 24 5 17 16 20 23 10 32 12 2 36 13 1 31 16 22 11 1 34 8 19 4 31 8 19 36 24 26 14 5 19 5 38 10 13 14 5 32 32 20 36 11 5 34 1 29 35 35 21 28 35 22 11 12 6 14 27 10 38 33 26 7 35 3115 3005 4247 4550 3566 2763 3995 4268 4064 4121 2535 4187 4590 2983 3203 2768 4545 3881 3500 3053 2889 3683 4840 4526 3967 3614 3396 3477 4086 3889 3097 4067 4335 2868 4399 4753 4470 3099 4992 3761 2934 3254 3914 3007 4895 4592 3341 4707 2927 9 2586 4479 3997 3650 3515 4267 3670 3312 4732 3890 4218 3516 3616 2548 3588 4333 4689 4821 4949 4081 3546 2963 4080 4373 4623 4410 4318 4596 2502 3786 2736 4422 3472 3616 2826 3442 3026 4465 4449 3961 4450 3073 4802 3992 2601 4239 4389 2823 3792 3974 3946 4404 2522 4827 4358 3961 3687 3534 4840 4200 4207 4459 4711 2968 4901 3998 3874 3314 2789 4625 4143 2933 2849 4572 4755 3591 4652 4683 3482 3322 2667 4329 3224 4597 3584 3694 2974 2769 2851 4947 4066 3867 3245 4058 2920 2780 4346 4121 3594 3209 3972 4989 4271 4088 4636 4771 2705 3476 2741 2550 3535 2542 3734 2943 4120 3390 4573 3800 3160 4111 2658 4954 4228 2598 4594 4048 3414 3695 3635 4091 4499 3883 2850 4729 4138 2885 3629 3936 3046 3070 3653 2537 2853 4241 4666 4463 3376 3674 3666 3990 2787 3634 11 4488 2873 3281 3612 4707 3042 4506 2858 4213 4498
28 33 38 37 12 38 25 5 4 16 37 11 22 17 5 26 23 34 30 22 13 28 12 2 26 6 30 0 23 34 29 38 16 28 23 39 3 27 6 18 5 29 26 38 5 28 14 39 22 15 30 17 27 26 2 13 27 13 6 27 12 23 10 27 6 7 22 21 11 4 4 14 4 13 19 12 32 24 35 22 27 8 3 5 2 12 8 1 2 30 15 7 32 22 8 34 9 18 37 14 6 29 27 11 31 13 34 13 8 16 20 7 19 12 6 29 39 9 9 17 35 38 35 12 19 18 19 16 8 33 11 2 10 38 37 34 24 26 1 12 8 28 32 29 36 6 29 22 23 5 27 37 30 6 39 24 39 36 38 38 39 35 16 31 18 20 39 33 20 9 35 38 10 35 38 2 31 23 17 28 1 36 27 31 37 14 6 29 29 19 35 29 6 30 39 2 32 17 38 15 24 18 23 14 36 25 10 26 2 37 18 37 4370 4921 2763 4742 3932 3760 4833 2923 3620 4341 3038 3764 3648 2906 2983 3996 4856 2689 3052 2664 2791 3110 2926 4742 2990 2725 3302 2602 4288 2905 2954 4405 4042 4380 4786 3257 4225 3161 3082 3283 3119 2930 4158 3248 3941 3954 4494 3409 4123 4324 4996 3249 4728 4411 2843 3905 3198 3318 4149 3519 3983 3312 3710 2642 4371 4781 4605 3612 4821 2545 3733 4356 4935 3676 4130 4136 3941 3787 2509 4074 4366 3142 4685 3890 3429 4501 3255 4683 3022 4915 4104 3743 4585 2863 4671 3804 3916 3091 4597 2902 3815 2531 3714 2981 2999 4708 4181 2540 3122 4459 3011 4286 3285 4419 3319 3594 2929 4487 3853 3542 3828 3177 4393 4645 2585 4636 3865 3852 4587 4027 3111 2891 4773 4651 3309 3209 2965 3505 3004 3614 4677 2671 4206 4972 3934 4548 3050 3875 3685 3835 4650 4951 4898 2622 3859 4289 4198 2756 2500 3834 4338 4704 4286 2504 2957 3250 3855 3006 4206 4465 4433 4743 2519 4201 4786 3914 3456 2537 4516 4371 3829 3428 4084 4585 3510 3348 4384 3346 4154 3135 3915 4660 3307 6 3136 2787 2648 3920 4972 3518 2603 3565 4173 2805 4150 2654 2861 4453 3174 2813 2967 2731 2821
11 32 29 20 18 21 35 7 29 14 30 29 20 9 24 2 36 24 13 2 8 34 12 18 9 11 23 7 0 16 30 4 24 11 19 22 19 21 34 9 11 34 34 35 2 5 31 31 19 1 26 17 17 16 17 29 38 16 14 36 35 35 12 38 23 28 6 27 12 17 23 36 14 35 1 16 13 18 26 9 7 21 21 39 28 9 11 24 36 7 34 6 26 4 11 29 37 7 2 8 36 39 6 35 21 1 12 17 20 33 5 25 33 29 27 36 25 21 1 25 32 12 38 6 29 34 38 25 9 38 18 31 24 21 21 27 1 23 24 39 24 31 24 10 14 3 10 5 33 37 15 4 28 32 17 23 6 12 1 30 5 11 1 2 11 9 1 10 30 21 14 22 15 29 1 16 18 16 11 10 11 38 24 3 34 1 35 28 22 34 17 35 36 36 33 24 26 35 20 16 34 9 15 22 11 33 15 5 4 20 16 29 4609 3599 4420 3061 4769 3647 4828 4411 4152 4382 2858 3899 4191 4554 3027 2777 2600 3952 4954 2828 3494 4511 3586 4357 4927 3217 3691 4758 3265 2582 3177 2933 3484 3749 3446 3107 2753 3763 4965 3008 3406 3961 2670 2744 4918 4577 3956 4313 3868 4919 4858 3935 4837 3581 3823 3778 4740 3775 3522 3754 4255 2569 2914 4141 4085 4800 4854 2546 4298 4616 3393 4228 2674 2560 4474 2709 2852 2552 2735 4392 4593 4386 4759 4175 3440 3693 2819 3421 4936 2571 2974 4936 3614 2657 4115 3302 3968 2707 3067 4758 4253 4336 3627 2982 3423 4661 4548 3965 4024 3781 4848 3701 4826 3354 2769 2572 4329 2847 4635 3641 4357 3676 4670 3123 3691 3774 3122 2727 3313 3513 3422 3995 3632 4653 3889 4891 3314 3290 3510 4099 3909 3709 4564 4658 2853 2912 2935 3528 3535 3456 3880 4401 4538 2704 2654 4063 4412 4466 4049 3034 3021 3087 4105 4708 2644 3886 2758 4183 4958 2692 3700 3585 4130 3573 3743 2896 3727 3559 3276 4004 4062 11 4981 3039 4021 2816 3176 3707 3698 2541 2806 3367 3350 4271 3597 3924 4410 2665 3349 2529 2780 4420 4540 3495 3208 4901 4224 3636 4913 4214 3584 4534 4796
12 21 12 17 28 12 27 19 27 11 21 36 12 20 26 23 38 30 24 20 13 32 35 12 30 14 21 12 9 0 17 6 37 19 35 9 12 16 23 8 36 18 8 18 24 32 4 34 6 5 5 9 6 25 14 30 30 30 27 32 25 27 18 28 11 23 35 38 28 19 14 6 34 16 28 14 34 32 31 25 35 17 6 2 30 9 4 2 14 11 31 36 36 29 24 32 33 30 33 18 27 20 19 18 11 6 27 22 26 13 31 9 8 2 9 27 4 35 26 15 5 16 18 38 25 28 11 23 24 28 22 31 9 38 33 33 14 29 17 18 20 28 36 8 8 17 38 25 7 38 16 25 10 10 2 13 13 12 14 27 19 3 19 16 10 1 13 20 23 35 20 9 10 25 38 18 21 12 8 28 1 33 33 25 5 13 32 1 12 34 7 38 31 39 22 16 17 13 1 37 7 23 36 39 31 30 13 28 10 22 30 22 4155 4906 4769 4314 2520 3596 3033 3711 3846 3344 3389 11 4031 4435 3468 4561 4231 4538 2920 4941 4179 3712 3385 3654 2923 4676 3856 2956 3564 3791 2767 3953 3045 3181 3219 3901 3793 2823 3433 4840 4669 3278 3373 4235 3505 3327 2988 3697 4956 3754 3711 4257 2819 4267 3688 4433 2519 3966 3813 3786 2692 3171 3911 3212 4201 3185 2855 4340 4685 3343 2564 4579 2530 3859 2576 2886 4466 3273 2694 2922 3148 3614 3553 3418 3626 3689 4751 4855 3389 2562 3944 3568 4908 3550 2651 4386 3785 2519 2805 4044 4368 2804 4301 2965 3035 4332 2956 4633 3127 4393 2945 4566 4848 4275 3853 2543 4861 4554 3432 2652 2685 4718 3225 3575 3159 4160 3906 2920 3848 3853 2801 4043 3626 3102 2954 2545 3543 3750 3004 3830 3476 2999 3362 4626 3986 4669 2725 3891 3264 3734 2936 4590 4305 4410 3920 2822 2650 3686 3666 2934 4303 3350 4677 2564 4036 4498 4681 4674 4067 3172 3635 3922 3621 2592 3404 3810 4338 4801 4681 3927 4366 4419 4281 3003 4032 3222 4388 3062 3356 4026 3999 3470 2814 4521 4624 2696 3038 2586 4332 3961 2913 4530 2982 4201 4403 3975 3450 4133 4913 2660 4037 2715 3135
24 2 14 31 39 23 11 34 24 20 27 37 28 25 3 24 4 29 35 6 37 16 5 19 7 3 13 9 28 30 0 5 11 15 8 36 27 11 22 28 10 6 36 1 6 39 10 37 35 20 3 4 21 24 9 15 30 5 35 33 11 23 16 28 15 10 25 21 11 2 28 17 14 12 11 8 9 15 5 23 31 25 19 28 25 10 14 14 30 18 24 12 12 29 19 22 23 36 14 16 18 22 3 12 32 36 3 24 38 37 21 13 11 23 24 25 21 7 1 4 23 2 15 6 24 22 32 21 2 12 8 19 4 1 8 4 32 31 18 17 6 26 35 24 14 29 36 22 9 16 27 20 5 36 25 11 32 11 17 31 29 25 7 2 25 14 15 17 1 9 3 33 7 20 30 35 4 30 37 35 29 4 22 28 9 28 32 5 19 17 36 25 20 16 9 18 7 29 8 24 5 20 6 1 12 34 33 8 35 20 29 7 4650 2666 3258 2582 3001 3783 4199 3992 2622 4543 3212 18 2757 3743 4719 4723 4680 2795 3112 2573 4999 3483 4678 3617 4668 2556 2905 2789 4552 3863 3978 3386 3634 4999 4879 4184 2950 4656 2690 2787 3867 3217 3823 3901 4883 4961 2788 2714 2617 4658 4102 4599 3281 4613 3295 4803 3039 3856 3867 2802 4981 3398 3959 4496 2879 3705 2819 2979 4731 4422 4579 3016 3344 2696 2859 3976 2622 2652 4385 2901 3054 3426 3903 4205 2856 3440 3643 4138 2880 4740 3199 3858 4128 4062 2754 3475 2546 3497 4155 2777 3182 2986 4777 4917 3357 4178 4019 4967 4687 2582 4871 2634 3129 3021 4795 3361 4918 3284 4099 4043 4598 3632 3032 3191 4798 4055 3760 4737 3657 3226 2945 3539 3017 4804 4812 3331 2675 2678 2819 3364 3889 3763 2903 4090 4535 3221 4298 4522 3258 3257 2546 4668 4966 3025 4962 3266 3813 2847 4743 3048 3205 4468 4113 3790 3860 3179 3188 2867 4834 3777 4804 3780 4142 3826 4595 2841 4536 4832 3872 3112 2551 2583 4389 3206 3443 4721 4179 3128 2526 3742 4553 4173 3658 3512 2956 3474 2772 4374 4146 4328 2901 4309 3433 3854 4168 4296 2966 3457 3138 3141 3296 3001 3023
21 39 19 20 35 29 22 31 36 12 11 32 19 23 28 38 23 34 16 15 38 8 5 12 38 4 36 35 9 19 39 0 12 37 35 17 31 37 16 23 29 1 14 17 1 28 4 24 31 38 26 23 37 8 20 35 27 26 10 9 34 8 11 37 25 24 2 37 22 17 16 36 35 15 8 31 32 24 7 4 15 21 37 7 20 23 6 14 7 33 35 14 35 5 39 8 26 20 6 13 26 11 2 16 25 35 9 7 29 20 14 19 36 33 28 1 27 22 1 27 24 20 8 32 22 27 22 28 10 2 17 36 37 10 26 12 31 6 33 12 6 10 32 25 14 34 23 1 22 21 15 9 35 38 15 39 1 9 9 16 35 37 21 38 12 30 5 25 9 3 27 16 6 19 23 8 17 34 32 8 1 7 38 2 4 26 11 9 24 14 21 34 25 31 31 38 7 25 24 16 31 1 7 18 14 6 16 39 37 17 2 21 3135 4210 4785 3290 2746 4310 3205 3594 4866 2563 3287 3142 4531 3893 4075 4606 2784 3051 4534 4245 3421 2799 3921 3192 3640 4473 4415 3679 4593 2604 3707 2942 4533 4570 3584 4195 4795 4663 3831 4335 4960 2986 4454 3814 4574 3914 2522 3569 4183 4302 3969 3514 3794 2630 2985 2969 3106 3909 3746 3612 3692 2571 4085 4604 2897 4480 4183 4958 3612 4410 3612 2798 3717 3908 4578 3650 4882 3572 4039 2888 4719 3667 3159 4059 3440 4143 2777 3166 2790 4772 3360 3026 2868 4025 3560 4739 3763 3544 3848 4439 2666 4281 2986 3749 3106 4382 3440 2581 4709 4313 2658 4346 3601 3069 3222 4913 4900 4725 4339 2663 3427 3598 3858 3065 4986 3195 2642 4295 4784 3616 19 4459 3548 2824 3555 3413 4940 4216 4082 3005 4480 4992 4855 2537 4090 4656 4634 4514 4112 2761 3613 4282 3040 4524 3202 4456 3919 4736 2535 4265 4153 4618 3825 2651 4170 2624 4907 4647 4584 3286 4416 4010 4257 4158 4096 4167 4926 3022 3728 3569 4234 2860 2742 3059 3804 3058 3504 2795 2953 4522 4531 4887 3939 4585 3569 4199 3870 3653 3602 4883 3381 2792 4045 4980 4479 2511 2665 3134 3515 2759 3699 3036 3916
28 29 30 18 22 18 21 22 34 9 13 37 1 28 7 3 22 19 12 17 34 6 24 32 23 12 13 9 32 25 20 5 0 5 15 12 16 23 1 33 9 39 2 24 38 24 21 19 1 30 5 23 25 3 14 16 3 39 17 39 26 34 7 5 9 5 20 26 4 29 38 7 15 25 11 5 9 1 15 33 39 29 14 9 25 11 8 24 3 24 33 21 25 2 39 13 10 38 5 2 37 2 15 9 4 22 35 2 10 19 17 27 39 17 7 33 14 4 8 4 32 2 9 32 28 7 9 14 37 25 9 13 4 18 27 36 30 25 4 30 36 36 39 30 24 17 18 13 7 21 10 9 21 17 25 26 21 24 9 23 3 20 38 31 11 15 22 30 7 36 1 21 1 27 11 39 38 21 29 1 12 3 10 24 39 29 10 25 29 34 2 4 3 34 13 20 26 34 5 14 17 6 33 23 22 24 36 14 32 22 1 14 3348 4750 2758 2523 3479 3508 4881 3764 3111 2530 3250 3667 3577 3307 3979 3922 2995 4898 4291 2795 3271 4734 3952 4681 4821 4588 4578 3987 3107 2506 3707 4413 3062 3990 4548 2908 4161 4228 3914 3647 3816 2661 4303 3637 3283 3559 4879 3856 4981 3576 2951 4108 3064 3853 3536 4432 4003 2633 4083 4864 3123 2735 2880 3842 2922 3429 2725 3622 4742 2588 2510 3853 4728 4797 2611 4547 3767 4352 4324 3269 4909 2581 4194 3574 3839 4364 4527 4731 2546 4912 3448 4994 4419 3439 4590 3157 4719 4937 4676 4810 4954 3540 2646 3867 2587 2712 3801 2651 3973 4793 3843 3121 2792 4438 3082 3802 3432 3798 2852 3533 3188 3238 3976 4574 3198 3388 3341 2617 4881 3539 4485 4498 3847 3782 3507 4931 3820 2855 3488 2963 4523 4621 3845 3310 3758 3032 2962 3325 4783 3973 2667 3306 4603 4467 3633 4856 4960 4808 2895 4192 4472 3387 3123 4884 4214 3093 4902 4802 8 3067 4976 3190 3488 4412 4775 4499 3732 4122 3906 3212 2719 2515 2603 3406 3061 2894 3584 3713 2969 7 4671 4043 4764 4514 4532 3323 4441 4031 2580 4629 2902 4869 2982 3117 2920 3046 3853 4730 2949 4737 3806 2733 4900
36 9 21 32 33 10 36 30 35 8 14 4 8 33 6 13 10 24 15 23 4 36 13 34 3 14 24 15 16 11 31 39 1 0 12 28 2 6 11 37 4 19 17 12 30 17 28 15 26 24 30 19 10 15 32 34 38 33 5 34 25 23 36 28 2 19 39 10 13 9 23 36 3 11 25 34 10 35 30 13 22 15 15 30 37 10 4 14 35 18 21 34 8 12 9 8 3 20 22 35 36 3 37 32 34 2 21 18 13 5 36 17 3 31 11 27 39 33 24 14 16 38 10 1 28 9 19 12 6 8 28 36 9 6 8 26 18 4 2 4 21 4 7 33 24 8 7 5 23 19 32 14 22 14 24 36 19 34 27 33 18 2 39 2 18 24 36 38 32 19 6 15 29 1 33 19 19 28 8 37 37 5 4 13 24 7 2 37 37 16 1 16 3 27 39 17 25 17 35 34 38 16 15 2 29 4 22 38 16 4 19 29 2616 3379 4818 3159 4467 3358 3671 3639 2538 4911 2752 3309 3413 3475 4829 4117 4080 2965 2933 2955 2602 4980 4966 2504 3594 3588 3545 3248 3013 4162 4320 4354 4858 4658 2965 2958 4391 3261 2835 2822 2580 4657 4860 3903 2903 2934 3663 4128 4125 3020 4997 2971 3378 4256 4571 4000 3252 4294 2869 3179 3445 4759 4223 3843 4414 3522 3960 4303 4769 3647 3805 3893 3668 4624 3468 4626 3544 4464 3390 3554 4862 3707 3878 2576 4867 2679 3869 4213 4982 4855 3558 4726 4204 4827 2666 4355 4864 4577 2903 3017 3436 4536 4428 4411 2978 4928 3514 3616 3425 4675 3975 2981 2980 3496 3033 3189 2977 4166 4112 3629 4991 3560 2833 3370 3285 4117 3922 3276 3722 3301 3824 4893 2557 2595 4346 2942 4986 4528 3696 4880 4992 3033 2993 3182 4049 4976 2792 2717 4342 3102 2881 4387 2900 4740 3065 4315 3231 3393 3116 4777 4434 4339 2574 2814 3868 4859 4361 4977 3256 4666 3997 3814 2719 4737 3944 4498 2840 4148 3640 3584 4221 2803 3846 3630 4533 4084 3406 4160 3974 4259 3457 3749 3223 4680 3075 4989 4794 4753 3400 3419 4559 3953 3725 3050 4634 2912 4896 3056 3724 2630 4619 4826 3762
18 1 26 19 30 13 16 9 13 22 11 28 31 27 1 35 6 38 34 34 33 17 24 27 35 37 33 6 15 24 35 26 19 25 0 8 37 6 7 1 20 39 21 23 20 1 25 35 8 18 28 10 37 22 13 20 22 19 22 6 12 19 24 34 9 14 28 17 22 32 4 29 24 5 8 11 37 5 22 11 24 1 35 33 13 33 14 14 21 37 2 32 8 28 33 34 37 15 36 22 11 5 10 19 7 35 18 27 32 35 34 5 37 35 4 2 31 36 23 21 1 34 9 6 16 26 29 8 8 28 37 24 37 25 10 17 16 34 28 2 8 11 34 21 25 28 32 8 20 30 6 19 35 28 22 30 30 25 2 38 12 18 37 9 33 21 23 11 5 34 27 3 4 4 9 8 26 14 27 20 24 15 36 9 4 16 8 16 1 21 21 6 33 22 25 21 38 18 9 7 21 7 5 25 21 12 22 2 14 10 13 36 3833 4774 3319 2805 2982 3585 3968 3421 3602 2751 3405 4161 3811 3772 4755 3409 4838 3092 4391 4104 2759 2960 3627 3508 3458 3960 4814 3698 4140 2683 2661 4018 4781 2728 3228 3440 3301 3058 2933 4428 2937 3353 4983 4785 4060 4683 3464 3712 3187 4366 4013 4715 4497 4740 4366 3432 4222 4485 4613 4443 3574 3898 4048 3874 2533 4551 4285 4071 3445 3806 4384 2983 4213 3576 3278 3545 4268 3970 4365 4149 3193 4503 3170 3182 2717 4710 3513 4071 4024 3562 3415 3620 4095 2541 2524 4842 4739 3575 4039 3783 3707 4160 2631 4097 3456 4190 2638 3551 2682 4319 4632 3807 3890 4842 4841 3832 4722 2669 4584 3894 3067 3082 3870 4569 4838 3330 3565 3778 4800 4957 3903 4663 4984 4910 4799 4862 4374 2802 3506 4045 4809 4933 3580 4338 3948 4772 4997 2864 2514 4932 4063 2612 3788 3083 2684 3339 2927 2938 3686 3938 3942 3088 3020 3434 4117 4265 3909 3355 3516 4602 3350 3676 2502 2853 4674 3650 3671 3259 4877 2887 3972 4910 4411 3757 4012 4665 4294 3972 3723 3556 3302 3777 3541 4756 3840 3144 2530 4236 4084 3090 4695 4678 4799 2770 2639 3398 3247 2968 4693 4521 4051 3606 4437
27 2 39 6 32 33 4 26 20 15 16 37 13 1 11 15 17 20 8 26 3 38 20 4 35 4 38 32 11 10 37 30 27 28 36 0 9 28 6 29 24 5 35 1 34 36 16 14 7 18 33 4 9 11 15 36 8 12 24 12 20 26 36 31 28 19 5 34 12 38 27 11 16 19 13 14 7 14 37 15 4 14 12 18 10 8 14 28 15 36 35 27 25 3 14 10 20 13 34 14 35 4 6 36 14 21 19 31 3 5 8 28 19 36 38 22 10 26 1 7 10 1 7 20 14 28 34 3 27 11 29 25 1 20 5 13 18 38 28 37 39 34 20 14 27 35 18 30 25 18 32 37 39 12 4 26 26 27 35 21 9 9 8 11 25 21 33 25 8 3 29 15 10 18 2 17 2 31 39 19 39 21 39 16 1 8 37 26 30 34 31 9 29 10 15 14 15 3 11 7 6 31 15 32 36 25 12 27 24 15 19 32 2606 2750 4155 4339 3111 2628 3099 2846 2654 2749 3431 2834 3411 3603 4729 3825 3048 4304 2515 4907 3922 3534 4071 2824 4695 4843 2935 3890 4323 3251 4195 3320 3354 2892 4210 4774 3312 4466 3137 3578 4288 2662 4009 4204 4367 3346 4964 4843 4679 4826 4587 4974 3462 4433 2823 2659 4971 3525 4442 3265 4807 4575 4601 3885 3677 4812 2596 4383 4587 4026 4021 2853 4029 3078 3036 4721 4689 3789 3726 4434 3471 4856 3621 4943 3522 4454 4005 3039 4522 4625 3600 3006 3175 2856 3505 2930 4780 2740 2512 4230 4599 3416 3815 4510 4671 4843 3592 4120 3234 2874 4137 4729 2794 3343 3397 3987 4927 3922 4964 3863 4563 4214 3166 3623 3060 2773 4373 2518 3501 4010 3898 3265 2811 4626 3801 2649 4171 4940 3959 3191 2529 4992 3774 4360 3743 4312 2537 3224 4559 3711 3062 4754 3702 3771 2875 2957 3940 3101 3725 3734 4186 2676 3574 4803 3346 3964 3736 3023 3687 3359 3846 17 3707 2569 3329 2852 3703 3412 2753 4697 3751 3443 3989 4050 4558 2849 3333 4547 3921 4856 4024 4759 3251 3797 4197 2754 2873 4096 2513 3150 4613 4987 2718 4548 3242 3973 3540 2887 4831 2795 4294 4490 4298
3 16 36 39 3 20 12 1 28 19 34 23 12 6 21 7 16 39 1 36 21 30 23 31 25 18 35 7 37 39 38 8 9 28 37 34 0 27 22 27 19 38 39 23 9 10 4 34 1 14 31 24 16 6 16 4 38 37 28 8 9 36 25 24 7 6 39 37 38 16 15 33 35 36 31 37 2 6 16 13 30 28 10 22 30 39 17 1 26 29 20 35 26 17 24 37 5 30 8 16 30 27 24 38 24 2 8 4 9 1 8 29 7 31 25 15 24 28 28 16 19 11 28 37 17 19 19 15 6 39 1 25 2 30 35 10 21 24 7 5 34 33 10 19 5 18 15 3 25 38 9 10 4 2 28 21 25 6 8 31 30 22 39 6 29 6 22 35 4 33 18 11 1 33 23 20 18 19 29 21 24 30 12 19 3 6 3 17 39 2 36 25 16 11 2 16 16 31 24 7 16 22 3 20 12 38 36 20 3 36 26 38 4161 3050 4811 4261 4872 4396 3141 4712 10 3186 3875 4205 3297 3396 3641 4676 2837 4718 4905 4762 2569 2760 2926 2798 3476 2557 3423 3326 2882 4271 4110 3139 4114 4747 4906 4316 4244 3789 3561 3096 3359 4283 4086 4090 4431 3613 4484 2831 3047 4788 2785 4496 2997 4458 3600 4728 4436 4457 4125 2975 4852 3333 4082 3001 4363 3800 3007 4219 2719 4260 4999 3269 2934 3219 3878 3880 4952 4660 2768 3051 4381 2999 2557 3300 2823 2937 3187 3354 3083 4692 3236 2979 3508 4109 4939 3771 2658 3478 2505 3157 4133 2765 4310 3901 3739 3577 3803 4003 4886 4835 3250 4397 3850 2693 2745 3517 3252 3245 3471 2508 3473 2689 2552 3247 9 3500 3085 4127 3584 3568 4527 4599 4919 4863 4834 3155 2680 3561 3552 4251 4766 4367 4165 3638 3016 3999 3590 3042 4716 4185 3014 4578 2619 4935 4394 4476 3573 3384 2557 2980 2564 4842 4398 3630 2857 4148 3951 3586 3872 2526 4667 3419 4753 3433 4963 3057 2820 3477 2969 3183 3698 3116 3095 4640 2661 4876 4742 4480 3556 4947 3965 3135 3049 4260 4413 4128 4377 2952 4084 4495 3982 4997 4623 4524 3098 3134 3348 3518 3812 4410 3124 4962 2612
28 3 33 26 38 32 35 27 39 14 5 32 28 3 13 31 16 36 8 24 1 3 11 26 3 14 35 30 1 16 22 20 37 14 8 34 24 0 12 25 2 2 38 39 5 18 7 11 3 20 19 11 4 32 23 30 35 7 8 36 26 9 20 1 11 14 31 22 30 7 38 19 20 9 31 26 9 21 2 26 33 30 29 11 2 8 38 18 21 3 4 24 25 36 25 34 14 7 20 18 29 3 36 22 27 5 2 18 14 16 25 33 20 35 11 2 12 23 30 38 22 8 6 25 8 27 37 15 35 1 19 19 16 31 28 26 3 37 3 32 25 4 32 9 3 15 37 29 11 2 21 23 26 1 2 11 1 32 17 3 6 3 27 11 4 21 21 27 15 18 33 24 37 6 16 36 3 35 26 15 37 23 37 6 5 13 18 8 1 18 27 5 32 8 22 3 35 17 20 37 20 13 9 26 26 32 24 39 26 21 27 14 4406 2777 4460 3040 4431 4056 3316 2700 3022 4887 3408 3108 4785 4812 3679 4902 4244 4374 3378 4222 4202 3555 4111 3562 2986 3782 4773 3646 4281 4968 2530 4771 4468 4298 3723 4755 2849 4021 3826 3844 4910 2503 3747 3185 4855 4933 2722 3917 3346 3325 3408 3026 3614 3385 4495 3464 3100 2797 2935 4515 3374 2932 4925 4294 3582 4209 4762 2637 3982 4972 2700 3255 3939 4602 2643 3873 3981 2562 4191 2723 3029 3518 4477 3704 3331 4821 3528 3718 4083 4204 4720 3891 3511 4493 2567 4958 4088 3810 4898 3975 3067 4162 4891 3421 4683 2814 3128 4627 2583 3379 3670 3676 3754 3006 3848 2745 2593 3797 4899 2710 2936 3293 4235 4697 4929 4508 2913 4957 3230 3274 2759 4636 3835 4526 2922 3625 2652 3049 3253 4833 3668 4488 3420 3018 4119 3788 3349 4816 2885 4976 2741 3728 3162 3599 2626 3369 3316 3852 4137 4886 3911 3161 2764 3619 2522 4208 3251 3022 3576 3235 4072 4875 3781 4331 3592 4987 2776 3666 3674 3148 4931 4944 4116 2526 2581 2734 3518 4827 4926 4026 2831 4912 4800 4750 3823 3020 3872 4630 3472 4345 4849 3163 3834 4083 4082 4947 4408 4512 2969 2904 3977 2989 2976
17 31 18 29 18 3 23 39 32 39 15 28 2 14 21 26 24 5 1 11 31 17 9 31 2 15 35 6 16 21 16 14 4 30 31 14 13 17 0 15 7 33 29 10 26 17 36 7 1 22 36 7 26 11 9 14 35 24 24 13 30 9 1 10 34 7 36 4 36 28 29 16 5 18 31 10 23 12 20 11 9 24 36 34 21 25 14 1 15 21 21 16 22 25 24 1 10 11 28 18 15 38 33 3 23 32 38 7 9 31 16 39 23 22 16 37 5 28 3 8 29 24 29 21 35 36 8 33 15 16 34 23 17 22 11 30 4 27 27 8 1 23 1 19 24 26 13 25 16 35 8 16 12 15 35 29 3 33 32 3 6 12 17 22 38 10 8 30 20 15 25 19 13 29 36 3 9 12 26 12 27 23 10 7 14 2 29 32 37 13 33 7 7 25 20 23 22 16 6 34 2 22 20 27 14 28 15 17 9 24 14 25 2977 4653 2985 3709 3073 4004 3217 4153 4321 4469 3969 2886 4534 4491 2502 3933 4125 4176 2769 3159 2637 4854 3515 4498 4568 2569 4332 3010 3145 4139 4194 4318 4215 3512 4582 4859 4716 4463 3575 3334 4729 3242 3484 4209 3228 4243 3038 2537 4083 3498 3060 4610 4787 4416 4888 4463 3452 4238 2533 2501 4461 3993 4479 3065 2992 4633 4518 3672 2639 4177 3156 4332 2851 4381 4451 3839 10 3252 3344 3403 2743 2878 4358 4597 3733 2700 3846 4951 3163 4794 4064 3644 3540 4321 3303 4944 3655 4239 3739 4034 3094 4809 2573 3741 3727 4215 4397 2516 3689 4815 3050 3445 3328 4335 4975 3659 3397 2753 4538 4647 4590 4947 3569 3698 3178 3408 3151 3055 4120 2674 3439 4711 2882 3846 4333 3506 2990 3610 3253 3025 3973 2827 2955 3339 4404 2511 3871 4956 2967 2692 3541 3094 4776 4046 4912 4976 2822 3147 2922 3307 4012 2502 4406 4806 2756 3150 2682 4405 4998 4578 4455 4691 4101 4409 4247 3984 2631 2501 2761 3146 3110 3621 2767 3094 3113 4486 4788 4908 2500 4151 3323 4919 4526 4306 3128 2808 2748 2554 3239 3890 3023 3486 4466 2745 2720 4601 3344 3016 3428 4663 4676 3839 2872
6 29 24 25 30 22 10 36 29 3 36 29 35 10 18 6 25 20 27 13 28 2 12 9 14 24 19 37 34 38 3 16 28 14 28 15 36 17 33 0 25 24 28 2 29 7 32 16 3 30 12 6 2 25 22 5 38 8 36 12 39 30 24 28 22 23 20 17 14 7 26 15 21 37 37 14 7 39 32 37 22 15 36 6 3 29 18 20 30 12 39 2 1 33 24 37 10 20 26 27 14 9 2 15 3 34 25 11 18 30 20 8 15 14 10 27 21 11 4 5 38 10 14 34 19 34 16 31 7 7 23 38 22 28 29 12 3 1 33 31 13 20 30 5 25 32 18 33 25 14 26 21 1 35 11 13 34 33 36 35 23 25 2 14 29 17 31 8 5 8 34 4 37 16 16 25 9 15 33 16 29 18 9 37 38 2 3 18 28 21 29 3 26 14 35 27 12 39 30 34 2 25 7 5 25 32 38 5 5 2 3 17 4275 3706 4045 3092 4636 4985 2994 4377 4228 4202 4928 4091 3877 2936 4679 4442 4764 4018 2530 4843 2588 2963 2906 3779 10 2616 3229 3159 4910 3387 3150 2548 2917 4080 3296 4321 2739 3367 2523 4812 4608 3933 4391 2508 3482 4003 3537 2651 4032 3887 4638 2887 4926 3543 2857 4281 3921 4004 3435 4391 4408 3281 4741 3861 2954 3830 4917 2621 4107 3001 4135 4844 3766 3346 3554 3061 4564 3612 2963 3404 3637 2719 3185 4698 3476 3059 4089 4332 4487 3199 2840 4873 3160 3426 4282 4961 3771 4018 2900 3119 3103 4500 4812 17 2871 2721 3838 4679 4184 2886 3160 2740 2551 4360 2650 4653 3248 3320 3885 4174 4353 7 4501 4223 3220 3862 3124 4329 2795 4016 3190 4293 2536 4369 3181 3332 2548 2796 3589 2762 3889 3487 2906 4114 2600 4511 2725 4480 2520 3007 3191 2557 4508 4723 3187 3514 4101 4635 4802 3154 2653 3368 3884 4082 2746 3281 2592 4530 2719 3131 2825 3951 4869 4220 4275 3643 3898 4803 4624 3110 4401 3475 2664 3195 3546 3477 4439 3704 3551 4371 2615 4594 4306 3243 2824 3916 4119 3647 2667 4806 3462 3440 3828 4554 3338 2760 3488 3963 4393 2520 2539 4990 3371
21 33 31 30 3 20 23 32 19 30 17 25 23 17 13 5 21 38 3 12 25 4 6 3 11 3 32 17 1 9 17 10 23 9 20 22 32 35 36 4 0 23 3 14 3 11 3 36 8 9 21 21 13 16 6 12 22 9 24 32 33 28 6 34 38 32 24 32 34 19 20 39 2 17 22 4 29 33 6 5 1 38 14 32 36 19 7 8 33 2 22 39 27 30 13 10 22 26 16 12 23 16 37 33 20 5 28 16 12 27 29 15 35 37 21 14 16 9 12 14 22 5 20 11 7 30 11 34 23 27 7 20 37 15 27 37 31 36 30 5 29 17 11 34 26 28 29 39 8 19 26 34 7 21 28 24 9 4 18 26 10 31 39 6 2 27 9 39 18 31 37 36 20 22 27 11 33 19 23 7 13 36 26 27 20 5 36 27 29 35 11 8 38 20 31 7 14 20 14 37 13 16 14 9 34 3 1 10 20 26 7 36 4932 4401 3254 4724 3588 4571 4523 2520 4485 2593 3478 4834 2550 4832 3515 2541 2904 4986 4996 3438 4194 4917 3814 4688 4790 3969 4357 4239 4840 2584 2796 3073 4250 2648 4017 3460 3276 3671 2942 4847 4734 3415 3016 3717 3596 2764 3946 3161 4442 4297 4684 3434 2694 4794 3254 3671 3869 4755 3457 4010 4730 4393 3672 4300 2841 4200 3026 3006 3466 3999 4618 4458 4280 4420 2680 3808 4732 2935 3646 3552 4401 3438 4221 2593 4352 3948 2582 2668 4666 3120 4703 4472 3618 3406 4667 3858 3641 2633 2795 4292 4566 2928 2671 2604 2650 3494 3754 2509 4349 4615 4079 4231 2714 3204 4717 4866 4793 3955 3731 2510 3277 4156 3277 4359 4143 3182 3306 4464 4545 3233 4722 4111 3863 3751 3504 3968 2949 4393 3866 4604 4418 3831 3570 3267 4550 2905 4588 3581 4314 4709 3292 4866 2834 3261 3507 2824 3319 3937 4281 3636 2721 4250 4690 4200 3359 3486 4921 2720 2537 3238 3822 4210 3359 4550 3199 4446 4567 4621 3089 3615 2576 3932 4441 3344 3247 3666 3101 3934 4960 3009 4368 3842 4827 4619 3636 2833 4422 3303 4903 3158 3867 4763 3010 4707 4801 2626 3473 4331 3633 2573 4832 2823 2565
19 19 14 25 27 26 14 8 8 5 34 5 13 29 29 12 39 30 34 19 36 12 27 21 9 4 21 27 37 5 1 2 4 39 26 3 35 4 30 33 10 0 35 26 30 35 11 29 36 39 23 13 23 33 29 18 7 36 31 16 37 10 14 4 15 15 24 22 36 15 37 18 24 12 26 6 12 6 31 12 3 9 23 5 32 1 36 7 6 22 32 2 15 7 27 7 23 20 20 17 11 11 5 38 10 22 1 27 18 12 15 21 19 37 15 22 33 1 26 19 7 3 35 29 12 1 13 9 30 7 19 31 17 10 9 13 6 36 27 30 4 34 24 35 26 19 28 2 24 2 23 21 33 16 36 17 11 39 3 8 30 7 35 20 16 32 35 26 39 38 28 24 35 4 34 16 25 18 36 6 30 33 6 39 8 37 8 7 9 9 11 24 3 30 13 34 10 13 27 1 1 26 30 9 24 22 34 14 28 35 5 26 4682 4388 3149 2754 3595 4374 4130 3910 2859 3171 2814 3217 3043 4233 4501 2885 4177 3771 4550 4943 4872 4812 4833 4977 4933 3482 3772 3680 3115 4804 2914 4062 3372 4729 3411 3465 4199 3810 4401 4692 2835 3774 3783 4756 3426 2707 2889 2887 4909 4750 4991 4614 3896 4088 3410 4034 2900 4018 3073 4925 3671 3883 3755 3497 2730 4464 2573 4544 3908 3322 2578 4156 3637 3877 4017 3331 4746 3493 4182 4143 2976 4780 4628 2704 2962 4858 3593 3850 4968 2713 4658 3884 4087 4867 3899 3716 3694 4997 3503 3140 4389 3180 3174 3785 4213 3405 2755 2653 2870 4997 4904 4103 4411 4289 4905 4698 3560 4143 4635 3229 3939 3314 4186 3022 3921 3212 4547 2513 4537 3893 4233 2820 2999 4818 3864 4931 2952 4337 3192 2513 4988 3771 3278 2822 3206 4613 4163 4709 3328 4473 4159 4804 3090 3913 3197 2829 2998 4104 4608 4118 4484 4782 3858 3928 4651 3358 2511 4598 4104 2961 4578 4863 3005 3140 3940 4663 3322 4043 4133 2960 3555 4780 4913 3063 4131 3746 3092 3715 2613 3678 2749 3798 2578 4522 3982 4440 3081 2927 3418 3211 2781 4573 3133 3722 4835 4608 3784 2643 2841 4784 2841 4387 4973
16 27 37 25 38 10 28 13 8 37 31 21 15 21 32 27 19 4 30 17 20 23 20 29 26 5 35 37 32 30 24 3 1 15 16 34 37 4 34 22 37 11 0 12 39 5 25 26 18 33 37 25 18 5 23 19 26 35 30 16 14 28 18 21 15 10 34 23 19 15 36 22 31 37 29 5 11 14 33 34 12 8 9 34 24 34 3 33 16 34 2 33 9 7 35 26 21 35 3 16 38 21 6 34 25 2 34 7 36 17 24 36 6 28 30 2 27 29 6 34 34 16 14 9 8 7 27 37 5 12 12 2 38 39 25 1 22 28 30 16 15 38 38 2 37 7 17 14 34 23 16 29 13 25 15 35 14 17 4 4 18 30 24 38 10 5 22 26 31 38 10 26 9 16 39 1 19 21 33 5 24 9 30 28 3 14 22 2 18 21 13 2 13 23 2 7 1 9 18 36 19 20 4 4 30 29 32 21 7 34 13 13 3003 19 3496 4330 3329 4069 3575 4329 2969 3233 2954 4945 3178 4550 3945 2989 3240 2646 2812 2765 3690 3549 3717 4346 2906 3291 3618 4418 3950 4821 4457 4766 4134 4868 2732 4522 2939 3881 2764 4094 2597 3607 3023 4947 4441 2610 4046 2780 3980 4211 3540 6 2889 3951 4320 3878 3927 3114 4575 2677 2527 4748 3450 4733 3427 3458 4281 3612 4481 4465 3439 3439 3319 2857 4138 4260 3957 3496 2777 3334 3015 3659 3998 2576 2967 3415 4715 2815 3164 4356 4140 4546 4001 3569 3920 3336 2548 4905 2747 4526 3342 3327 3803 2673 4730 4394 3529 3696 3701 4948 2580 3516 3802 3347 3703 4607 4184 4933 3482 2777 2744 3272 2764 4885 3250 2980 4505 4700 4017 4565 4686 3049 2857 4474 2738 4652 3214 3880 3127 3438 4683 4206 4448 3520 3796 3633 4587 4387 2971 3329 3019 4747 3191 3785 3652 2503 2602 2952 2891 4652 4690 4689 3174 4073 3804 4503 4312 4207 3363 4052 4644 4441 4496 4861 4388 4388 2691 4933 4480 3906 2852 4794 4200 3519 4237 4206 2679 4771 3146 4281 4154 4178 2676 4040 2909 3194 4459 3450 4874 4217 3828 3405 3486 3316 4968 4273 4186 3807 2760 2707 3387 4090 3320
17 6 31 24 16 12 13 27 30 33 8 15 7 30 16 20 35 37 20 8 21 7 19 19 20 23 7 33 8 24 16 23 16 1 36 14 9 32 3 1 30 27 6 0 26 31 25 12 6 4 25 14 32 28 28 34 35 8 7 34 26 32 17 37 24 9 21 7 27 6 6 19 28 17 23 20 5 37 2 39 19 7 1 38 31 3 35 8 29 39 21 20 28 20 35 16 30 25 21 17 20 29 18 14 27 26 3 37 5 27 24 21 7 29 29 21 38 13 23 22 25 18 26 6 2 25 16 29 32 29 35 32 26 18 14 39 8 27 26 14 19 20 22 22 39 37 4 31 6 39 26 23 22 24 15 29 26 11 37 12 1 22 19 7 5 35 28 36 5 19 29 18 12 4 10 39 1 36 4 28 6 32 9 23 18 36 21 6 9 39 31 25 20 30 34 24 39 31 2 10 14 12 13 36 25 19 12 27 29 29 37 36 2871 4877 3046 3151 3212 2960 2587 4899 3961 4810 3199 3857 2814 3896 3108 2583 2923 4919 4431 2681 2717 4525 2926 3364 2854 3369 4347 4954 3588 3984 3126 4432 2521 3232 4570 4120 3490 4116 3784 2883 4186 3347 2846 4996 2767 3416 3484 2697 4807 4764 4257 2639 2761 4144 4635 3296 3338 2639 4116 4043 2541 4106 4387 2888 4449 2563 3424 3012 2749 4552 4320 2936 4639 3571 4700 4978 3808 3992 3607 4211 3924 4783 4592 2547 4503 3989 4351 4669 4091 3699 3746 4472 4287 3027 3191 3550 3966 4165 3104 3595 2981 3235 3741 4150 2851 3286 4429 2618 4290 2779 3889 3970 4312 4627 3607 4059 3531 3861 3642 4014 4115 4473 2970 3606 2784 3302 2955 4967 4572 2637 2632 3858 12 3228 4306 4308 3863 3865 4439 3556 2887 3444 3196 2823 3190 3712 4536 3784 2682 3038 4298 3496 3241 4842 3096 4378 4758 4900 3182 4541 4488 4999 2651 4074 4375 3503 4607 3021 3412 3387 3545 2588 3222 3129 2857 3957 3893 4332 2679 4768 2930 3634 3623 3675 4988 4283 4906 3328 4396 4551 4735 4227 3124 2760 3455 2596 3176 2600 4956 4235 3773 4331 3351 2864 2587 2723 4461 2822 3448 4105 4971 2768 4003
5 24 1 37 10 3 19 12 3 27 30 17 33 3 23 32 12 4 25 8 4 25 38 21 32 10 26 6 22 27 20 16 13 33 33 16 17 12 10 39 17 21 15 33 0 18 1 29 28 16 32 10 2 25 2 26 13 11 27 13 26 1 37 20 23 5 11 38 15 33 33 3 8 32 15 33 23 15 34 9 27 3 10 15 25 34 31 38 2 16 26 12 38 34 15 32 2 19 21 16 20 14 5 29 26 39 34 10 28 10 7 22 35 29 12 29 17 17 3 8 35 24 4 14 26 35 35 10 28 29 37 8 4 18 28 34 33 28 7 14 14 1 5 22 37 6 4 21 17 2 11 23 17 5 17 4 36 34 32 24 32 21 39 33 26 18 29 23 25 18 4 5 22 34 9 31 3 31 21 28 10 24 24 9 26 16 2 17 2 14 35 35 12 15 27 1 9 7 7 28 6 3 35 12 7 13 2 9 25 17 13 8 2810 4895 4019 3732 3884 3650 4535 2756 2637 2528 4633 3928 4757 3115 4958 2792 2553 3745 2883 4428 3349 4377 2931 3733 3805 3355 3399 2508 4272 4267 2649 3901 3977 3320 2683 2535 3547 4884 3315 2511 3503 3888 4308 4370 3174 4364 4887 3014 3383 4463 4924 3909 4196 3810 4702 2656 2507 4118 2998 3216 4426 4886 3434 4093 3733 3914 4723 4728 2684 3920 4181 4643 3305 2721 4416 4346 2977 2946 3355 3216 4644 3940 3958 2837 2740 2621 4800 3478 3942 3910 3305 4161 4240 4533 3571 4139 3399 4443 3541 4666 4835 3118 3439 2932 3110 2802 4356 2518 4422 4011 3161 4860 4899 2858 4506 3689 3134 4767 4413 3508 3172 4653 4784 4668 4342 3941 2754 2519 4119 4570 3955 2590 4900 2513 4631 4082 2930 4039 3991 3163 4922 3977 3772 4356 4723 4423 3125 3143 4862 2853 4938 4343 4974 2636 4955 4216 4110 4525 3866 3528 3262 2964 3788 2660 4978 3202 3859 4565 2777 2782 2614 4957 3415 3696 3991 3674 4198 3663 2988 3945 3998 4668 4254 3649 4779 4745 4538 3075 3394 4752 3066 3008 3026 3954 2603 2759 4788 4696 4155 3086 3955 4134 4784 3258 4758 3467 3990 2521 3661 2970 4185 2747 3569
2 10 24 12 12 12 39 3 28 20 32 23 16 8 16 4 19 34 1 1 13 36 9 28 26 19 13 2 32 4 28 23 16 14 32 38 23 30 8 25 19 30 4 20 39 0 8 36 17 1 21 5 4 38 32 21 18 23 35 25 1 3 33 9 32 39 15 2 39 38 36 18 29 12 27 30 32 16 30 5 14 1 4 34 19 11 4 19 18 16 24 29 34 7 36 36 33 5 9 7 33 24 19 11 30 9 4 30 16 22 13 37 38 22 27 2 29 6 6 39 15 24 4 22 31 6 9 35 33 32 29 30 26 10 21 14 3 26 9 1 37 14 27 27 1 31 16 21 20 1 37 15 28 29 24 34 33 29 23 39 12 21 5 35 38 18 18 25 38 15 4 35 34 34 5 24 13 10 18 14 1 34 37 18 36 11 22 39 4 20 17 28 8 12 15 38 12 17 15 38 14 22 25 11 23 14 13 1 3 6 1 24 4669 3065 4126 4552 2758 2782 4987 3722 3503 3612 3841 4454 3179 2862 4153 3568 3281 3503 3059 2703 4598 2905 4334 3515 3228 2855 3751 4897 2528 4656 4972 2721 4522 3361 3396 3265 2741 4222 2779 2800 4534 3238 3097 3333 3083 3405 3682 2531 3284 4218 2959 4213 3639 4419 4743 4080 3725 4823 3336 3948 4588 2708 3993 4658 3106 3470 3144 3922 2665 4246 3408 4942 4424 2701 4650 2882 3006 3368 3607 4278 4710 2505 4841 3394 3098 3208 4764 4293 4070 4441 3569 3817 2526 4189 2583 4462 4757 2708 2692 3738 3467 4351 4012 4024 4985 3774 2951 4826 3700 3228 3566 3696 3343 2998 3100 4931 3066 4360 3139 4125 2585 3907 3227 3284 4108 3146 2915 3322 3728 3645 3679 4786 3046 4277 3096 3478 4052 4429 2628 3944 3083 3539 2690 4819 3588 3022 2766 3349 3843 2517 3716 3961 3043 3440 3847 3008 3618 3563 3026 4760 3532 4476 4677 3157 4082 3575 2850 2595 2819 2723 3863 3931 4433 3305 4736 4053 2689 2995 3611 4492 3947 4350 3200 4729 3824 3012 3639 3453 3506 4117 3059 3386 2866 3638 2688 3018 3161 3245 3759 3394 2652 3409 2830 4470 3883 3236 4191 3878 4462 3229 4590 2899 4910
16 32 23 38 22 11 38 26 13 34 33 34 19 3 16 11 18 4 24 12 9 38 18 20 39 32 8 17 16 28 14 32 3 25 10 21 9 22 24 1 35 27 39 35 15 33 0 23 13 14 27 12 15 37 21 11 10 2 39 30 6 7 6 19 22 31 18 30 38 2 32 8 1 38 19 9 27 22 18 28 28 37 27 9 4 14 18 28 38 6 10 31 8 22 38 13 15 19 4 32 28 16 28 29 17 31 26 31 21 36 19 38 14 28 10 27 34 19 38 26 26 30 22 12 9 38 13 4 30 38 25 20 2 29 12 3 29 14 5 30 5 1 15 24 28 34 39 23 16 8 37 11 31 8 32 24 24 27 10 3 34 22 30 20 18 10 4 15 28 15 34 21 23 4 7 14 35 11 1 30 25 12 2 38 3 25 2 20 10 7 5 6 35 3 8 21 31 30 32 3 18 4 10 29 38 14 34 35 21 14 12 2 2852 4634 3945 4639 4592 4227 4312 4679 4283 4821 3346 3882 4361 4800 2946 4418 4132 4315 4811 3247 3501 4863 4846 4991 3000 4032 4916 3229 4194 4090 3335 2679 2794 3183 4949 4838 4260 4315 3627 4674 3383 3961 3841 2850 2907 4525 3094 3375 3095 3207 4140 3123 3933 2663 2542 3381 4916 4830 4246 2569 2518 4771 3048 4465 3400 3921 2795 5 3922 2691 3292 3834 3489 3685 4742 3348 4246 4039 3572 4737 3516 2726 4981 3061 3736 4746 2643 4384 2707 3393 3090 4939 3065 3120 2839 2858 4081 4584 3384 3464 3520 4163 4576 4413 2760 3941 4450 4247 4243 14 4223 4507 2596 3918 3926 3831 3589 3748 3177 4251 2847 4388 4983 2696 3418 2623 2754 3260 2676 3773 4778 3589 2698 3623 4220 2994 2989 2821 4183 3027 4874 3344 3787 3424 3722 3387 3812 4776 4242 3693 3604 4699 4193 2834 4953 3793 4506 2506 3175 4554 4105 2537 2507 3064 2799 4327 3676 2599 3935 2912 4432 2769 2515 4171 2689 4990 3843 4746 3878 2697 4018 4302 4054 2655 3438 2963 2809 4786 4279 2514 3964 3245 2861 2776 4096 4921 2582 4244 3451 4700 3595 3451 2896 3420 2791 4519 2908 2986 2573 4287 2692 2525 2882
19 4 15 23 8 7 37 23 23 27 13 24 30 20 3 20 5 17 34 29 14 30 24 8 22 6 16 18 20 12 21 11 6 26 29 21 15 28 19 17 19 24 18 8 22 3 34 0 30 30 8 18 18 2 6 30 24 20 34 16 9 26 39 14 19 24 5 11 29 21 16 23 38 10 37 26 18 32 12 31 13 22 7 3 10 12 12 8 9 37 39 3 30 27 17 36 7 5 33 29 17 1 12 37 24 32 26 39 20 34 23 39 2 7 8 24 28 1 28 10 19 18 25 27 3 20 16 34 25 20 21 1 35 28 33 8 24 35 35 17 31 5 5 2 35 33 27 34 13 9 34 35 15 32 23 28 24 10 37 38 29 39 8 39 38 7 10 8 12 1 28 34 37 28 33 25 7 18 17 27 2 4 34 35 22 21 26 18 12 3 11 31 30 34 29 31 1 20 6 22 3 35 22 4 25 33 10 3 6 34 25 9 3389 3399 3965 3259 3990 3771 3731 2795 4145 3068 3174 4974 4602 2941 4480 3800 4182 2588 4044 3003 3546 3653 3585 2936 3837 4972 3288 4183 2901 3938 3965 4361 3432 3219 6 4322 2959 3558 4786 3577 3069 4193 3156 3331 3405 3606 4408 3692 3588 4535 3004 4920 3349 4164 2688 4991 3066 4146 5 2834 4811 4606 3195 4700 3265 3284 2544 3209 4410 4467 4581 3133 3215 4569 4450 4073 3944 4865 4807 3936 3975 4334 4571 3352 3062 3801 3013 2732 4330 4037 4943 3913 3893 2506 3174 3999 2913 2506 3520 4179 4119 2647 4617 3859 2850 3331 2614 3608 3566 3893 3109 2500 3546 3240 4230 3927 4695 4895 4658 4595 4659 2530 3577 4829 3336 3829 2788 3330 3840 4925 4132 4221 2541 4238 3205 3106 3329 4224 2914 4801 4721 3069 4318 4042 4705 4372 3423 2560 3957 3487 2791 3990 4113 3701 4383 4751 2751 3955 4466 4095 4419 4853 2693 4223 4832 2675 4388 4911 4671 2577 3140 4679 2641 4672 2985 2841 4021 3665 3189 3778 4730 2531 4903 4039 4094 3861 4111 3995 2854 4099 3387 4360 3379 3567 4758 4542 4491 3511 2650 4337 4046 2768 2522 12 4101 3736 4983 4087 2791 3633 3859 4327 3746
29 36 21 27 33 6 17 28 31 39 35 20 36 29 37 26 11 35 37 33 15 27 7 29 27 7 22 21 11 30 17 14 21 37 15 31 1 11 20 31 17 15 18 33 36 27 8 30 0 6 34 7 30 15 26 8 30 2 31 3 30 4 14 10 26 7 8 21 38 15 36 34 27 39 32 20 37 38 12 17 14 25 36 37 13 1 20 28 28 13 25 26 17 19 11 7 33 9 20 39 29 32 20 35 34 16 23 17 5 17 36 35 28 28 12 37 8 38 6 31 13 28 8 39 21 25 21 10 3 18 8 24 29 16 19 26 14 11 25 20 34 2 4 19 35 1 12 27 30 39 10 34 23 28 19 7 5 1 4 31 32 31 25 25 6 17 4 3 21 6 2 3 11 18 27 20 28 21 28 7 1 39 2 6 34 19 27 10 31 37 8 3 24 16 36 8 24 39 25 2 35 11 26 26 12 2 5 39 4 33 24 2 4932 3075 3952 2725 4493 3004 3456 4298 2555 4218 4790 3902 2516 2819 4043 3615 4466 2764 3249 4870 4280 4805 3354 2639 3467 4129 3690 2706 3977 4234 4798 3682 3027 3589 3778 4914 4131 2641 3420 3179 3849 2790 3957 4491 3005 2954 2689 4155 3406 4566 4228 2957 4049 2722 3527 3800 3740 4295 3592 2919 4444 3835 3656 3226 4788 4796 3109 3636 3721 3284 3158 4127 4283 4754 3512 3662 3123 2820 3030 4165 3943 4517 4252 3152 4554 4525 3508 3832 3972 3817 4779 3046 4851 2684 3972 4404 3621 3958 3418 3706 4304 2949 4440 2837 3601 3592 3819 4573 4363 4524 4429 2858 3779 3438 4615 2968 2653 3190 4932 3901 3936 4868 2719 2959 3691 3887 3637 3337 2693 4618 2880 3174 4561 3128 4006 3912 3277 4839 4645 3260 4097 3342 2596 3760 2611 3232 2632 3907 3378 4851 3706 4435 4995 4930 2797 4863 4173 3019 4902 3114 4064 3038 4378 4518 3615 2513 4073 3775 4165 3554 2836 4523 4352 2918 4133 4189 2687 3019 3697 4732 3561 2635 3523 3318 3620 4463 2528 2815 3084 4739 2667 4693 4689 2948 3582 3155 2645 3801 3234 3654 2937 3392 3432 4628 3718 4407 2764 3573 2893 3811 4306 4180 4690
12 34 39 16 30 19 10 30 18 12 39 17 31 1 25 9 25 26 34 1 13 19 25 28 21 36 2 15 21 12 17 28 32 12 18 9 18 15 5 18 10 12 13 32 10 26 22 36 14 0 14 1 19 5 30 35 24 14 7 3 21 19 12 11 2 33 25 15 6 18 26 36 39 28 10 30 31 2 17 10 38 14 35 21 8 35 38 21 30 5 23 1 2 12 15 20 8 6 34 11 24 12 18 34 24 20 36 27 36 22 4 12 16 27 18 28 3 4 12 4 16 15 4 13 35 8 9 32 27 19 11 7 35 15 24 23 6 39 32 4 7 5 34 6 21 13 15 1 24 10 37 9 27 11 3 27 34 1 12 34 24 21 23 34 21 33 38 32 20 36 33 26 39 11 27 35 24 33 3 26 14 25 27 5 12 2 34 23 34 37 5 25 18 14 5 18 29 20 22 29 35 34 33 13 13 38 19 12 29 8 21 11 2534 4396 4298 3676 4523 4252 4650 4172 2796 2840 2899 4354 3604 2602 4689 2656 4049 3075 4377 2778 4389 4613 2805 3836 4573 2649 4638 3957 3590 4647 4316 4724 4917 3189 3128 3420 2577 3898 2955 4606 4593 3779 4382 3269 4996 4943 4298 4593 3407 4174 3930 4145 3958 2776 3145 3088 4460 2972 3762 3406 3073 4524 2578 3858 3990 4770 4719 3361 4479 4962 2977 3442 2732 2950 2551 2616 4096 3232 2523 2637 4029 3004 2919 2930 4131 4987 2577 3923 2845 4529 4067 3028 3118 2911 3195 2956 4446 3744 3460 3753 4555 3552 3828 3296 3026 4402 4631 4113 3938 3724 4416 3721 3969 3876 2829 4322 2865 3410 3244 2635 4324 4550 4523 3883 4706 4638 4943 3647 3558 4670 3176 3942 2551 3003 3416 2716 4621 3792 4832 4864 3971 3600 4526 3039 4289 4866 3606 4431 4436 3966 4019 2889 3336 2827 4115 4184 4285 4886 3570 2958 4315 3556 4256 3223 4255 2882 4994 4185 3322 3777 3021 2935 3689 3241 3118 4997 3085 4495 2995 3448 3904 4142 3762 4391 4346 2568 4498 3995 3060 4700 3950 2773 3628 3010 4091 3511 4585 4409 3782 4008 4980 3938 3951 2706 2904 4677 3297 4126 4190 3132 2747 3759 3160
31 10 10 9 24 18 26 19 21 15 19 28 20 27 13 9 35 16 25 34 4 7 3 7 14 36 11 11 33 1 20 30 9 7 7 5 34 26 11 9 10 15 27 14 21 15 13 30 8 29 0 15 16 36 11 11 13 23 14 13 11 18 6 36 15 31 9 17 7 39 2 19 15 22 17 36 31 27 3 21 32 27 38 36 6 16 4 12 22 20 7 6 16 9 12 31 9 1 21 12 27 22 17 15 34 19 21 30 29 8 36 37 32 24 6 31 38 29 37 22 38 22 27 13 16 20 1 4 12 3 26 26 29 19 17 15 16 16 22 38 19 12 2 11 4 16 3 24 10 23 9 2 19 11 28 10 34 31 21 38 5 17 19 39 8 5 6 21 17 30 10 25 19 33 2 32 20 19 30 29 13 24 10 36 27 4 39 12 22 23 19 5 26 7 8 13 25 6 5 20 38 36 33 5 1 30 36 1 29 27 14 1 2665 3784 3628 19 3088 4856 3611 3812 4629 3963 3035 4540 4446 4580 2889 4086 4421 3258 4915 4925 4997 2503 3538 3442 4633 3390 2680 4351 4983 3016 3664 3222 4165 2976 4249 4179 2594 2703 3413 4657 4484 4213 3765 3591 4946 3722 3420 4739 4651 3199 3964 4744 4466 3262 2865 3057 3385 4742 3764 2603 4760 3922 2675 4587 3545 2868 3224 3995 4446 2621 3651 4251 3531 2933 3223 4107 3504 3533 15 3097 2987 4899 3972 3327 2546 2932 2792 4979 3955 3313 4257 2909 3448 3335 4079 3205 2892 3856 4311 3859 4486 3919 4237 4040 2637 4061 2507 2797 4458 4676 2586 3920 4602 2898 4243 4735 3193 2782 4481 2792 4475 2901 2949 2990 4694 3717 4760 2560 4114 2824 4477 3994 3876 4220 4596 4023 2689 4582 4855 4516 3002 3247 2795 3781 3823 4488 4564 3995 2841 3468 4559 4229 4095 2893 2643 4969 2710 2557 4689 3907 4399 2563 4682 4803 3784 2568 4478 3659 2925 3770 3439 2753 3853 3962 3392 4374 3736 4595 4724 3202 4748 4261 3627 4990 3437 4139 4019 3327 3376 2762 3837 4238 4230 3653 3507 4971 3684 3240 3004 4064 3668 4957 2590 3395 3651 3602 4069 3373 2763 4041 3773 2998 4527
29 11 38 38 22 3 18 32 22 15 38 27 5 6 27 36 35 16 33 31 2 13 9 37 39 9 6 31 27 9 4 1 7 3 30 10 29 7 32 2 30 15 7 19 33 13 6 29 39 36 11 0 14 18 2 25 32 37 13 25 9 7 31 1 37 33 2 5 30 15 7 14 11 36 24 35 25 14 17 15 38 11 3 31 36 24 8 37 15 11 27 39 11 5 27 32 31 15 16 11 15 39 21 31 23 10 2 9 29 39 16 24 9 19 30 21 36 35 31 17 26 24 2 3 38 23 25 11 16 10 33 2 11 5 24 27 5 34 31 22 31 17 26 33 31 34 22 3 31 3 10 28 23 6 1 25 7 32 39 17 5 6 34 13 38 32 38 26 3 19 32 20 24 38 30 36 13 39 27 1 2 16 37 10 21 3 2 28 16 37 7 23 5 12 13 20 26 39 28 31 33 8 8 2 28 18 19 2 8 8 6 37 3787 3723 4834 3704 3579 2844 3781 4352 3623 2981 3005 4111 2754 4338 2948 3500 4086 2604 3769 3748 4138 3228 4773 3132 3567 3738 3585 2566 2971 3362 4643 4465 3061 3437 4295 4206 4769 2972 4983 4818 2672 4533 4414 2826 4813 4636 2541 3201 4072 3431 4805 4725 4481 4803 2954 3818 4270 4714 3258 4167 3845 2866 4897 2558 3452 4467 4231 3785 3832 4132 2717 3450 4664 2899 4297 2620 3093 3292 3767 2920 4698 2753 4268 2689 4911 4118 2937 4097 3531 3306 3826 4443 3840 4781 3363 3429 3929 3550 4545 3395 4243 4897 4259 3862 3111 3615 3604 4941 3523 4336 4661 3504 4653 3749 3082 2982 3323 3818 3267 3131 4513 3428 3544 3401 3962 4477 3303 3934 4450 3772 3390 3900 2886 2988 4464 3430 4263 3825 4603 3654 3625 3409 3678 2573 4692 4238 4663 3525 4306 3532 3990 2760 3557 3508 3034 4169 4353 4909 16 4584 3477 4230 4021 4285 4022 2625 4697 3655 3068 4491 3343 3535 3592 4063 4782 3026 3386 4574 3245 4172 4813 4216 3196 2974 4267 4519 3815 4434 3603 4716 2872 3510 4458 4893 4991 16 3266 4269 3705 3089 4252 3276 2913 2539 4899 4639 3148 3726 3640 3556 4114 4469 2613
11 13 15 27 19 2 12 11 9 23 37 13 36 31 16 29 3 11 30 3 11 38 32 6 11 7 34 33 28 35 24 34 31 24 38 31 26 3 7 6 14 37 27 17 30 3 28 20 10 37 22 39 0 2 22 25 6 36 18 31 1 36 26 7 14 35 38 11 5 24 7 25 37 29 4 3 27 9 6 38 17 4 32 19 32 4 17 12 7 18 21 20 30 36 5 37 36 5 13 34 9 27 32 17 17 3 33 36 24 14 8 37 39 18 29 1 9 8 31 30 34 9 34 34 12 22 22 2 29 23 9 14 7 38 39 29 34 18 15 5 37 17 36 33 39 19 3 36 35 23 2 32 28 34 16 8 38 19 31 34 23 5 18 4 37 26 16 8 27 36 12 31 22 33 39 13 13 39 5 2 24 25 23 32 7 37 16 8 31 9 36 23 27 7 38 16 6 18 6 19 14 13 18 34 36 39 25 23 21 14 10 17 2584 4574 3111 3391 3232 3135 4130 3066 3818 4413 4838 4030 3133 2810 3581 2658 3328 4978 3126 3443 2840 4704 2638 4121 4408 3892 2929 3341 4858 2846 3004 2733 2816 3114 2806 3355 2923 2819 4704 4620 3891 4961 4361 2896 4936 3986 3966 3915 3745 3149 3586 4203 2938 4079 4182 3847 3829 4864 4294 4982 4140 2597 3600 4540 3731 4330 2670 3004 3503 4987 4593 3004 3454 4401 2793 2839 3569 4835 3008 4540 3153 4823 3633 4229 3811 3250 3917 4612 4153 3734 3102 3922 2769 2713 4988 4186 3656 3025 3691 3873 2874 4790 4663 4986 4726 2941 2931 3110 4625 4662 4575 3616 4700 3389 4680 4090 4701 4279 3505 4054 3758 3055 4695 2925 4217 3528 2773 3795 3850 3385 2710 4069 3001 3942 4493 3786 3485 4327 3314 4207 4628 3561 4350 2531 2981 4429 3609 3842 3071 3905 2974 3614 4888 4460 3968 3955 2884 3812 3066 3215 2515 4933 3574 4332 3035 3832 4607 4707 4472 4315 3818 4403 4046 4975 3974 2679 4825 3763 3631 3280 3128 2633 4943 2785 4517 3968 3120 3958 2622 2995 2724 3606 4808 3764 4389 3594 4289 4748 2917 4956 3052 3694 4987 4309 4035 3234 3367 3337 3254 3138 4141 2680 4105
29 26 4 21 34 31 2 17 14 33 11 35 25 5 19 13 2 20 31 31 8 21 1 19 9 5 10 19 1 16 10 23 38 4 13 17 38 26 6 32 12 4 25 6 12 30 37 10 11 33 26 23 30 0 2 29 13 22 18 9 1 2 1 11 21 23 1 3 4 15 1 28 30 32 23 3 38 26 12 25 4 17 11 9 8 10 30 36 16 1 8 2 5 6 31 23 25 39 30 25 3 13 15 5 7 5 20 35 7 32 21 8 24 14 17 38 7 11 24 16 39 8 20 17 29 21 11 23 22 17 3 21 3 20 24 7 4 28 23 10 37 6 17 18 6 26 37 23 24 26 5 14 16 36 23 37 38 33 27 39 23 30 1 24 32 30 7 8 39 13 3 3 33 24 11 8 7 12 3 16 31 27 18 2 29 1 22 12 32 32 29 4 39 6 16 21 8 26 3 24 35 22 7 16 20 11 29 13 17 21 3 19 3287 4954 2767 2783 4065 3800 3829 3110 4484 3195 2657 4890 3109 4289 4475 4083 2940 3437 4949 3734 3119 4959 3876 4181 4693 3140 2586 2967 3236 3057 4442 3123 4221 3279 4733 3975 2753 3968 3934 2753 4381 3320 3772 2790 3009 4921 19 3798 3561 3476 4929 2639 4695 4066 3264 3057 3032 4347 3654 4048 3698 3606 3220 4864 4893 3233 3286 3871 2636 2793 4320 3242 3191 3965 3990 3776 4626 4479 4801 3373 3045 2620 2760 4931 4273 4502 2778 3699 4090 4333 3523 4357 2580 4865 13 3597 3979 3108 3231 4241 2625 4455 2714 3697 2567 5 2747 3928 4238 3037 3599 3210 4643 3140 4634 3278 2964 3883 2780 4191 3004 3041 3371 3714 3117 4873 2784 4019 4798 4279 3186 2675 3672 2932 2932 3311 3944 2916 3345 3457 3313 3222 4339 2887 2814 2861 2505 3606 3634 4422 3781 4379 4863 4843 4798 3025 4226 4724 4897 4510 4638 4360 2816 4357 3130 3280 3558 3393 3231 3886 3036 3570 4192 3391 4430 4018 2542 2600 4268 4560 4893 3746 4884 4839 3153 3192 2510 3137 3517 3927 4911 4773 4226 4427 3877 4680 3007 4064 3790 3054 3824 3299 4139 2988 2566 4026 3138 3486 4902 3146 4630 4142 3434
30 27 4 4 37 23 5 4 26 17 38 39 5 4 15 25 16 2 25 2 30 20 8 9 11 15 18 28 7 26 39 1 3 27 2 25 36 38 14 2 32 38 25 29 3 34 17 12 38 21 2 23 31 31 0 38 17 25 18 2 32 37 18 26 19 31 14 35 35 22 38 22 22 15 23 6 8 13 7 32 19 21 33 19 10 20 13 1 8 3 31 27 30 16 32 2 37 32 35 30 39 2 38 13 6 30 35 11 29 1 26 5 5 12 12 26 37 26 38 15 28 25 25 11 36 15 9 36 13 37 9 25 12 19 17 17 29 39 17 15 28 9 2 35 1 17 17 20 25 18 36 38 11 34 10 28 19 26 2 33 6 18 4 3 10 38 28 12 32 32 18 13 38 4 18 21 8 35 27 12 8 32 15 34 35 28 5 4 21 39 19 22 26 11 14 12 9 26 13 32 7 33 28 18 9 23 38 10 28 3 2 29 4415 3068 2573 4377 4660 2957 4097 4806 4918 2830 3296 2793 2860 4696 3076 3208 3977 4348 3775 3385 2580 3416 3966 4878 4551 4189 3726 4574 2926 4915 3075 4957 3131 3794 4423 3453 4743 4458 3820 3092 2703 4210 4620 4955 4054 3010 3879 3677 2588 2583 3957 3155 2537 4005 3418 4098 3779 3901 3433 4564 3934 2813 4841 4289 2870 4019 2731 3577 4102 3259 4452 4249 3139 4838 2931 3251 3007 4993 3428 3182 3582 3126 4257 2550 4338 3639 3629 4641 4952 4683 2880 4626 4630 3751 4557 4914 3127 2598 4086 3754 3320 3706 3899 4022 2573 2842 3736 3302 3672 3345 3500 6 3881 4844 4411 3892 3327 2625 4080 4479 4491 3203 4638 3319 4247 2860 4670 3662 2908 3757 2918 4913 4769 2872 2502 2941 2934 3924 3881 3686 4034 3618 2929 4099 4581 2745 3519 3898 3201 3091 3704 2653 2774 3629 3393 3766 3063 2637 4503 4901 3718 2706 2860 4257 4156 2641 4336 4665 2860 3137 2754 3781 2968 4616 3124 4215 4724 4674 3415 2856 3369 4558 2988 2512 4472 4547 2780 4163 4300 2905 4899 4697 3133 2708 3050 3461 2830 4139 4189 3246 2777 3464 4679 3196 4757 2565 3478 3200 3440 4473 2528 3735 4761
18 39 6 14 14 13 24 37 19 33 6 39 36 11 38 39 35 17 32 33 16 14 7 12 38 39 9 34 17 2 27 3 2 3 5 25 3 25 30 3 5 2 18 36 11 5 7 14 31 19 15 7 19 2 35 0 13 38 14 9 1 18 16 18 34 28 27 29 17 9 33 15 17 5 39 25 24 10 22 14 29 31 1 11 5 27 9 11 7 3 15 18 5 37 21 27 28 6 16 22 19 21 22 2 22 38 14 21 13 6 7 33 23 12 34 31 4 13 18 19 1 25 7 29 20 5 24 34 18 4 35 36 10 6 4 20 16 38 34 34 2 38 10 10 7 16 32 11 21 36 2 8 23 17 37 13 9 16 30 29 31 28 37 27 27 18 32 34 7 29 23 34 15 7 16 35 11 39 28 33 32 39 20 7 31 30 15 27 10 34 37 38 3 35 9 34 6 38 2 30 7 19 27 9 22 31 12 17 8 28 16 9 2788 2950 4883 3597 4034 4148 2886 4184 4772 4103 3955 3104 2639 3836 3226 4001 4899 3922 3417 3019 3206 4318 2515 4057 3344 3895 2819 3576 4941 4565 3479 4104 2500 2811 3738 4779 4622 3129 3955 2636 4218 2655 3606 4424 3865 4635 2896 3573 3336 3995 3252 4027 2511 3298 4343 3374 3848 4307 3438 3328 4831 3703 2528 4976 2912 3385 3105 2559 4240 4245 3869 2537 4013 2676 2960 4103 4110 4574 3332 2598 2959 3529 3881 3216 2911 4353 4864 4930 3934 2871 4406 3437 2628 3833 3248 4098 4264 4112 4353 4241 4062 3490 2749 2824 4557 4765 4743 3835 2854 4434 4327 4047 2583 4187 3624 3522 3922 3535 2564 2638 2522 2669 4520 3840 3893 4240 2602 4390 4759 3919 2877 3234 2810 3549 4701 3529 4764 2680 3811 4345 4883 4005 3842 3525 4295 3005 3082 2709 3595 3176 4702 3232 3209 4803 4175 2525 4751 4660 3728 3105 3480 3012 2976 4572 4008 4697 3163 4518 4257 4483 4350 2908 3268 3770 3141 3893 2869 3327 4923 4524 2676 4001 4782 3199 3560 2626 4309 4087 4381 4705 4788 4991 4021 3734 3968 4934 3476 4539 4803 3078 2539 3420 4104 3684 4565 4689 3916 3888 2944 4392 4593 4215 4075
24 13 2 36 29 6 2 39 31 17 7 3 34 6 14 23 3 32 31 34 31 24 23 2 31 1 13 34 19 38 3 28 18 29 13 8 2 31 31 21 3 33 8 4 24 5 12 3 30 29 26 11 7 5 1 3 0 4 22 1 5 26 30 20 38 3 15 20 27 13 36 24 37 11 11 8 7 4 27 36 31 37 11 19 11 19 21 1 13 10 34 3 24 11 35 22 6 30 33 2 16 8 25 1 3 33 3 4 11 6 23 20 17 17 33 10 35 10 22 36 19 22 4 32 33 18 1 12 17 10 11 31 35 30 38 39 3 20 4 30 11 18 12 31 7 39 18 18 37 6 24 20 24 4 12 29 9 20 16 9 24 6 15 4 39 17 14 6 30 39 28 22 10 21 17 28 34 19 7 31 4 19 24 13 3 18 34 29 31 8 13 33 26 35 3 29 1 31 3 27 4 29 4 14 15 13 3 7 23 17 24 22 2681 2802 3325 3712 3436 4799 4276 3326 3456 3190 2567 3462 4449 3844 3088 3774 4112 4304 4233 3530 4365 4506 3682 4388 2758 2849 2836 2735 3475 3397 4616 3195 3503 3759 3484 4225 2809 3980 3600 4262 3527 2989 2715 2935 3528 3315 2940 4145 4181 4287 4884 3144 4679 4880 2942 2639 3299 3460 3809 3801 4726 4869 4451 3312 3440 3551 11 4349 3696 2675 4733 4482 2826 2702 4909 3670 3471 4140 3868 3291 3188 3829 2664 2799 4703 4833 3802 4492 3059 4775 2504 3574 4030 2667 3339 3283 4378 4830 3378 3198 3230 4219 4921 3174 3014 3094 3155 4990 4497 3493 2638 3195 4993 4261 3329 4612 2714 2690 3913 4015 3657 4033 3229 4734 2906 4206 3420 3558 3136 4263 2964 2658 4990 4775 3149 2562 2894 2574 3888 4091 3040 2658 4828 3731 4726 4476 4803 3597 4643 4886 3501 3625 2828 4948 4341 3682 2634 3066 4023 4378 4594 4267 3382 3716 3342 3809 3771 3148 2593 2991 4956 2980 2874 4341 4862 3239 3956 4592 3161 4480 3322 4651 3052 4722 4365 3846 2678 3235 4473 2754 4140 3099 4865 3402 3809 3081 3061 2931 4346 3436 4745 3060 4883 3448 3294 3959 4434 3430 3749 3085 4272 3739 4517
9 9 28 14 3 10 24 13 2 34 4 4 14 7 31 14 19 15 1 31 34 10 31 24 5 25 39 12 34 35 36 39 22 37 37 14 3 31 18 23 8 38 38 1 39 37 25 19 20 31 1 38 25 26 32 4 24 0 21 34 5 5 21 1 15 33 31 13 35 33 7 29 19 13 35 31 8 6 31 10 39 31 5 9 17 17 29 14 14 10 1 22 30 29 4 35 28 17 24 30 25 36 24 9 36 7 36 31 34 3 31 28 6 23 32 22 3 19 31 24 22 12 1 37 11 30 2 16 14 16 8 31 8 26 14 10 36 11 8 10 32 21 4 7 8 12 28 29 33 20 8 11 8 9 1 33 26 24 4 37 16 27 17 14 30 18 29 30 10 16 5 34 8 27 28 5 24 17 38 38 1 30 29 32 34 28 8 23 16 13 34 9 32 34 28 30 13 38 32 17 37 6 16 14 12 24 14 14 16 31 30 15 3427 4872 2533 3743 4409 3276 4243 2627 4180 3452 2861 2522 3162 3703 4534 4502 4091 4477 2599 2715 3553 4563 2652 3930 3633 3770 2846 4660 4710 4897 2862 4703 3273 4097 2825 3731 2587 3376 2788 4258 3871 3468 3907 4171 2584 3997 4374 3904 3517 3129 3513 4784 2913 4425 2861 4267 3346 3181 4489 4171 4541 3376 4789 3817 4141 4188 3474 4281 2905 4871 4717 3728 2675 4071 4679 4680 4803 2903 3893 2637 2752 4081 3175 3531 3503 4570 3185 4085 4362 4782 4956 4151 3904 4603 3367 4925 2812 4226 4080 4286 4761 3468 4457 2636 3430 4871 4399 3313 4985 3826 2668 4286 3096 4259 3249 4671 3285 3141 2959 3106 2822 4530 3127 4950 4457 4267 4356 2877 3277 3684 4388 4887 4789 4627 4027 2812 4955 4282 2640 4589 4368 4453 4865 3052 3784 4254 3223 3506 3835 4829 3735 4909 3949 4684 2916 3848 3294 4633 2570 3820 4040 4787 2943 4791 3646 4911 3978 3944 2696 17 3712 4902 2963 2787 4345 3471 4160 2650 2817 3438 4567 4412 3958 4930 4441 2577 3942 2679 3615 3107 4814 3686 3357 4805 3368 3097 3606 4751 4543 3670 3213 2546 3196 3538 4761 4321 4485 3883 4481 2632 4972 4503 4374
24 16 1 10 5 34 5 23 18 4 17 29 3 15 30 38 38 12 3 2 21 39 31 16 25 26 17 19 27 22 6 25 14 32 31 11 20 22 37 8 37 34 25 28 28 24 32 39 30 21 27 25 30 16 13 21 27 2 0 15 11 7 24 20 29 16 23 16 6 33 22 4 20 5 1 3 3 9 9 9 17 11 24 14 38 37 2 30 39 14 11 20 28 20 7 35 27 30 22 31 10 24 26 24 19 35 25 23 2 39 23 36 12 5 15 18 36 1 28 25 11 28 34 24 24 23 29 31 34 34 4 17 37 13 33 19 8 26 20 9 35 4 13 17 22 24 28 27 7 17 33 10 11 33 33 2 35 24 3 21 24 4 23 3 7 2 31 39 2 3 16 20 4 33 15 16 11 15 39 3 39 18 13 6 38 32 25 17 8 7 33 14 37 9 11 23 21 14 24 9 16 3 30 5 7 25 8 13 23 16 6 13 3057 3806 3676 3761 2515 3549 3323 2710 2599 4113 3176 3774 3707 3343 4976 3415 4713 3400 4613 4195 3998 4507 4913 3060 3143 3304 3389 2673 4142 2843 2755 3847 3056 2991 2645 4899 4899 4773 4751 4172 4082 4365 4861 2904 4800 4843 4158 3696 3998 4104 2691 3165 2920 3823 3310 2800 2635 4063 4182 4578 3374 4971 3426 3689 3690 4666 3710 3583 3526 3167 3086 3770 2657 4144 3538 4737 3291 4877 3035 3632 4653 2785 10 3745 4161 4780 4543 4707 4400 4777 3656 4238 3931 4390 2961 4891 2711 2886 4814 3931 4590 3159 4289 2994 4859 4716 3133 3269 2524 3685 2592 4297 3782 2966 3870 3030 3343 3085 3537 3388 3836 3767 4417 3893 3039 4674 2595 3682 3397 3176 4868 3592 4817 17 3081 2699 3083 2877 3145 3868 2667 4993 2801 4271 4286 3932 3206 4272 2553 3920 3243 3583 4079 2951 3553 3565 4674 3846 3779 3322 2763 2685 4011 3577 4459 2724 3442 3741 4190 2784 4665 2768 2902 4409 3084 3989 2942 2567 2726 2687 4018 4397 4408 2809 3211 3022 4110 3353 4198 2654 4462 4930 4861 4574 4402 3209 3422 4685 4050 4471 3246 4816 3770 2751 3563 4644 3150 4761 2984 3261 3771 3881 4814
24 8 13 9 21 22 29 14 9 6 36 3 34 33 17 9 17 24 26 5 31 14 37 18 29 2 35 19 17 31 26 26 35 31 10 34 4 31 39 7 35 12 26 7 2 8 30 35 37 14 19 7 5 21 2 26 4 10 22 0 31 29 6 30 22 31 18 8 10 2 28 29 10 36 36 23 21 35 34 35 29 10 37 4 16 36 27 22 31 7 14 35 37 36 38 14 31 32 22 35 24 5 22 28 23 33 37 29 1 2 12 38 23 16 7 26 31 30 30 10 10 30 8 30 8 11 23 6 11 16 10 33 37 37 35 3 6 10 21 27 37 12 33 38 16 2 10 22 5 35 18 7 27 35 24 5 10 2 24 24 9 18 34 14 8 11 17 25 3 15 9 24 9 1 17 21 19 1 30 33 10 36 27 21 3 17 23 14 15 5 13 3 34 32 19 17 35 21 10 30 32 36 34 37 33 1 2 37 26 2 5 24 3150 2512 4941 3943 3847 4814 2795 3323 4507 4978 4126 3240 4236 4688 3004 4654 3509 3031 3562 3273 3403 3507 3992 3042 3883 4140 4546 2848 2699 3767 3660 4067 3336 4445 3546 4773 3632 3799 3572 4792 2789 3929 4656 4758 4829 2864 3160 3568 3350 3652 4245 3876 3036 3367 3674 3403 3539 4423 3523 4460 2840 4655 2782 4625 4776 4278 3201 3223 2594 3274 3099 3525 4035 4358 12 3222 4020 2696 3413 4060 3087 3454 4510 3764 2797 3198 3502 3987 4984 4272 3252 3107 4831 3810 4769 4538 2736 4271 3990 2687 4395 2958 3321 2716 4684 3330 3841 4564 4317 2745 3942 3438 4346 2879 2939 3177 3737 2739 7 2972 4125 4998 3387 3797 4144 4169 3565 3163 4427 2921 3916 3639 3073 4881 3412 2851 2827 3871 3129 2563 4527 4104 3360 4265 4582 2827 4428 3698 4381 3715 2716 4233 4372 2682 4092 3282 4036 3905 3948 2879 2580 3359 2637 4487 2978 4954 4982 3675 4672 3067 4180 3799 4838 3175 3286 3760 2704 4156 2925 3784 4496 4735 2705 3794 4351 3591 3079 2684 3037 3637 3627 4887 4231 4345 3260 4143 3572 4435 2790 3912 4140 3632 4002 3860 4906 4358 4971 3659 2716 3357 2608 3433 3097
38 29 1 38 9 29 14 8 16 4 15 23 8 21 36 18 5 6 19 33 11 25 27 18 32 18 35 3 12 33 23 37 22 17 12 2 20 29 8 29 13 8 5 6 23 9 10 11 31 8 4 13 31 1 29 31 6 19 13 12 0 34 38 4 38 38 21 39 34 25 38 38 14 37 7 29 26 7 32 8 19 8 10 33 28 13 29 19 1 20 8 7 11 28 17 33 10 35 36 24 33 39 2 24 25 2 39 28 8 1 28 25 7 6 1 33 3 10 16 37 20 34 35 11 32 31 18 27 5 34 26 24 38 4 11 15 33 10 6 13 5 10 22 36 8 19 25 26 4 38 39 27 18 24 18 4 3 32 32 6 27 30 5 6 32 28 3 23 23 14 30 28 26 11 2 12 2 14 11 29 9 37 10 15 16 2 14 17 4 13 5 18 35 37 36 16 8 33 21 23 6 15 18 25 12 18 29 25 10 18 27 21 4943 3812 4348 3963 4905 3291 4007 4678 3985 2577 4462 4759 3077 2944 3178 4969 4427 3623 4608 3572 3569 3288 3325 2802 2765 3784 4670 4804 2606 4502 2916 4169 4394 3050 3507 3754 2592 4409 4917 3112 3213 2979 2846 4632 2924 3580 3782 3256 12 3006 2764 4270 4972 3516 4502 4544 4419 4283 2804 4646 4412 4419 3553 3333 3960 3942 4560 3097 4328 3928 4198 2524 4737 4090 3826 4490 3993 2692 2522 3308 4267 4188 3260 3218 4380 3402 4962 3966 4685 2837 4521 3678 3726 2535 2829 3222 3935 4150 4429 2900 3056 3101 2644 4414 2872 4106 4448 3727 4312 3824 2767 3146 2839 3481 3917 4053 2762 3048 4590 3284 2878 4831 3449 3098 2611 4687 3832 3700 4613 4159 3175 3914 4778 3033 4528 4622 3253 3404 3377 4665 2579 3206 4050 4599 4575 3720 2531 3002 3510 3113 4921 4279 4473 3326 4515 4318 3979 2560 4477 3518 2854 4388 4005 4378 2942 4176 4789 2979 4787 4670 4798 3495 2578 3522 4118 4874 2715 2732 3895 4568 3882 3998 4562 4533 2772 4539 3428 4462 3956 3951 4758 3327 2567 3433 3280 3043 4129 4072 2827 3100 4130 4040 3215 2590 3746 4312 2514 4116 4367 4667 3184 3048 3592
38 5 8 5 9 1 18 13 5 17 6 32 1 7 2 11 22 10 30 22 12 36 33 29 8 9 34 11 20 32 2 23 38 8 4 7 12 31 36 2 20 39 9 11 33 33 23 17 19 39 4 10 27 31 30 38 24 12 38 11 20 0 31 23 27 34 21 30 19 28 29 26 24 23 5 26 1 14 6 35 19 34 28 25 29 27 5 7 12 15 27 30 7 7 15 37 9 18 9 38 23 14 12 32 9 17 15 17 20 24 17 3 16 14 34 6 1 8 17 15 13 27 18 33 16 18 21 19 38 29 12 4 14 30 20 33 2 32 13 15 21 25 9 8 32 13 37 3 32 19 36 34 7 6 21 12 33 11 39 6 19 35 26 7 39 36 36 4 25 8 35 31 9 28 18 26 29 11 17 33 11 16 33 15 7 16 38 22 4 11 7 39 24 37 28 7 18 12 28 4 4 25 37 38 19 30 6 1 30 21 22 26 3613 4703 3449 4251 2568 3516 3705 3336 4051 4411 4015 3312 2930 3623 3557 3905 3778 2858 2753 3088 2942 4350 4838 4361 3395 4971 4568 3518 3253 3971 2532 3926 3470 4098 4148 4177 2938 3509 4979 4765 4069 3175 2754 3954 3355 4338 2799 3354 4472 4652 4221 4142 3867 2648 3426 4071 3604 4138 4313 4170 4645 3854 4315 3755 4454 3538 3381 3691 2804 4846 2854 4278 3820 4381 3008 4068 4285 3356 2665 4574 4134 4163 3000 4491 2596 2912 3551 4020 4543 3492 4163 3841 4473 4117 4387 3443 2932 4122 3462 3410 3691 4955 4354 3136 3004 4569 4908 4357 4557 4074 2983 4198 2525 2634 2965 4705 4294 4456 4474 3355 3658 2923 4192 2771 2561 2946 3703 3629 4435 3371 3217 4921 3715 4046 3371 6 4289 4832 3324 3882 3140 3024 4576 3951 2871 2802 3618 4694 4208 4882 3953 3887 4039 2885 4490 3029 4623 2717 2995 3153 3728 4214 4222 4709 2948 4812 4664 3571 3739 3492 4085 2960 3727 4125 3337 3272 3958 4710 4285 4100 3495 3146 4775 4188 3449 3505 4240 2767 3706 3358 3370 3481 3830 3780 3324 4740 4529 2842 2787 4526 3272 4397 3934 3565 2553 2673 4990 3886 4552 4827 3737 3101 3317
7 39 1 38 7 7 18 4 26 16 33 8 17 39 26 35 26 1 3 36 31 28 15 30 23 38 21 15 21 29 19 14 20 28 22 34 7 8 31 9 32 12 9 18 20 36 34 18 7 28 12 29 24 33 34 17 37 22 1 29 4 16 0 20 11 7 28 9 4 33 32 37 14 38 4 21 12 31 13 14 35 33 27 3 38 7 30 11 39 4 12 2 2 33 31 21 4 18 34 6 22 35 20 17 1 35 18 4 10 4 7 11 3 39 32 18 16 28 29 3 11 21 25 31 28 21 10 37 5 18 24 22 35 39 27 39 9 26 31 13 11 9 28 18 37 16 30 15 14 16 35 35 6 17 7 32 31 4 8 29 11 21 10 27 25 20 37 4 39 13 28 27 15 35 8 32 26 18 18 21 19 12 38 25 7 8 31 5 7 22 39 3 5 17 17 3 27 10 21 4 14 24 1 5 3 39 29 38 18 15 14 18 4304 3431 4436 4089 4131 4792 2831 4946 4979 2892 4776 4341 4104 4087 3915 4373 4586 2728 3899 3961 2870 3126 4664 4096 3448 3647 3614 3384 3771 2534 3678 2847 3884 13 4251 3530 4928 3418 3810 3971 4101 4437 2969 3460 2854 3675 2889 2789 2793 4494 4466 4902 4338 3042 2808 4770 3399 4659 3559 3810 2755 3708 3277 3973 2984 4502 4468 4180 4541 4906 3405 4615 3778 4369 3292 4052 4678 3143 3432 2514 4846 4239 3793 3299 3077 3703 3841 4237 4640 4480 3006 2889 4452 3050 4955 2608 3315 4881 3656 3865 4457 4165 4824 3955 4428 3812 3639 4056 4799 4298 2922 4091 4818 3080 4430 3449 3334 4323 4205 3093 2668 4757 3341 4525 3242 4202 4916 2890 3932 3112 2818 3337 3925 2649 4409 3172 2973 3762 2719 4928 4586 3996 3752 4382 4071 4544 4557 4253 3453 3455 3191 3339 2634 4786 4843 4810 3622 4947 4862 3387 3265 4074 3624 4392 3972 3643 3484 4481 4209 4911 4804 4533 3699 3489 2948 3786 3900 4631 2518 3368 2571 3455 3617 4101 3402 4840 4708 2923 4577 3252 2672 3322 4979 4302 4599 2576 3344 4548 2525 4278 2886 2697 3790 3621 3088 3872 2827 2741 3747 2616 4873 3054 3504
10 36 12 28 26 6 23 7 37 31 6 25 17 2 9 36 34 14 5 30 23 14 28 15 17 39 11 7 16 13 29 31 38 12 28 2 37 37 5 25 5 6 13 37 11 37 16 29 29 5 37 36 25 9 4 31 29 19 3 36 10 8 31 0 13 31 34 20 19 13 14 36 33 18 32 27 10 19 28 8 39 31 29 20 34 37 32 36 8 31 14 27 35 32 34 5 3 29 38 17 6 10 16 27 33 1 21 23 23 6 33 25 26 28 38 20 19 32 21 17 32 27 18 4 24 16 4 16 12 15 29 4 18 35 26 10 16 33 34 3 29 2 7 20 20 1 12 3 11 12 6 34 24 21 26 35 39 25 9 10 11 31 37 39 38 30 16 12 38 37 13 21 19 35 15 2 15 24 30 8 33 3 36 17 12 22 15 5 21 11 39 24 14 5 23 14 31 27 36 19 1 5 9 37 11 8 33 6 23 4 22 10 3474 3064 4484 4879 3090 2968 4494 4820 2792 3548 3241 2926 4733 4335 2531 4071 3393 3484 4842 2694 3254 4776 4372 3942 2520 3934 2831 4851 4761 4874 4552 4060 3119 4791 4646 4744 3907 4953 2617 4687 4081 4683 2973 3524 3323 2925 2687 4780 4512 3152 2803 2745 2840 2968 3132 4427 2579 4760 2632 3538 2579 4871 4083 2714 3750 3083 4117 3720 4169 2520 4205 3893 4162 2621 2694 4033 3940 3947 2944 4821 2759 3592 4628 3381 4118 4012 4640 4382 2679 3333 3504 3948 2551 3565 4393 3177 2915 4797 2532 4209 2995 2981 3608 3672 3467 4636 2817 2794 4160 4344 3118 3931 2569 4069 3588 2759 4060 4210 4778 2569 2760 3422 4650 2521 4364 2636 3357 4638 4416 4124 3081 3948 4140 4053 3165 3108 4772 3282 3332 4731 3002 2934 4752 3834 4182 4486 3855 3765 4831 2704 4643 3184 4075 2879 4861 4839 4561 2740 2999 4920 4534 3208 3185 3438 3625 3519 3290 2786 3678 4283 3547 3336 4876 3906 4262 2892 4722 2985 3493 3901 3979 3411 18 4643 3949 3362 2877 4448 2647 3994 4965 3613 3728 4023 2897 4383 4251 4617 4485 3439 3696 4293 3718 4646 3286 4621 2580 4890 4695 4447 4755 4198 4865
22 35 28 19 24 16 14 28 39 2 4 17 6 16 13 2 11 20 38 4 34 12 35 26 13 24 30 4 37 28 3 13 32 9 5 14 19 17 6 22 21 35 27 8 32 30 19 19 2 33 32 1 25 28 9 13 13 6 22 11 13 2 2 9 0 15 35 6 39 1 8 9 31 11 38 19 17 33 13 31 33 18 24 34 14 24 13 8 11 28 11 1 22 35 26 14 5 30 36 21 29 34 11 18 25 22 31 3 31 15 32 29 31 11 28 28 12 28 27 13 23 35 39 39 22 3 13 17 33 17 5 26 39 6 38 33 13 9 6 32 32 29 26 22 17 6 19 36 2 8 24 3 33 24 3 31 2 23 1 28 37 30 28 22 22 24 27 3 16 1 3 38 15 37 26 18 18 27 31 3 12 4 17 28 9 21 38 16 5 16 17 8 10 3 34 18 36 38 31 30 2 24 13 19 6 2 20 12 8 7 18 6 2826 2811 4160 4418 4918 2944 4653 3335 3210 3267 3202 4164 3583 3482 4966 2865 4143 4764 3775 3271 4516 2505 4826 4596 3006 3091 3399 4648 2757 2718 4116 2724 2816 4749 4393 3081 4216 4128 3754 3311 2554 3345 4389 3145 4739 2609 3797 3744 4778 4601 2805 4885 4349 4057 2631 4079 4572 3311 4769 4818 4649 4871 4213 3900 3653 3058 3659 4082 3139 4238 4389 4407 4809 17 3534 3732 2896 3144 4939 2782 2925 2509 3235 3846 2583 4532 3775 3009 3324 3932 4626 3183 4550 3569 4943 2563 4502 2988 4674 3806 2550 2813 4343 2864 4136 2769 4150 2891 4001 3879 3783 4142 2581 2760 4069 4520 3304 3163 3538 3304 3711 17 4920 4126 3016 4523 3436 3348 4662 3160 4780 2926 3253 3160 4188 3495 4806 4495 4004 4860 2992 3288 3435 4862 3565 3898 3882 3646 2692 4797 4178 4844 4091 3731 4891 4846 4830 4937 2578 2524 3328 4215 2864 3530 2985 4458 4238 3760 3106 4929 4936 3582 2991 3011 4437 4144 3554 3529 2847 4368 3923 4662 4804 2932 4566 3852 3069 4689 4226 2773 3573 2955 3287 4680 3124 4316 4831 3327 2879 3081 4026 3771 2584 3309 4501 3591 4302 2667 4899 3458 3596 4853 3126
25 24 39 5 11 22 27 18 12 11 27 34 20 4 35 27 32 7 5 21 19 5 16 2 31 38 23 15 14 20 5 23 3 7 17 3 29 24 14 32 27 32 3 7 20 33 39 11 21 9 31 16 16 36 37 15 24 28 1 19 11 39 5 11 10 0 21 18 3 22 14 9 10 6 8 11 24 2 10 31 18 31 10 17 17 7 21 2 34 35 7 4 2 18 26 37 18 5 19 11 30 35 31 31 24 31 12 29 6 3 33 25 22 21 23 39 9 29 3 12 1 15 12 5 19 38 25 9 20 22 35 30 26 31 37 30 14 34 8 23 19 20 25 33 26 25 33 19 16 38 33 20 32 18 35 11 8 20 37 39 19 12 9 39 12 11 21 6 4 39 38 5 13 19 8 37 27 14 24 12 38 20 9 10 30 10 30 5 17 15 20 1 27 3 39 28 1 8 38 3 3 9 4 23 28 37 7 16 26 26 30 18 2523 2512 3055 3361 4577 2585 4879 2970 2547 3691 3107 4793 4239 4612 3764 4146 4407 4674 4484 3214 3296 4439 3085 3876 3918 3420 2515 4345 4191 4230 4491 4004 4348 3689 3667 4561 3095 4879 2828 2773 2951 4352 4065 4395 2919 2560 2934 3673 4482 4241 4158 4476 4562 4091 4157 2804 4139 4439 4892 2562 4851 4431 4943 3090 3777 3357 3244 3902 4702 3296 2711 2961 4741 4087 4761 4616 3631 4564 2566 4773 2671 4362 2822 4313 4121 4422 4175 2829 3776 4046 2931 4384 3659 2742 4640 3897 3513 4439 3351 4036 4227 3269 2876 4781 4553 2896 3778 2568 2829 3630 3894 3256 3791 4851 3025 4311 3974 3097 2743 4694 4108 4526 4576 4429 3953 4807 4158 4991 4174 3894 4851 4602 3366 3506 3927 4777 2986 4548 4631 3663 3908 4727 3088 4096 3895 3038 3391 4237 3173 4920 4867 4360 4802 4474 4675 2862 3429 3144 4654 2737 3792 3193 3239 4871 3906 4942 4410 3393 3868 3166 3966 4076 4153 3596 4793 2692 4476 4736 3211 2534 4741 2508 4299 4068 4646 4433 3899 3469 3096 4561 2650 4540 4190 4248 2847 3131 4826 3033 2572 2827 3147 2646 3248 3478 3916 2651 4135 3418 2724 3939 3513 2567 3980
13 35 8 8 31 4 23 39 7 27 2 8 33 33 14 4 28 38 29 34 38 19 11 20 16 18 30 17 38 33 22 12 32 35 8 38 15 25 28 16 36 27 36 12 23 22 20 4 24 29 19 13 5 31 9 4 23 10 19 24 8 16 20 29 30 14 0 23 36 11 14 13 33 35 27 29 35 16 6 19 35 25 36 21 3 38 3 15 38 32 7 18 35 37 24 39 16 28 34 16 38 19 16 37 26 13 20 23 29 31 11 7 32 7 8 23 33 38 4 29 17 32 22 20 14 39 17 22 29 23 28 8 12 3 6 24 2 5 38 37 17 8 25 37 19 20 13 19 35 3 21 15 25 10 28 21 35 28 18 6 31 31 31 22 18 9 29 35 5 37 3 37 33 12 21 16 37 13 28 25 14 39 31 35 4 34 36 10 9 5 30 20 29 3 24 32 7 28 39 37 37 1 10 39 33 24 20 11 6 22 15 16 2916 4013 3919 3052 3064 4108 3109 2779 2855 4836 4321 4540 4384 3584 3345 2951 2581 3432 3289 3495 2804 4310 4201 4559 4463 3575 4396 4799 4795 4489 3855 2535 4270 3845 4695 3195 4406 4703 4376 3285 3620 2559 3380 2643 3937 4591 3669 4362 4982 2625 4845 4152 3762 3904 4774 4643 3477 3714 4767 2971 2914 3842 4486 3936 4664 3632 3799 3248 4690 3784 3987 4945 2751 4513 4721 3441 4875 4978 2937 2701 2757 4099 3879 4540 2802 4855 3546 3533 3372 4994 2691 2947 3759 4525 4641 4424 4336 4055 3998 3699 2675 4724 4836 4880 3008 3171 3991 4583 3290 4727 4465 4254 3836 2900 4589 3044 3541 3030 3682 3509 4029 4508 3946 3369 4210 3461 3840 3629 13 3839 2707 2824 4749 3525 3671 3617 4260 4131 4420 4233 4549 4930 3505 3892 3755 3643 4376 4137 4084 3988 4552 2980 4109 3770 3618 2628 3373 3399 3897 3434 4413 3196 4450 3126 2629 3029 4843 2955 4322 3292 3253 2647 4439 3746 2755 4100 3325 2554 3370 3350 4252 3363 3638 2923 4126 3524 3917 3740 4672 2815 3319 4203 3326 4713 3729 3105 4428 3541 3210 4511 4913 2603 4108 4128 2655 2803 3163 4953 3203 4110 3338 3249 2832
35 1 27 5 27 22 22 19 38 9 29 17 35 16 4 34 32 15 11 20 15 31 39 15 28 13 29 4 33 1 33 38 7 11 12 20 9 27 25 30 2 33 27 30 20 16 9 8 29 32 37 20 10 25 23 11 5 20 12 29 33 33 8 13 5 16 24 0 36 33 17 24 11 20 36 5 2 25 16 39 22 18 3 34 18 39 16 36 31 34 2 5 35 14 20 33 15 8 29 7 36 20 6 21 14 3 33 18 30 13 33 26 3 25 18 22 21 17 29 7 37 2 27 30 22 22 2 23 26 36 5 14 28 24 1 35 24 35 34 8 32 26 24 12 20 10 35 18 39 28 38 38 23 39 36 37 17 39 20 11 2 18 33 3 13 24 10 39 4 5 14 36 38 7 7 16 17 12 21 16 9 33 2 17 36 38 5 35 7 3 34 22 19 31 8 14 13 12 29 4 32 17 10 29 30 8 7 14 23 37 5 11 2574 2623 4768 4187 4752 3932 3842 3425 2772 3745 4726 4866 4400 4555 2546 3926 4656 4460 3381 2597 4587 4784 4345 4782 4161 2831 3246 4262 4352 2582 3616 3546 2681 3967 2505 4528 3877 4191 3695 4747 2542 4709 3467 3368 2927 3412 3108 4570 4176 3173 3738 3517 2945 4940 3733 3374 4872 4163 2871 3306 3693 4269 3836 3681 2694 2941 4444 3590 3093 3402 4324 3235 4377 2931 3500 3719 3502 3021 3096 2652 4873 2609 3470 3077 4420 3852 3301 2764 4379 4961 4123 4949 4159 3941 2602 4388 2693 2513 4727 3197 4483 3394 3597 4564 4771 4950 4282 2530 4643 2654 3507 4712 4628 3767 3511 2688 2978 3373 3729 4201 2581 4960 4280 4103 2601 4090 4555 3932 4284 4317 3083 4151 4744 2568 3514 3858 4091 4993 4694 4251 2650 4570 3621 2708 4650 2862 3443 3860 3939 2587 3208 4488 4419 4374 4494 3381 4071 2783 4584 2763 4726 3271 4767 4466 4372 3436 4500 2737 4429 3040 4013 2973 3324 3269 2924 4282 3864 2970 4822 2804 4955 2639 3023 4910 4834 4858 3995 2995 4395 4365 3792 4009 2621 4800 4902 3285 3181 3564 2563 4269 3977 3508 3910 4689 4868 4386 2747 3236 4857 4301 4573 4115 4250
24 14 21 12 38 19 32 8 21 24 4 10 33 4 31 10 31 12 5 38 2 12 15 31 29 16 34 1 24 15 30 22 32 30 18 15 31 27 29 29 23 35 26 33 39 21 30 14 9 1 2 10 37 39 4 10 31 7 12 1 2 17 26 25 35 8 1 23 0 32 32 7 39 39 4 37 17 5 36 7 21 22 34 20 18 17 8 4 10 11 27 27 20 18 16 1 25 20 1 37 21 11 38 30 17 27 5 33 34 17 8 37 2 33 8 39 37 16 32 2 22 16 22 18 21 17 3 1 23 5 31 2 34 38 37 30 23 19 29 27 26 22 26 20 6 33 7 33 35 34 14 23 27 10 27 23 20 12 37 11 10 5 5 38 20 22 35 17 20 39 39 9 30 2 33 4 36 1 3 38 38 29 25 26 10 11 12 8 26 1 22 27 27 2 26 12 23 35 5 17 7 27 28 24 6 18 27 5 37 37 25 18 3959 2593 2780 4729 4247 2682 3639 4269 4987 4059 4752 3788 3368 4428 4468 4316 3889 3288 2698 2760 3220 3116 3586 3770 3024 4840 3192 3077 4228 4388 3453 3869 2606 4566 4176 3441 4526 4395 3468 2627 4533 4329 3368 4025 2520 2563 4462 3385 2506 4337 3532 4195 2647 3034 4306 4522 2532 4074 3564 4435 4217 4421 4647 4437 3927 4858 2556 2900 3250 4460 4496 4310 3132 3474 2838 3662 3089 3780 4901 4406 3281 4379 4611 2739 4894 4690 4432 4286 3863 2632 2699 3765 4858 3393 4437 4955 2954 3619 3202 3413 2775 4193 2545 2690 3228 4237 3008 3538 2882 2994 2726 4373 3385 2606 2851 3128 3402 3369 3154 3945 4964 3838 4573 3794 2764 3352 4111 4304 4005 4287 4676 4671 3820 3325 3612 3391 4363 4206 4808 3657 3205 4679 4925 4652 3282 2728 4969 2652 4060 3383 4444 4136 3465 3563 4379 3960 4103 4919 3562 3475 4429 3319 4682 2709 2508 4406 3017 4492 4214 4021 2775 4337 3117 3763 4150 3090 3686 4522 2559 4252 2574 2565 3513 2707 3110 4013 3608 4257 3341 3021 2835 3187 2820 3568 3133 2709 4483 3255 2621 3897 3913 3852 2824 2512 4371 4638 3129 4250 3190 2684 3168 3668 4782
33 35 35 14 13 39 15 35 18 17 37 32 21 26 23 37 4 6 28 36 20 4 7 28 29 26 11 23 8 33 12 4 2 22 15 6 33 31 5 6 12 17 38 38 29 37 22 16 16 13 33 39 14 4 2 15 26 17 15 16 2 37 28 4 11 15 33 18 5 0 8 29 10 3 9 25 20 20 24 20 35 11 31 3 8 23 34 1 7 20 30 9 28 17 39 36 5 27 7 3 27 9 27 22 20 20 31 34 26 37 5 9 2 13 28 17 13 37 31 15 15 27 36 9 21 26 37 8 3 32 9 22 17 3 33 1 36 18 23 34 21 38 25 24 38 37 31 33 4 17 15 20 13 12 39 1 26 20 2 38 3 39 39 5 11 12 25 31 31 1 8 33 28 26 3 1 33 34 5 24 26 2 18 7 25 37 16 20 7 8 2 34 3 2 7 11 12 26 11 37 11 16 21 38 38 13 6 22 10 28 10 29 2811 4251 3464 2643 3784 4894 2773 4050 3301 4519 3656 4001 2708 4460 2899 4721 3621 2712 3456 3304 4067 3517 4861 3065 4429 4983 4927 4696 4341 4664 3017 4960 3593 3959 4380 4337 3296 3759 3740 2560 4126 2812 2539 3141 2760 2642 3734 2715 3240 3184 4279 4620 3156 4955 3781 3527 3064 4635 4175 2639 2619 3116 2669 2793 4337 4366 4662 3946 3657 4334 4155 3092 3046 3126 3991 4973 3647 4027 2970 3800 4499 2822 2955 4650 3265 3965 2749 4316 3096 2691 3584 3925 4815 4522 4254 3300 4449 4804 3530 2719 4239 3863 3863 4632 3423 2502 3450 2598 3561 4074 3604 4280 4546 3739 3184 3565 4197 3404 3194 4336 2726 3302 3120 4817 4673 3182 4876 4282 2833 3141 4187 4539 3132 4171 3303 3236 3504 2915 3339 3084 2699 4426 3492 2979 3659 4303 3395 3178 4325 3476 4282 3716 4199 3026 4375 4402 4631 4563 3090 4622 3167 3964 2998 3895 3400 4928 4715 4685 4551 4073 4895 2871 4723 2611 3216 3886 4933 4532 4307 4256 3695 3387 2648 2668 4520 4902 4061 4203 2626 3055 2877 3466 3467 3823 4325 3367 4848 3565 3201 4873 2780 3250 3307 3089 4001 2996 2957 3555 4431 4413 2787 4039 2791
22 32 1 18 19 19 23 29 19 10 12 30 16 37 34 15 12 23 20 4 29 35 15 4 10 6 15 3 12 11 29 36 4 30 26 9 12 9 16 5 19 26 14 13 9 8 30 26 34 12 28 16 13 16 8 33 32 11 31 34 12 34 25 1 1 39 18 20 2 6 0 25 17 10 27 8 24 17 9 20 39 39 12 4 25 24 12 5 22 4 21 27 19 32 7 18 38 38 12 19 37 1 2 18 25 20 15 28 8 37 30 36 34 16 29 36 12 34 35 31 13 2 26 24 19 19 3 9 27 16 35 35 19 27 33 33 15 7 38 24 23 27 22 19 26 4 24 27 39 13 26 36 34 36 33 36 32 22 26 6 29 2 27 31 18 32 14 18 29 27 12 15 34 1 25 35 5 10 1 13 30 30 21 29 5 2 23 34 6 36 4 19 24 18 12 39 16 23 10 26 9 19 21 36 29 33 28 22 5 20 38 15 3656 4489 3312 2820 3231 2518 2938 3865 3222 4813 4729 4948 2722 3906 2989 2583 4992 4729 3899 4695 3686 3863 3594 2751 4281 3283 3376 4263 3805 3648 3214 3127 3293 4574 3664 2623 3137 2565 2961 2780 3131 4430 3312 4054 3637 3898 2769 4784 2943 3936 4160 3927 3403 4814 3480 3903 3471 4368 2515 3026 4611 3604 2857 2540 3064 3324 3938 4084 4978 2944 3565 4635 4644 4383 2608 3269 3768 3071 2678 3948 2845 2810 4045 3488 3163 3079 4579 3620 4766 3558 4922 3573 4774 3223 2523 4739 4224 3607 4270 4213 2766 4844 2613 4187 3170 3415 3780 2763 4412 2629 2744 2657 3257 3546 3932 4913 3839 2688 3283 3476 4024 3361 4371 2750 2508 3437 4540 2529 4824 3673 4308 3466 3274 3175 3394 3769 3614 3352 4922 4189 4622 4152 2945 3625 3630 4816 3267 4230 3372 4350 3723 3947 4388 3471 4137 2847 3247 3067 3727 2763 2537 4962 2791 2786 3708 2736 3587 3426 3284 4253 3866 4790 3912 2962 4689 4568 2897 2524 4816 3466 4107 3074 4529 4430 3278 2845 2509 2843 4227 4159 3963 2949 4945 4578 4334 2940 3801 3012 4810 3145 4253 2624 3728 2843 3713 3830 3402 2517 3871 3049 3453 3145 2882
18 20 39 16 9 19 26 16 29 19 33 27 4 2 29 28 34 26 12 21 39 13 29 11 13 4 36 12 10 11 29 6 5 29 33 8 14 5 14 1 19 11 23 39 19 11 29 5 37 18 15 26 27 3 26 25 10 22 11 27 37 35 1 29 29 39 18 25 9 35 38 0 35 9 39 33 17 10 23 11 26 1 30 6 20 3 12 12 3 35 11 11 32 4 16 37 34 36 21 29 16 18 35 28 8 25 10 13 17 31 31 18 1 1 30 36 22 26 10 18 14 39 19 13 4 5 22 19 15 38 11 6 27 36 19 6 29 37 15 29 16 6 32 29 19 29 6 19 30 26 22 8 37 34 34 38 18 30 10 5 20 22 13 37 39 21 25 31 9 31 6 20 21 31 26 33 1 39 2 24 22 18 25 3 5 37 9 25 35 16 19 12 24 21 35 9 28 39 22 18 12 6 38 32 36 20 33 7 24 1 5 9 4758 4117 3268 4606 2772 2735 4491 2552 3298 4639 2857 4972 2990 2683 2712 3482 3350 4470 3304 3177 2595 3423 4513 4119 4110 3889 3580 4905 3674 2882 3538 3022 3798 4926 2653 4063 3541 3679 3928 3703 4484 3720 3124 3064 4795 2745 3293 4241 4787 4373 4571 3657 3120 3748 2571 4440 4543 3343 4064 2564 2511 4032 3816 3880 3158 2948 2719 2997 4675 3141 3598 3117 4513 4675 3947 4174 4083 3152 2796 3314 4586 4233 3425 4897 4355 4777 3101 2570 4802 4846 3260 4962 3050 4100 4383 2871 4705 4233 3906 3606 3480 4121 3546 3991 4535 2559 4470 2931 3190 2730 4509 4805 3627 2751 3500 3426 3019 3964 2577 3507 2555 4511 3400 3397 4905 2633 2636 4168 3600 4590 4861 3164 2552 3514 4110 3779 2641 2780 2890 4007 2834 2712 3441 3670 2924 3493 2545 2590 3164 3796 2831 3918 3238 3317 3641 4754 2834 3640 2974 4751 3289 3870 3950 3822 4052 2533 4046 4374 3174 4834 3173 4480 2812 3583 3886 4047 3699 3160 3742 3397 3353 3170 4741 4920 3963 4643 4148 4307 4967 3194 3844 4920 3872 3006 2706 3932 4845 4587 2675 4612 3519 3372 3715 3930 2617 4060 4170 4588 2723 3763 3585 4793 4436
1 9 16 18 16 30 11 30 35 19 37 3 12 18 4 23 21 26 36 8 18 32 30 16 4 16 33 8 13 16 26 29 22 3 12 7 24 20 1 39 37 16 18 35 23 15 35 1 31 26 8 32 28 2 14 3 8 35 13 32 13 10 2 13 28 39 11 34 9 22 27 3 0 36 6 39 7 23 39 23 25 6 9 36 20 15 11 19 19 35 1 6 16 10 35 9 18 17 34 24 37 12 28 20 9 13 5 23 15 31 24 24 35 32 3 28 15 28 19 4 2 19 19 18 12 16 26 36 38 39 8 33 6 10 25 31 5 29 38 8 31 4 14 38 39 16 16 12 2 24 20 6 25 19 12 3 36 31 37 12 15 31 37 1 29 30 36 14 26 3 12 18 4 5 2 4 36 34 5 24 9 28 9 16 7 14 29 18 19 5 27 18 38 31 33 28 5 14 16 18 38 31 18 36 1 25 2 23 22 4 10 39 3619 4433 4053 2662 3263 3303 3257 3188 3191 4536 2564 4271 4883 4580 3106 3890 4386 3492 2695 3043 2958 3587 4223 3552 4913 4631 4000 2610 4766 2639 2858 4060 3510 4271 4895 4623 2714 3161 3485 4684 3782 3053 4459 3225 3635 3791 4163 4956 3963 4729 4900 2951 3017 3597 4024 2554 4746 3969 4317 2987 3350 2646 3516 4157 3596 3693 4505 4618 2523 3378 4679 3448 3141 2750 3460 4285 4444 4145 4370 3772 4543 4773 4765 4112 4351 3639 4562 4621 3726 4336 3935 4937 3078 2703 2571 3924 2975 4751 4977 4398 3870 2951 3294 3325 3557 4252 3233 2569 2629 3662 3298 2702 4861 4158 2719 4268 4109 4350 3894 4800 3767 4827 4971 4915 3042 2702 2501 4240 3468 3319 4573 2830 3224 3804 3464 4211 3019 4202 2735 4401 4972 4098 3149 3836 3162 4518 4389 2526 4701 2613 3046 4427 4313 3510 3793 2880 3247 2769 3077 4502 3801 3774 4354 3460 4657 3880 3739 2504 2534 4549 4731 3905 4831 3050 4410 2845 4442 4344 4589 2930 3742 2865 3413 3931 3727 4494 2837 3912 3578 3874 3655 2907 4201 3480 3701 3671 4710 4043 2832 3544 2512 3882 4967 3413 2939 4456 2854 4254 3036 3913 4364 3781 2804
39 25 38 14 23 11 39 35 38 12 39 20 36 15 8 2 15 14 32 21 12 6 11 27 16 2 10 7 20 35 31 7 18 30 1 23 18 32 9 12 2 20 26 5 33 9 1 6 20 14 10 9 5 12 20 36 16 27 27 7 25 10 30 25 18 8 19 20 2 14 33 18 21 0 14 15 33 4 36 39 9 13 14 22 23 20 14 32 5 32 14 27 19 19 3 36 20 24 4 1 24 3 13 3 33 39 25 13 24 16 20 12 39 5 33 16 17 26 37 28 10 14 32 17 26 9 17 4 1 38 33 8 2 39 7 34 33 30 19 22 1 23 24 2 15 35 30 31 39 36 24 32 20 21 22 13 8 33 19 37 29 10 4 33 1 7 38 19 10 17 16 20 33 35 12 31 2 19 17 25 14 14 2 9 37 22 19 29 23 9 12 37 5 10 9 11 27 24 2 1 18 35 22 37 30 23 24 9 36 28 15 21 4594 4017 3234 3904 2523 3619 3481 3217 3028 4296 4332 3502 3190 3444 3978 3971 3641 4964 2705 4104 4352 3916 2648 2696 4281 4786 2874 2960 2574 3028 2869 2932 3559 4392 3776 4334 3724 3983 3167 4368 3290 3434 2834 4335 3249 3443 4690 2789 4358 4828 3550 4574 4196 4214 3408 3148 4508 2862 2708 2921 3746 3700 2700 3327 4113 3793 4978 4956 3700 3299 2815 3890 2803 4655 3889 4426 2822 4798 3539 2876 4703 3411 2505 2923 3558 4727 3771 4417 3772 4978 3562 2956 3091 2760 4433 3663 4930 4828 4796 3010 3083 3601 4490 3516 3887 3431 3601 4496 2657 2959 4414 3625 4661 4694 3771 4773 3082 2866 4979 3723 3589 3286 3201 4126 4047 2940 4582 4120 2873 3838 2837 4507 3361 4598 3169 2824 17 2991 3058 4308 2533 3455 3616 3673 4409 3577 3011 3130 4865 2606 4425 3138 2571 4912 2674 3174 3304 2704 2598 2693 4410 3023 3624 3078 3619 3921 3132 4598 3641 3933 4112 2810 4733 3877 3460 3957 4284 4146 4489 4606 4198 3288 3020 2751 3595 3526 2934 2637 4272 2797 2822 2931 3777 3045 2817 3353 4353 4063 3344 4365 3382 3226 4053 4296 4823 3314 3141 3788 3772 3015 4818 3781 3806
16 20 1 36 6 5 27 35 10 12 38 16 30 35 22 35 32 36 36 2 33 1 26 37 30 16 2 5 15 34 38 9 12 3 33 35 33 22 39 24 8 16 26 25 2 34 4 17 30 25 1 23 28 17 14 19 32 6 20 34 5 10 18 3 37 5 39 32 14 5 29 36 27 7 0 25 18 9 16 20 23 7 9 4 4 5 32 7 2 36 34 21 6 19 28 31 27 30 10 28 11 37 30 6 26 8 30 28 39 30 8 11 26 34 27 39 32 21 14 37 8 3 3 7 15 9 22 38 32 38 17 5 23 24 17 10 7 32 10 15 4 1 3 30 25 20 26 20 21 11 21 38 29 20 21 30 6 1 29 36 31 5 16 8 37 6 18 2 33 32 5 32 20 8 29 2 11 39 39 25 11 32 18 39 3 12 20 20 37 29 18 23 22 2 31 33 15 7 19 1 35 14 8 2 10 31 36 37 5 3 22 20 3141 3768 3344 4203 3690 2725 3073 4897 2523 4449 3339 4523 3057 4470 4602 3725 2619 3000 3939 3051 3556 3039 4551 3542 3352 2662 2789 3793 3731 2787 3968 3499 3658 4433 2920 3022 3926 4106 4260 3118 2891 2508 4035 4529 3366 2864 4654 4491 2952 2837 3361 2752 4191 3536 2671 4189 2733 4419 3767 3761 3951 4235 4752 3530 3634 4583 3218 3905 3717 3242 3351 3147 4795 3546 2919 2611 2575 2720 4438 3470 4934 4454 3808 3995 3880 2811 2782 2864 4846 3200 4360 3432 2726 3443 2940 2875 3508 4317 3759 4151 4971 3273 4011 3562 3821 3978 3090 3840 2634 2824 4997 3032 3298 2867 3998 4011 3163 3046 4264 3519 2748 3683 3999 2580 4817 4783 4058 2867 3398 2585 4141 3520 4553 3210 2825 2844 2843 4623 3807 4606 4452 4364 3645 2967 3919 4132 2828 2608 4652 4456 4321 4234 3189 3868 3803 3489 2702 3331 3779 3423 4042 4061 3378 4546 2872 4332 4484 4345 3487 4939 2638 4804 4649 3338 3268 4378 3296 4126 4818 4531 4880 3756 3733 4176 3450 3959 4332 3964 4061 3992 2804 3314 4637 2510 4190 4910 3754 4018 3349 4319 4381 4182 3166 3401 4691 4789 4083 3614 2708 4510 4755 3040 4392
17 2 20 25 17 28 24 30 28 27 38 36 3 24 28 4 9 1 20 9 7 6 21 35 15 19 18 3 14 16 28 18 7 38 1 29 9 5 11 20 10 8 38 15 31 1 12 27 4 13 28 32 7 7 14 21 30 2 27 20 37 2 16 16 4 13 18 23 8 30 25 8 31 26 31 0 34 18 35 31 24 6 5 19 14 16 24 31 12 6 26 28 6 25 6 29 38 33 9 17 33 13 22 11 7 2 37 32 5 7 22 13 9 17 3 20 32 10 35 4 26 14 27 17 17 36 9 1 32 25 19 13 11 19 20 38 27 22 20 22 7 3 16 33 12 5 32 25 7 36 30 9 15 29 15 38 15 27 38 28 26 16 6 35 17 9 13 27 30 29 5 24 24 16 34 7 35 3 11 11 17 10 9 39 11 25 1 19 7 18 16 36 14 35 36 23 13 19 6 16 31 20 29 1 7 29 33 27 5 27 32 28 4323 2670 2690 4997 3687 4917 4625 2817 3567 4727 4676 4682 3003 4418 3313 3330 3033 4709 3799 3526 4749 4213 2947 4900 3568 2518 4329 4318 4921 3544 4752 2797 4852 3499 3060 2568 3364 4974 3609 3641 4360 3444 3523 4300 2571 2526 4827 3113 3854 3174 4690 3643 3065 4082 4926 4511 4206 4085 3374 3244 2894 3900 3158 4431 3900 3653 2657 3692 4588 4084 3732 2951 4159 3925 4722 2850 4923 2964 3523 4881 4640 4416 3032 4174 3710 2805 3935 2696 3598 3101 3088 3816 3746 2748 4697 4104 3258 4423 4028 4073 2539 2915 3352 3136 3608 3925 3967 3164 3096 3621 3848 3245 2624 3934 3086 3534 3165 4736 4867 3752 3475 4055 3769 3251 3651 3188 3094 3553 2572 2763 4872 3597 3888 3457 4324 2785 4376 3918 3653 2725 3673 4128 2735 3652 4492 4808 4309 3231 4627 2651 3760 2522 3342 3674 2544 2901 4292 4983 4823 3606 3533 3040 4765 4508 3658 4505 4894 3396 3437 3057 3446 3703 2600 3466 4987 3805 4448 3782 4240 4809 4930 2581 2634 4046 4230 4030 2831 3800 4907 4605 4517 3658 2944 4947 4496 2577 3412 2931 3897 3241 4514 3329 3870 3062 4439 3248 2892 4143 4116 4794 3011 4474 2647
24 6 35 4 15 25 2 3 12 35 4 27 3 37 37 21 34 19 4 12 16 37 23 22 31 10 1 23 35 33 25 8 28 11 1 13 27 35 8 22 20 35 15 37 15 25 35 13 14 31 15 10 5 11 10 28 34 21 9 14 25 27 12 30 10 11 23 21 20 24 15 10 21 10 12 30 0 22 19 3 13 16 34 39 17 12 11 38 2 31 18 37 31 39 29 21 22 20 15 14 3 10 13 28 18 34 27 2 32 6 23 32 38 16 38 2 28 30 8 4 8 33 6 21 14 18 2 34 8 29 33 11 9 9 33 11 8 12 16 34 8 32 24 5 15 4 20 16 33 3 13 27 37 18 30 5 16 35 17 14 30 4 19 17 17 13 12 14 9 36 3 32 38 18 13 2 9 13 37 38 16 4 2 13 15 39 26 26 20 21 14 6 11 7 15 14 39 33 6 13 10 16 9 15 3 6 17 14 16 5 27 32 4730 4536 2968 3263 3534 4497 4296 2904 4181 4281 3205 4989 3464 4272 3168 4453 4938 2835 3584 2975 3936 3325 3065 3401 3467 2553 4487 4427 3589 3247 4271 2733 3405 4576 3010 2692 4426 2914 2593 4054 4340 4231 4772 4249 3851 4346 4723 3887 4847 2724 4870 2997 2782 4637 3674 2892 3403 4060 3209 4331 3697 4168 4460 3904 4905 4992 4547 4657 2777 4503 4992 4569 4392 4184 3051 4916 2988 3970 3069 3464 3491 3835 3172 4938 3478 3876 3117 2668 4109 2521 2589 3978 3366 3354 4333 3375 3251 3629 3157 3242 4252 2980 3236 3358 2518 4524 4261 3284 4026 4538 3193 3660 3819 4704 3479 4915 4329 3298 3573 3868 3934 4565 3413 3812 3380 4829 4719 3166 3703 4864 3357 4145 2853 3578 4456 4050 4607 2779 4987 3179 3366 4494 4210 3970 3054 3280 2641 3119 2746 4891 4839 2991 3194 4130 3371 3355 2992 4716 4510 3967 3593 3238 4881 4881 4079 4184 4594 4808 4787 2859 4407 4480 2659 3310 3409 4032 3095 3016 3151 4241 2892 4422 14 4676 4699 3100 4404 3551 4189 3131 4705 2832 3521 3746 2500 2540 3103 2805 3580 4939 3180 2985 3981 3824 3402 4574 3581 2862 3947 2915 2946 3539 4583
19 32 17 18 32 12 30 24 27 29 14 39 1 10 37 16 5 33 25 29 37 32 12 34 2 39 27 12 2 1 11 8 19 34 29 20 16 12 10 17 30 25 9 8 21 11 23 2 5 6 28 12 24 19 4 32 22 30 5 12 5 33 12 15 35 2 11 10 10 15 11 6 23 30 21 36 17 0 23 5 26 4 19 11 23 33 3 33 38 22 19 32 6 18 11 38 26 17 20 31 32 18 27 20 9 39 2 14 1 28 23 26 12 5 35 5 3 23 5 37 15 37 3 18 32 32 9 26 27 16 5 21 8 20 19 5 25 28 6 14 28 19 37 2 3 37 26 29 37 21 20 16 24 21 26 36 12 38 13 20 6 15 17 13 19 10 31 12 33 12 21 36 7 32 29 38 21 24 8 12 3 26 31 31 9 33 15 5 9 21 25 6 31 32 10 31 4 33 31 28 18 16 6 39 27 21 2 8 15 1 7 38 2742 2662 3003 4489 2993 3262 3478 4945 3017 4776 3297 4850 3036 3830 3343 3955 4627 4382 4019 3419 4965 3778 4892 4605 4291 2982 4449 2899 3642 4695 4468 4162 4594 3204 3284 3256 3497 4860 3075 3122 3292 3361 3657 3843 4834 4827 4581 4156 4343 3184 3366 4187 4242 2518 4426 2912 3429 4117 2559 2624 4879 4856 2739 3319 4255 4529 3474 3479 3969 2658 4764 4361 4052 3525 3712 3141 3966 4024 3168 4607 2880 4041 4094 2788 3384 3212 4065 3307 2631 2504 4293 3809 3166 3934 3828 3655 3613 3910 2822 4664 4963 4324 2531 4682 2536 4363 4152 2961 4232 3827 2739 2718 2900 2707 4114 3679 4328 4056 4535 4907 4233 4999 4386 3930 4454 2636 3496 4056 2615 4766 3804 3607 4016 4222 3161 4517 2752 3329 3752 4559 3807 3145 3802 3350 3486 3857 4561 4720 2799 2515 2548 2967 3568 4969 2569 3608 4829 2729 2845 3850 4798 4285 3294 2516 2706 3313 2902 3609 4211 4202 2977 2979 4276 3172 4080 3764 3014 3111 4201 3499 4759 4177 4752 3075 3931 4131 4614 2699 2818 4673 2969 4144 4993 2936 3361 2739 4430 3295 2687 3111 4034 4972 4307 4538 2768 3820 2572 4937 4283 4065 3657 3102 3863
8 25 16 37 15 9 30 3 6 25 33 18 31 28 4 21 11 6 12 17 14 19 34 25 7 34 31 27 17 6 21 3 35 34 6 22 39 14 39 1 8 1 24 38 5 11 34 21 5 30 23 30 22 35 3 12 33 35 27 7 34 11 18 21 13 4 36 9 11 26 9 29 34 6 10 12 36 20 0 24 28 39 15 39 21 31 36 25 26 37 5 6 4 17 37 16 21 18 19 39 15 31 7 21 23 6 27 37 6 3 1 26 1 35 19 35 23 35 26 32 33 11 33 24 3 3 21 10 34 21 31 2 38 31 4 4 39 20 31 26 1 27 39 32 23 5 13 36 8 4 11 23 29 24 24 4 25 37 31 31 30 24 11 2 13 30 22 8 36 38 18 31 36 8 5 13 3 38 6 38 6 17 35 28 27 35 24 26 8 13 23 22 23 3 20 28 15 26 2 31 1 20 20 6 6 9 14 12 16 3 27 36 3008 4591 4555 3028 4475 2976 3554 3065 4879 4722 3094 4512 3499 2950 3219 2893 3414 3219 4707 2955 3249 3187 3932 3915 4341 3271 2844 3290 3732 2726 2657 3428 3593 3222 2732 4593 2622 3503 3785 3585 4632 4949 3433 3669 4439 4292 4221 4116 4425 2655 4823 4483 3193 4155 3937 4259 3517 3451 4400 4735 4698 2602 3059 4854 4320 4754 4073 3497 4986 3685 3192 2712 4924 2784 4553 4124 3718 4001 3908 4777 3091 3427 2824 3173 3038 3496 3825 3679 4076 2567 3177 4467 2602 3332 3942 2912 3700 2734 4809 2598 4401 4181 3023 2978 2664 2755 3519 4885 4580 4508 3609 3075 4954 3642 2795 4690 8 3453 4943 4018 3870 4055 3121 4599 4364 4192 2825 2532 3535 2876 3505 3940 3269 3011 3623 2960 3333 8 3536 3658 2896 3934 4010 2651 4481 2701 4574 2988 3295 4699 4288 3292 3090 4258 4322 2952 4958 2655 3410 2540 3816 4974 4393 4449 2992 3566 4693 3521 3230 3627 2685 4502 3474 3645 2864 3330 3089 4768 4998 3190 2769 4121 4293 3324 4109 3925 3393 2876 4925 4423 2666 4763 4730 4462 4251 2653 3119 2937 4159 2598 3429 3288 2958 3596 4992 3859 3434 4246 4559 3221 4709 2964 3624
20 30 14 22 6 38 8 3 15 16 19 25 20 14 35 1 25 1 3 4 20 13 15 38 25 32 33 38 5 29 9 15 7 14 22 12 25 22 18 11 37 1 36 6 1 4 17 32 5 16 7 13 28 15 1 19 39 25 25 34 33 11 20 31 28 33 21 2 6 27 39 33 13 5 18 26 5 7 29 0 17 20 23 15 10 17 2 30 15 30 27 36 20 21 36 26 6 31 11 32 31 2 28 23 6 36 7 17 19 23 22 12 20 29 21 12 17 28 2 11 38 8 11 25 25 33 21 7 39 22 4 37 25 25 2 14 22 11 25 18 31 31 20 37 35 14 12 28 9 32 20 16 33 34 16 34 5 10 11 36 29 36 1 1 7 4 23 20 39 21 20 26 39 13 13 18 21 12 20 31 23 2 19 24 15 25 38 32 39 16 1 27 8 33 34 20 20 6 18 16 19 4 18 36 6 3 24 33 39 23 18 30 3055 3182 3334 4296 2718 4906 2692 3676 3210 2791 4561 3509 3617 4086 3525 2967 4794 3356 3231 2691 2534 2893 3979 3197 4789 4365 2543 4096 3504 4925 3358 2636 4211 4506 2901 4935 4976 4335 3243 4127 4756 4228 4626 2655 3562 3560 4003 4714 4812 3980 4786 3084 4925 4058 4360 2545 3291 3161 4803 4885 3604 3998 4053 3469 4112 3025 3042 4306 3404 3237 4812 3216 4256 3163 3680 2544 2845 3201 4007 3381 2723 2869 4778 2680 3122 3652 2799 3702 2783 3945 4115 4857 4890 4338 2752 4891 3838 3156 3055 4875 2959 3179 3035 3754 3499 4391 3513 3965 3180 3951 4922 4817 2827 4104 3708 3248 2746 2527 3329 3305 3819 2633 3181 4310 3006 2946 4722 4405 2758 4469 4174 4114 3219 3934 2571 3136 4159 4527 4465 4728 3438 2827 4433 3371 3810 4667 3761 3279 3813 4268 4007 4622 4820 3378 2669 2697 2552 4277 3361 2886 3362 4195 2999 3753 4726 4467 3936 2511 2643 3679 4531 4871 2639 4834 3700 2764 3271 2896 2993 3525 4019 2957 3474 3880 4322 3193 4554 2623 4170 2981 3579 3402 4334 2929 3821 11 3869 3461 3903 2941 3057 2590 3796 2661 4481 4803 4502 4070 3867 3730 3816 3363 3480
23 22 15 14 38 4 20 12 1 26 35 38 4 26 2 30 18 28 22 37 14 8 34 6 23 32 18 30 18 31 29 39 39 36 18 6 26 7 38 6 19 33 13 15 3 8 38 20 25 4 23 21 5 17 9 25 35 37 28 31 4 14 16 26 16 13 39 30 26 15 25 24 27 4 13 28 3 19 14 19 0 12 34 36 34 6 21 21 32 15 21 32 15 8 1 4 10 24 1 24 21 19 3 29 10 16 36 9 11 33 12 37 37 34 6 28 25 11 34 8 12 5 30 12 26 9 30 33 13 27 11 33 32 10 24 1 8 14 21 16 2 1 29 22 20 31 5 18 19 20 15 4 34 6 17 30 31 30 8 27 4 8 27 3 20 6 15 39 35 32 16 11 17 2 17 20 27 2 2 13 21 5 33 31 14 12 30 18 5 15 11 36 32 25 10 3 30 16 2 18 3 13 11 36 5 3 27 22 20 10 18 13 4793 2892 3389 4157 4358 2942 3530 2941 4627 4164 3971 2946 4825 3392 3210 4001 3476 4531 4442 4274 2642 3589 4342 3498 4782 4840 3291 4349 3380 3584 4450 2567 3290 3799 4053 2603 3824 3295 3405 4333 3254 3926 2655 3037 2923 3211 3665 4766 2580 4970 3827 3175 4516 4391 3306 2548 4812 3299 4429 3134 2811 4252 4868 2666 3413 4557 4659 3586 4823 2500 4263 3663 2821 3018 2827 2742 4063 3942 3331 3101 4856 3149 4991 2599 4433 3761 3626 3699 2645 2789 3524 2783 4831 3963 4680 4797 2687 3160 3571 6 4473 4183 3750 3631 4373 4780 3200 3805 2547 4793 3672 4186 2567 3265 3623 4885 2575 3490 3971 3750 4000 2942 3161 4072 4138 3976 4987 2753 2959 4492 4872 2647 4735 4248 2546 4674 4639 3014 3212 3713 2559 3295 4856 4941 3092 3563 3116 2881 2658 4904 2555 4041 3400 3409 3900 4391 4420 3709 4779 2541 4473 4335 3757 4748 4888 3937 4690 2806 4820 2888 4039 3487 3586 3589 2810 4654 3572 4076 3042 4757 3121 2980 3117 2785 3891 2888 4132 3923 4346 3482 4997 2760 3438 2550 4276 4733 4660 2596 4214 3575 4343 2571 4930 2535 3647 3571 4326 3452 3128 3129 2673 3152 3560
5 17 27 3 34 12 2 8 16 15 13 22 31 22 4 5 25 30 24 20 39 22 37 5 37 22 17 20 25 31 25 7 22 12 9 6 13 6 26 25 11 38 13 22 9 21 5 23 12 12 36 11 4 2 39 37 20 28 30 33 35 35 7 15 14 37 36 5 16 4 35 5 33 39 39 39 15 4 3 5 17 0 12 15 2 2 16 24 24 1 9 38 11 1 12 38 31 24 7 32 37 24 21 20 25 3 29 14 25 8 3 6 28 27 39 15 38 23 11 27 7 31 8 11 38 7 10 33 20 18 30 5 3 26 35 23 27 8 7 30 21 11 38 12 1 19 38 34 36 15 5 30 31 24 23 31 20 1 14 14 13 13 23 10 25 14 35 27 11 21 5 7 5 34 15 36 20 1 38 25 36 38 39 8 36 39 15 33 27 19 28 23 21 2 23 18 12 29 36 23 12 30 28 37 18 17 1 25 29 2 35 30 2733 4688 2647 3908 4874 2723 2909 3138 3038 2542 2738 3114 2664 4897 3072 4074 4385 4879 3538 3803 4609 4274 2965 4956 3690 4027 3829 4431 4709 2792 4764 3677 4967 3637 4582 2683 4830 4650 2577 3958 3122 3623 2735 4169 3228 4114 2777 4584 4918 4579 4780 4222 3495 4487 4745 4449 3853 4495 4362 3562 3490 4152 3487 4294 4536 4576 4662 4301 4072 3772 3792 2654 3364 2838 2905 2972 3261 3168 3496 3283 3421 4783 2848 3193 4447 4498 2659 2710 4058 3511 4361 4378 3371 3144 4976 4990 2757 3272 3167 3096 4374 4349 2621 3012 3466 3001 4478 2633 3484 4379 2861 2854 3467 3527 2654 2918 4653 3955 3394 3664 3402 2514 4712 2922 3888 3282 3264 3601 2814 2889 4165 2894 4464 3890 4410 2851 4694 4247 2728 3739 4632 3578 4775 3747 3918 3301 3297 3312 3679 3871 2611 2920 4427 3830 4392 3455 3145 3074 3300 4382 2600 2596 3988 3974 4349 2545 4940 4518 4379 4816 4258 3207 3552 3968 2580 4391 4493 4416 3591 4223 4571 3797 3895 4238 3108 2760 3434 4530 4367 2689 3751 2795 2576 4445 4707 4885 3571 3412 4764 4839 3383 4783 3825 3551 2801 3261 2642 4076 3311 3624 3412 3333 4635
28 26 12 27 22 38 38 2 10 20 8 8 23 27 2 20 26 18 39 23 37 6 27 6 23 10 3 22 32 32 30 9 31 26 22 20 31 20 33 23 1 21 22 24 30 39 27 32 26 11 39 24 19 36 29 10 14 15 2 14 31 33 25 11 6 30 18 31 14 5 30 9 28 36 3 21 25 30 34 19 36 24 0 29 39 18 9 20 24 15 38 28 7 28 27 22 15 15 14 27 19 28 10 22 27 2 15 26 14 35 2 7 26 21 18 9 15 7 1 24 18 13 12 39 18 22 3 1 12 17 28 23 15 33 9 39 7 18 33 9 2 27 1 30 25 21 10 29 12 36 33 25 33 3 14 21 27 30 18 4 36 13 29 37 35 18 5 37 22 36 28 11 39 36 19 10 14 1 24 8 18 15 11 28 14 16 17 9 30 31 12 16 22 7 10 8 24 39 5 4 24 20 33 26 27 7 30 21 22 34 35 27 2943 2764 2816 4128 3103 2676 2942 3580 3378 4238 3494 3912 3802 4850 4479 3876 2629 4452 2973 3496 3460 2514 4899 4042 3617 3464 4886 3831 4697 3885 2792 3991 2539 3340 3887 4877 4430 3495 3913 3655 4886 4214 3363 2660 4229 2897 4760 3669 3604 4117 4759 3943 3419 3721 4028 3281 4313 4311 2804 4433 4420 3360 2663 4748 2653 4962 2755 3125 3287 3983 2741 3732 2981 2738 4168 2955 2603 3856 4602 4153 3065 4803 4962 2918 3711 2687 3653 4149 3254 3632 3320 3510 4219 4533 3329 4614 3958 3314 3886 3216 3807 3168 4641 4744 4108 3197 3048 4321 3113 3667 2927 3158 3445 3264 4173 4336 3689 3363 4843 4060 3155 3470 4169 3700 4113 3483 3189 3049 3600 3362 2926 2653 2651 3429 3557 4628 4049 2632 4454 3546 4644 3208 4223 3038 4348 4708 2611 4203 3801 4388 3791 3490 3820 4088 4875 3279 4992 4616 4416 3183 3389 4015 4755 2813 3396 3131 3368 2693 4522 2857 3722 2878 4410 2971 2557 3238 3284 3007 4016 4941 4864 3112 3630 3988 4780 3615 3693 2578 4189 4008 4116 4507 2732 3492 3689 4430 3129 4130 2891 4451 4683 3160 3273 3292 3020 3987 2870 3873 3327 4964 3354 3681 3077
12 25 39 38 39 24 17 24 2 30 27 15 17 20 7 13 1 12 27 2 39 6 30 21 15 10 15 2 22 29 14 27 10 2 24 25 15 20 35 20 28 28 28 12 16 13 27 12 15 6 28 24 39 26 30 37 39 11 22 1 34 25 34 17 6 15 35 14 37 23 21 37 21 11 4 23 24 5 7 13 35 12 21 0 15 28 14 1 11 3 30 10 25 3 12 28 3 39 9 24 10 11 9 23 27 25 15 11 19 23 31 38 23 6 8 11 29 6 16 35 4 29 15 31 4 11 30 33 24 31 14 8 7 9 30 10 33 5 18 39 16 34 18 18 22 29 23 14 36 5 22 18 32 7 11 20 17 17 35 19 29 32 17 22 35 26 8 24 22 25 20 23 5 28 20 26 8 28 6 14 4 5 25 37 12 2 17 3 27 6 19 27 39 38 30 15 36 3 1 19 37 26 35 14 12 11 37 37 39 5 36 1 2819 4778 4333 2939 4302 3820 3498 4607 4828 3174 2916 3042 4826 3853 4504 4174 2574 2617 2570 3169 3672 2744 3337 4309 2707 4430 4657 4420 4464 4619 3085 3322 2835 2962 2871 3613 2664 3550 4716 4455 3897 2714 2870 4870 4100 4996 4467 4713 4248 4608 4136 3433 3227 3184 3725 4408 4821 4878 3342 3409 4708 4317 4643 4688 3706 4113 3202 3869 3694 4550 4286 3348 2806 3397 4413 4449 4100 3075 3388 3607 4624 4555 4037 3544 4248 3274 3847 4311 4261 3501 2641 3080 4416 3403 3475 4115 6 4402 2682 4053 2907 3742 3596 3129 4217 4426 3323 4423 3510 4047 4715 4320 3537 2940 4986 4985 4073 3711 2608 4840 2569 4770 3999 3165 4222 4267 4616 3916 2852 3601 4225 3565 4286 3540 2927 2762 4236 4096 2849 2913 3606 4973 4437 3586 3659 2990 3399 3245 4164 3547 3653 4843 2874 3557 3218 4542 4514 3383 3306 3639 2701 4904 2598 3197 3396 3075 4422 3105 4293 3373 4874 3248 4233 2613 4868 3469 3098 2910 3254 3280 4753 2971 2689 2731 3712 4484 4958 4334 4483 4347 4357 3555 2918 3311 3793 3766 4966 3937 3963 4938 4044 3180 3176 4890 3342 4210 3479 3489 3075 4608 3188 3744 3992
27 27 1 11 22 15 3 31 12 33 4 19 32 13 1 32 17 29 7 14 38 36 32 21 13 1 27 8 28 35 38 11 15 2 33 38 23 23 32 23 33 28 35 9 21 37 1 38 12 14 33 18 3 34 24 1 16 7 4 20 27 35 18 32 31 24 11 2 39 6 7 2 10 26 15 12 17 23 6 6 29 23 18 33 0 5 30 7 27 7 32 33 19 26 26 14 32 21 32 38 36 31 28 31 8 26 37 33 13 24 27 38 28 31 15 3 10 3 13 5 35 15 36 16 32 4 34 32 26 37 14 14 12 34 4 34 33 11 24 2 21 36 7 4 9 11 15 30 24 26 10 38 18 11 18 4 25 6 18 5 11 24 5 38 16 15 13 38 1 13 19 30 16 32 31 32 38 39 8 3 27 22 14 32 23 10 27 20 35 27 12 25 17 7 7 38 38 35 26 39 27 15 7 28 3 29 31 28 17 19 17 7 4481 3502 4924 4268 3593 4277 4404 4371 4732 4940 2638 2665 4573 3346 3462 2594 2757 4303 2999 3917 3189 3964 2754 4424 2902 4020 3555 3428 3456 4913 4519 3338 3522 2748 2901 3550 3466 3427 4181 4319 4889 2765 4969 4773 2898 4256 3344 2559 3793 3645 3865 4771 4643 3313 2805 2696 3298 3011 3048 3428 2842 3152 3330 3525 3532 3206 3237 3076 3556 4506 2784 3843 4515 3533 4644 3437 18 3189 2634 3839 4405 4240 2575 3604 3425 2763 4899 2615 3833 4498 3798 2789 2743 2850 4264 3747 4348 3705 4072 4521 3704 3680 2714 3176 4843 2556 3277 4447 4694 4135 4945 4461 3276 3844 2501 4771 2728 4549 3080 4009 3022 4252 4408 3941 4479 3008 4090 4189 4992 3967 3571 3068 4548 4099 3140 3733 4432 3933 2596 4088 2819 3289 4703 3339 3203 4546 4792 3495 3777 3377 3820 3180 3259 3794 4320 3417 4936 2866 3275 4047 3935 18 3724 2637 3835 3371 3136 2764 2873 2521 2623 3952 3947 4796 3987 4834 3887 3608 4672 3107 2720 4091 4185 4116 3344 2723 3777 3357 3003 4240 3599 4749 4729 4619 3977 4032 3766 4674 2635 4785 4414 3092 3896 4481 3720 4210 2623 2659 3784 3912 4113 4797 4974
15 29 12 17 18 22 32 3 5 26 38 16 34 31 38 28 30 20 38 14 21 23 16 21 24 37 2 27 22 1 20 25 3 6 29 20 25 16 3 34 7 9 18 34 36 33 26 27 3 35 29 2 35 35 29 28 38 20 10 34 5 28 27 25 7 18 20 4 15 5 37 6 8 10 16 19 7 31 22 16 8 9 28 34 34 0 21 19 17 26 21 22 17 37 8 9 24 18 39 4 4 10 2 12 38 19 10 6 16 35 8 5 8 7 29 3 12 29 3 19 13 22 39 36 15 35 20 6 5 8 38 1 26 14 27 1 37 36 17 19 39 24 20 5 22 27 37 37 6 8 3 32 30 26 7 10 17 32 9 11 30 3 15 7 8 24 29 13 21 19 38 5 16 5 1 29 39 6 33 2 38 34 19 26 23 25 18 27 10 1 8 8 14 22 33 13 17 4 24 27 1 29 15 6 17 32 38 19 31 9 8 32 3817 2699 3463 4058 2903 3617 4821 3216 4958 2882 4940 3872 3241 3798 4012 4345 4406 3367 4161 4789 3555 4129 3168 3191 3352 4986 2920 4407 4968 3122 3478 3438 3532 3146 3270 2869 3790 4800 3072 2635 4590 4811 4102 3927 2820 4019 4281 3084 4904 3715 3723 3755 3556 4731 4677 4446 4416 3693 3654 4134 4157 4897 4122 2749 4513 2682 3322 2997 4965 4159 2765 4849 3983 4560 3393 3509 3519 3736 3404 4493 4692 2717 4205 2597 4058 4976 2833 4523 3074 2987 3927 3088 3847 2696 2964 3617 2661 4143 2535 3152 2612 4984 4340 3106 4850 3446 2951 4293 2979 4130 3101 3726 4115 2516 3965 2733 4056 4656 2983 4781 2868 4721 4384 3390 4931 2749 2712 3304 4367 4409 4384 3855 2867 2670 4498 3280 4340 3527 3777 4443 4664 4870 13 3062 2727 3004 4387 2540 4223 4621 4848 4361 3876 2863 4291 3720 3581 4731 3720 4310 4027 2948 2937 2856 3485 3499 2934 2643 3255 4778 3719 3038 2771 2701 4360 4774 4776 3612 3056 4820 3012 4825 3320 3295 3699 3774 3240 3969 3142 2573 2896 3330 4832 2815 3418 14 3810 3373 4755 3552 4564 3962 2535 2729 4746 2568 4086 4700 4055 4104 3472 3208 4070
3 21 14 34 3 27 3 1 39 20 7 26 19 12 24 31 23 5 23 39 22 11 31 27 39 33 13 31 5 21 37 23 25 18 17 31 33 8 5 18 35 11 3 39 34 24 12 21 4 37 18 12 1 30 6 3 13 4 25 37 18 17 4 8 8 32 9 13 8 25 23 36 30 26 23 16 3 4 14 2 7 34 4 9 33 4 0 9 39 29 39 27 5 7 10 26 29 19 20 21 6 37 20 28 31 39 2 30 14 16 9 12 8 9 21 38 6 5 3 9 2 30 36 27 39 16 21 6 39 34 32 20 10 23 3 18 33 15 26 21 10 3 16 2 25 24 34 2 8 12 17 7 32 9 23 11 36 8 30 38 29 6 35 25 7 22 13 3 34 28 17 29 11 8 33 22 28 23 4 32 26 1 33 34 13 5 18 23 37 13 34 18 28 5 3 29 22 39 21 10 35 26 3 13 18 25 34 33 27 2 34 4 3734 2502 3471 3476 4913 3945 3607 4148 2578 2558 3448 3680 3598 4059 3404 4196 4047 3802 3872 4553 3686 3216 3188 3419 3937 3835 2762 2815 3064 3828 2927 3772 3218 2600 4946 2705 4183 4464 4599 4194 4550 4402 3765 4118 2950 3623 4302 3785 4037 3597 4102 3248 12 4469 4737 2851 3000 4087 2582 3948 3175 4297 3393 2582 3559 4166 4614 3612 3690 2546 3531 3744 3201 4194 2668 3818 3874 4147 3672 4142 3760 3997 2644 3566 2820 4083 4794 3359 3656 4357 3893 2644 4698 4638 4673 3008 4069 4735 3836 15 4094 4430 2965 4091 4484 3880 3043 2506 4878 3539 3950 4363 4663 2910 2738 3233 4768 2926 4891 4394 2865 4468 3929 4355 5 3911 2759 3616 4662 3932 4397 3556 4745 4314 3517 4016 3332 3864 4405 2790 3138 3169 3065 4506 4420 4882 4012 3738 2837 4575 3404 3757 4324 2862 4867 2614 4094 3737 3421 4350 4880 4160 3186 4206 2771 3660 4607 2879 4157 3841 3339 2737 3786 3517 2596 4343 3141 4468 4241 3471 3353 4904 2577 4419 3091 3721 3148 3123 3923 3511 3388 2729 3468 3225 4179 3165 3576 2731 3688 4266 4292 3481 3749 2849 4037 2577 2802 3104 3889 3654 4420 2858 4648
17 30 3 5 19 19 39 33 17 9 15 37 30 27 28 28 32 29 29 8 19 31 34 8 39 39 21 35 1 24 15 1 2 8 37 9 32 25 4 1 6 36 9 23 26 21 28 36 16 20 2 9 9 27 37 12 32 29 32 38 36 26 3 5 31 25 17 5 32 38 3 3 38 2 12 1 9 30 11 27 35 17 18 22 38 24 8 0 17 36 14 3 38 27 19 27 39 18 26 15 14 4 15 18 37 6 35 14 8 13 1 13 8 36 35 19 2 26 30 6 16 23 6 7 28 35 31 8 31 31 36 34 32 29 10 10 28 8 32 5 21 3 25 5 5 32 16 13 35 10 15 27 35 28 12 37 38 34 1 33 30 18 33 37 25 3 39 33 9 2 20 5 14 31 23 19 18 7 21 19 3 33 35 26 29 27 16 16 17 12 29 23 1 29 6 20 38 29 19 36 20 31 33 24 12 13 29 39 16 7 11 37 2821 4104 3476 2886 4775 3563 3305 3449 3612 3152 3195 3809 2796 4575 4088 3239 4231 3575 3818 4456 4389 2706 4017 2591 4361 2559 4480 4283 2857 3810 4775 2616 3233 3445 3391 4462 2983 4251 3834 4448 3080 3637 3470 4988 4411 4015 4168 3246 3194 4626 3727 2605 2757 2807 2698 4844 2937 2783 3735 3016 4672 4623 4643 2817 3182 3868 4228 3934 2752 2532 4392 4270 4705 4682 3786 3516 3089 3303 4928 4061 3037 4230 3057 4999 3032 4577 4614 2505 4823 4784 4957 3838 4672 3813 3384 2866 3403 3903 2725 4148 2587 4658 3471 4703 4685 2828 4670 4138 2698 3341 2744 2628 4689 4568 4907 3646 3698 4751 4502 3675 3559 3470 4314 3164 3476 4457 2836 2947 3336 3302 3470 3515 3770 3371 4739 2972 3199 2643 3709 4507 2679 4356 4067 2714 3194 4820 4636 2894 2967 2610 3867 4277 2505 3473 3889 4236 4172 4160 2862 3640 3751 3427 3215 4045 3764 3461 3804 3961 4302 3970 3745 3999 3795 3333 4594 15 3007 4914 3036 3671 2565 2970 3799 4243 3990 3296 4762 2768 4694 4408 4998 4586 3912 4461 4236 2619 3177 3560 4791 3485 3610 4129 2845 3974 4360 2778 4344 2732 4466 3770 4865 4845 2797
5 10 3 23 37 9 26 25 16 23 32 30 20 29 34 2 19 30 31 36 7 12 36 10 3 22 7 9 9 35 13 34 31 22 2 10 18 7 26 7 37 30 6 10 14 3 22 37 13 18 24 21 6 33 27 21 30 22 28 25 35 21 37 35 18 11 2 3 28 16 17 36 4 39 36 18 2 12 1 10 3 24 18 24 1 28 17 2 0 29 17 13 29 5 7 7 18 5 21 19 2 21 25 8 11 25 37 11 5 24 9 28 4 23 16 30 18 23 6 24 23 38 30 18 13 4 28 19 33 14 9 25 19 38 13 22 28 33 7 21 28 29 36 7 19 11 19 7 38 15 27 3 10 24 19 9 11 31 21 28 28 17 29 12 23 7 31 23 27 26 26 25 39 34 9 35 37 21 39 24 3 34 5 23 28 5 11 35 39 36 9 14 16 14 31 18 11 27 8 26 18 8 6 26 14 10 18 2 21 35 28 25 3254 3034 3989 2557 4939 4414 2528 3010 3156 3498 3228 4687 3905 3245 2770 2980 4413 2818 2689 3365 3563 4939 4051 3683 3560 4329 4907 3393 4561 3445 4075 3311 3746 3876 3899 3250 2721 3315 4448 3399 3631 4734 3788 2688 4075 3996 4951 3866 3559 2871 3696 3510 4734 3665 3405 3460 4611 3340 3821 2510 4131 4256 4467 4171 3633 3897 3703 4716 4709 3395 2860 4776 2877 2518 4255 3979 3787 3779 3755 4984 4598 4891 4221 3401 4823 3245 3720 3648 3241 4118 3616 4644 2974 2549 4495 3243 3466 2766 3908 2551 4703 2605 3108 3772 4273 4393 3539 3187 3978 4819 2778 4340 3790 2716 4872 2806 2909 3842 4695 3022 4165 3858 3573 2870 2885 2611 4460 4315 2766 4977 3289 4890 4420 3791 4477 2600 3505 4558 3601 2515 2584 3409 3071 2741 2833 15 4446 4601 3615 4536 4640 3872 4141 4990 4725 3940 4969 4898 4511 4626 3190 2563 2949 3220 3624 3735 3264 4055 3601 2959 3395 3641 4452 4756 4697 2750 2946 4616 4636 3998 2840 2559 3368 4292 3885 4076 3311 3966 3853 4937 3418 3316 2714 3468 3488 4952 4211 2985 4802 4223 3349 3300 3058 4624 3740 3798 4652 3993 3269 3646 4356 3912 3166
10 8 12 39 10 31 30 18 22 12 17 16 25 38 22 34 19 4 14 25 10 7 3 29 29 37 32 34 16 23 2 25 18 22 36 24 28 31 11 12 1 38 32 32 11 27 10 38 14 13 29 5 24 36 19 12 8 6 5 4 20 10 20 5 6 20 37 3 11 38 39 9 2 22 34 2 18 11 34 2 7 28 17 5 6 25 10 20 10 0 21 16 1 31 9 25 15 21 29 26 3 1 24 32 24 10 12 15 21 27 37 4 1 15 8 5 24 29 20 33 20 28 1 24 21 23 37 7 17 30 20 11 7 16 27 14 38 12 6 27 6 23 2 37 28 15 13 28 37 16 5 34 24 1 31 8 31 37 17 17 18 18 38 24 12 10 37 30 11 24 35 11 24 23 6 22 30 39 13 10 24 37 23 14 15 5 39 5 10 38 6 27 10 1 5 1 12 19 10 31 12 21 34 23 3 37 20 13 13 6 6 8 3715 3824 3066 4452 4075 2528 3341 3831 3219 3130 3299 4381 3517 2602 4224 4127 4181 4299 4033 2812 4806 4231 2895 3370 4653 3629 3748 3471 3178 3852 4070 4251 4404 3909 4298 4283 3454 3426 4704 3434 3495 3512 4723 3197 3239 2593 3367 4980 4941 4558 2862 4047 3161 4523 4390 3394 3562 4191 4116 3921 4395 2913 4446 3604 2653 4754 3140 3146 2669 2618 3424 4485 4934 2893 2668 4557 2584 3966 2639 3931 2925 3325 4848 3261 4876 3295 4292 4701 3224 4235 4708 4085 4065 4177 3523 2731 4151 3654 4057 4776 3996 4756 3880 4037 4212 2507 3224 3100 3394 4231 3925 4051 2727 3192 4002 3526 2660 4054 3452 4846 3553 2977 4200 4648 4232 2659 3359 4302 3124 3242 2734 3282 2626 4840 4075 3632 4278 3603 2886 3121 4539 3865 3246 4843 2524 4294 4342 3984 3298 3198 4637 2503 3839 4837 2705 3598 4745 2983 4005 3503 3122 2721 3396 3175 3457 4387 4894 4366 3305 2907 4637 3391 3835 4924 3668 4746 3568 3955 3722 4410 4426 4425 3356 3820 4260 3527 4658 4405 4515 3158 2737 4338 4303 3413 4953 2594 3967 3496 3706 4779 4295 4524 4536 2939 4343 4491 2968 3180 3277 4342 4762 4955 4109
14 10 25 27 5 7 19 29 17 14 32 16 35 32 38 34 9 21 4 11 23 1 27 35 34 14 3 31 27 2 9 34 31 28 9 38 20 15 24 30 15 4 6 18 7 20 31 13 4 3 22 4 8 14 29 31 34 4 2 8 4 22 12 19 35 6 3 12 37 6 11 16 31 24 25 13 31 5 37 36 2 38 19 36 12 24 25 1 30 17 0 15 4 10 29 38 34 39 26 3 31 39 25 17 5 10 18 16 7 22 23 26 24 6 4 22 25 33 22 19 5 7 29 24 28 10 1 22 20 33 29 5 6 31 14 13 1 27 33 22 34 37 20 33 8 13 4 3 5 18 27 12 26 38 11 18 38 24 33 5 38 8 29 12 20 4 37 15 18 21 26 7 36 18 39 8 4 39 28 25 21 6 11 25 39 35 38 13 32 29 9 5 14 29 24 22 11 15 15 28 4 35 3 35 1 6 17 27 12 31 20 26 3990 3595 3945 4039 2695 3037 2902 4003 2571 2515 4485 4226 4078 3936 4193 2744 4135 3004 4405 3124 3396 4689 2724 3803 3103 4910 2572 3058 2725 2901 2500 4890 4771 3276 3591 4422 4588 3688 3327 4143 3316 4034 4308 3829 4811 2624 4875 3152 3399 3036 3510 3927 4426 3529 2926 3062 2565 4126 3425 3570 3202 2562 4066 3294 3817 3844 2777 4592 4662 3919 3974 4834 3340 3071 3256 4220 4260 4402 4471 3783 3408 4109 3171 4366 3452 3079 3278 3515 4262 4172 3884 4578 3652 4694 4859 4051 4037 3882 4613 2808 4192 3422 4098 4746 3770 3268 3821 2844 3611 3595 3262 4468 3206 4573 2626 2794 3582 2846 4788 4019 3875 2761 4315 3919 2800 2621 3082 2541 3133 2939 2855 3395 3601 3905 3728 4911 3625 2867 4321 4230 4376 4275 4494 2658 4504 3533 4382 4205 2713 4785 3570 3149 4445 3542 3182 3789 3929 3272 4492 3965 2881 2680 3845 4510 4177 3065 3435 3770 4014 2998 2838 3831 4118 2587 2658 4659 3435 4726 4235 3951 2679 3224 4982 3907 2762 4934 2953 4747 4131 4910 4718 4159 4088 4069 3882 4374 3001 3891 3039 4894 4754 3127 4728 4313 3611 2503 4839 3680 3837 3578 4931 3468 3695
1 31 4 5 7 22 8 23 20 5 13 29 28 36 9 24 8 13 36 15 22 7 36 27 8 14 1 17 9 15 38 24 29 15 38 25 20 33 20 25 25 32 15 30 35 1 37 15 4 24 3 11 17 20 15 32 30 38 19 13 34 33 37 27 37 25 20 29 6 34 8 12 2 5 9 31 29 1 19 37 10 18 4 27 27 21 36 28 26 36 16 0 32 15 20 33 6 30 12 10 26 9 33 16 10 9 16 4 26 7 1 29 36 17 28 24 15 11 5 4 30 19 38 21 27 24 4 29 17 25 38 3 14 20 27 36 5 18 18 8 21 11 13 33 15 34 28 23 29 23 10 11 35 16 2 3 1 20 30 29 20 35 25 4 23 8 13 12 3 4 31 10 23 19 20 10 24 26 9 39 22 32 30 36 33 29 38 2 12 21 25 28 14 12 5 25 14 36 11 23 29 1 33 31 16 7 18 2 32 22 24 22 4836 4094 3061 4359 4595 2798 3899 4147 2628 4974 2842 4715 2504 3249 2896 3532 4899 3803 2513 3718 3755 3364 4442 2800 4141 4112 3425 4191 3831 4289 2940 4870 2927 4810 4668 4672 4770 3659 2746 3468 3305 4711 3286 3626 3182 2719 4241 2676 3388 4997 4064 4413 4728 2593 2858 2958 4062 3043 3714 3064 4007 3288 4753 4665 4276 3934 3949 3612 3897 4783 3788 3076 3683 4397 4872 3984 3038 3593 4892 2812 4718 4353 4575 2584 4308 4106 3576 3807 3388 4218 3245 3007 2854 3734 4443 3772 4112 3359 4589 3446 3071 2873 3048 3656 4483 3754 4542 3631 4842 3896 3721 3800 4945 3801 2673 3578 4873 3457 3256 4849 4313 2909 3856 2768 3471 4839 4096 19 3540 3225 3195 4514 2782 2815 3689 4713 4659 3821 4186 2741 2525 3945 2872 4774 3646 2746 3387 2545 4725 4181 3182 3710 2972 4950 3985 4968 2888 4840 3756 3207 4443 4020 3361 3604 2655 2638 3808 2502 4299 4193 4552 3854 4948 3873 3311 4625 4676 2688 3790 3007 2632 4266 4860 2957 4997 4274 3205 3521 3459 4378 2576 3551 4115 4140 2724 2549 3848 2640 4917 2986 3566 3865 4092 3224 3534 4137 4005 4383 3636 4039 2942 4189 3024
25 5 33 22 10 19 35 15 2 23 22 19 22 25 6 33 10 18 26 14 19 32 37 18 36 13 25 7 28 4 5 24 2 2 22 20 27 23 7 9 7 24 12 39 20 31 30 15 1 8 39 9 32 9 36 4 28 14 26 30 4 21 13 11 24 7 19 19 8 4 38 11 26 6 1 17 30 16 9 35 9 11 7 13 2 33 14 1 17 2 18 35 0 10 28 26 22 1 29 13 28 1 35 36 30 23 27 7 5 39 11 15 5 4 20 27 10 5 3 15 3 16 6 18 26 19 36 27 17 38 17 21 17 2 39 1 39 20 1 30 23 10 22 27 30 22 15 28 14 30 30 6 19 18 32 25 27 23 28 38 12 35 33 39 17 33 15 35 9 18 27 4 7 17 29 17 32 12 33 1 13 3 15 23 6 25 30 16 15 31 27 23 15 11 7 16 27 26 12 13 17 7 33 26 7 38 24 29 20 1 35 25 4795 3965 3562 3650 4745 2636 3889 4333 3274 4442 3223 2768 4181 2707 4897 4496 3521 4972 3299 4391 3196 3135 2916 4876 3958 3793 4290 3017 4814 4483 2625 2903 3811 4573 4113 4650 3852 4925 4469 4563 4186 3208 3407 3828 2804 3252 4215 4984 3393 3557 2605 3293 2982 4305 3370 3459 4707 2777 2676 3034 4723 3874 2807 4330 4020 4166 4834 2833 4871 3356 2590 3806 4058 3942 4463 3333 2918 3128 3287 2503 4027 2923 3711 3176 3865 3739 4969 2607 3657 3406 3994 3669 4312 2535 4033 3248 3980 4617 4247 2940 2640 4985 4016 4541 4751 3610 3580 4625 4045 4180 2645 4449 3040 2553 3484 4625 2927 3073 3785 3097 3415 4405 3648 2718 4699 4654 4183 4783 4387 4652 3216 3719 3377 4744 4944 2900 4696 3454 4524 2920 4972 4469 4673 3833 4762 4620 3732 3057 3704 2595 3353 4474 4036 4159 4802 3884 3179 4193 3799 3207 4291 2968 3915 2825 4207 4951 4159 3521 3200 4188 3303 4541 3161 4949 4578 4128 4836 2623 3597 3210 3756 4943 2849 3951 3692 2775 4265 2648 3457 2561 4953 4864 4101 3098 2840 3039 4111 2710 3874 4130 3452 2633 3489 4502 2568 3526 3892 4294 3742 3434 3604 2969 2913
17 28 37 13 25 25 14 8 7 12 20 11 17 20 38 2 20 13 7 26 39 25 24 16 4 31 19 36 10 18 18 16 35 4 29 1 8 12 20 32 8 31 2 22 10 36 31 11 10 14 30 37 11 29 39 33 8 1 11 39 31 2 24 5 28 36 31 18 6 11 33 19 30 38 15 8 33 18 2 35 10 16 26 9 15 27 30 10 34 21 35 22 30 0 23 15 24 9 8 6 5 16 23 7 12 10 24 6 34 24 16 29 35 25 34 3 32 38 23 28 33 9 35 8 7 39 32 39 9 2 2 1 8 30 28 7 5 18 13 7 24 27 38 17 39 12 23 31 34 3 16 12 12 22 9 6 34 34 26 9 22 22 20 1 14 27 12 9 18 15 18 37 22 16 28 31 26 39 21 36 14 15 35 23 7 20 6 24 31 21 13 34 18 9 30 17 20 13 31 1 11 23 21 39 17 13 21 8 37 3 38 30 4758 3766 3786 4126 3277 2796 4830 4719 3260 3551 4551 3099 2827 2513 4074 4914 4762 3196 4941 3515 3076 3029 3766 3628 4170 4538 3075 3271 2594 4266 3832 3988 12 2502 2736 4958 4055 3729 3093 2997 3434 4331 4422 2870 3267 3264 3605 4849 2693 4970 3584 2700 4195 2840 3261 3706 4782 4716 3778 3492 4318 4458 3948 2755 3266 3081 3193 3167 2635 3373 4929 4393 2669 3960 3452 3629 3359 4854 3935 4875 3592 4012 3537 4466 2567 3196 3629 3486 4158 4720 3411 4915 3358 2599 3127 4020 3904 4211 4757 2880 4126 4587 3713 2527 4871 4519 4447 4844 2918 3984 3402 4923 4530 3736 4879 4483 4373 3861 4544 3315 3890 2969 2655 4839 4973 2966 3500 3373 4064 4247 4187 2562 4559 3068 3812 4620 3352 3445 4271 3098 4363 2566 4590 4052 2567 3909 2957 3612 3110 3061 3310 2794 3507 4380 3760 2755 4466 3779 3473 3644 3144 4632 3206 2618 4980 3281 4292 4579 4968 3030 4685 4845 3072 4633 3172 3773 3646 4092 4836 4552 3837 2710 2758 3443 4906 3691 2639 3640 4501 2516 2589 3229 3105 2729 4797 2716 4337 2783 3983 4713 3296 4980 4620 3463 3573 4217 3459 2931 4014 4271 3406 4346 3295
5 12 31 38 6 19 29 23 27 15 9 7 35 22 30 28 13 31 39 32 13 12 38 34 7 16 38 34 27 37 30 27 35 37 3 18 29 37 4 38 6 26 39 28 8 36 14 29 30 5 11 25 34 23 29 12 23 39 12 7 29 7 11 7 14 7 4 23 31 39 10 31 36 21 12 12 8 37 9 10 39 34 26 26 24 28 33 12 39 20 14 21 24 20 0 32 14 24 27 12 38 13 16 17 31 19 25 7 27 1 13 31 21 12 22 15 32 17 2 6 24 13 17 31 21 2 24 30 11 13 26 2 33 20 4 33 28 37 8 10 8 12 9 37 35 5 4 6 16 17 29 2 6 37 2 38 34 17 12 31 37 13 21 18 32 34 7 7 37 12 10 6 21 34 9 32 13 5 29 24 36 19 37 23 19 35 20 31 34 35 15 1 33 27 35 1 13 22 6 19 30 14 3 29 15 4 10 36 1 8 34 5 3592 4574 4565 2587 3284 3037 4339 3328 3121 3612 4910 4946 3597 3659 4590 2594 4858 4748 4701 4462 3650 3768 4936 4282 2638 3441 2865 3987 4030 3965 3204 3970 3255 4331 3272 3588 3979 4720 2834 3519 3013 3729 4653 4426 2561 4983 4894 3036 4137 3077 2576 2821 2605 3176 3460 3123 3824 4478 4259 4203 2956 3715 11 3166 2663 4185 4808 3479 3913 4099 2683 3663 3085 4013 4180 3068 2760 3653 2786 3961 3633 3383 3629 3299 4188 3308 3811 4661 4448 3666 3098 4586 4821 4469 3030 4406 3135 2851 2949 4442 3416 3035 4566 2902 4970 4823 3145 3943 4326 3630 4317 3334 3333 2939 3440 3272 3734 4955 4294 4969 3438 3673 4537 3629 3261 3486 3109 2942 4040 3438 4944 2986 4337 4147 4196 4465 3691 3206 3502 3451 2530 3630 2806 4854 3918 4221 3367 3928 2776 4561 2540 4464 2910 2916 4782 3805 3136 4090 3263 4799 4474 3828 2958 4165 3689 4493 4493 3644 4249 3252 2766 3659 4544 4466 3952 3591 2626 4095 3333 3764 4135 3424 3872 4932 2920 3711 2881 4476 4423 4502 4035 4652 4406 4241 3733 3722 3376 3502 3374 3062 2675 4575 3571 3803 4903 4782 4613 2857 4617 3504 4701 3840 3486
28 9 30 17 25 23 11 35 17 7 10 33 5 31 15 12 35 19 16 29 8 10 36 34 18 5 20 15 32 21 22 1 7 9 28 7 1 31 20 4 23 10 6 18 29 6 7 8 24 4 32 32 33 35 8 36 38 34 38 19 19 18 14 7 17 7 21 34 23 35 36 36 26 7 33 29 32 29 33 32 39 31 17 23 4 11 10 7 20 5 14 20 4 16 29 0 30 24 3 28 34 31 2 24 34 25 19 11 20 34 32 31 24 7 26 31 17 35 6 31 25 21 39 16 25 20 28 37 10 30 4 32 39 32 6 1 34 23 29 31 7 17 10 35 8 1 12 26 19 28 3 24 33 11 28 39 35 4 8 10 39 38 20 34 25 2 8 12 7 35 5 32 27 7 16 5 30 31 9 39 2 20 6 26 24 17 6 35 21 3 8 15 34 9 21 27 9 30 6 32 26 26 24 8 17 21 26 16 7 18 26 28 3699 4348 3913 4572 4838 4052 3340 4448 4857 4343 2510 3909 4113 3119 3133 4100 4251 3627 2672 3768 4603 2712 4415 3104 3479 2767 4536 4823 3079 4771 2714 4045 2898 4218 2584 3771 3254 4704 3532 4211 4624 3267 4261 3828 4406 3851 4699 4913 4610 4287 4835 3493 4320 2628 3152 4114 4035 2798 2671 3635 2538 3836 4147 4497 4174 4835 3456 3426 4536 2535 2544 4731 3139 2995 4912 3606 3991 2984 3867 2621 2866 4994 3944 3466 4424 4545 3565 2505 2514 3771 3124 4680 4952 2911 4720 2969 3634 3178 3434 4790 4985 2724 3666 4826 3088 4093 4937 2562 3043 4935 3513 4419 4164 2564 4075 3636 2628 3957 3926 2676 3538 4328 3182 2816 4568 3193 4684 3879 3761 2874 3161 4079 2678 4904 2965 3347 4226 4140 3108 3397 2982 3886 3107 4535 3918 2768 4889 3929 4943 3968 4686 4977 4105 4053 4128 4531 3693 2869 4215 3278 3974 3276 3319 4499 3139 3550 3124 3574 2575 3449 3520 2536 2725 3762 4967 3477 4498 2529 4854 3324 2741 4945 3347 3553 4353 3471 4230 3539 2518 2785 3019 2661 3034 4433 4778 2854 4947 4003 2933 4740 3878 3941 3817 3010 4784 2973 2775 4693 3523 4841 3837 3944 4830
19 13 34 19 28 4 28 8 19 11 5 22 11 30 2 13 36 22 17 8 31 27 30 20 33 8 15 9 17 32 26 5 16 12 32 33 6 22 6 26 39 1 25 29 12 20 22 34 17 36 21 11 21 8 20 23 29 27 16 39 27 36 28 31 39 2 30 26 13 38 15 12 27 30 34 25 21 32 3 32 28 13 31 34 10 2 25 25 19 13 3 25 37 32 9 38 0 23 19 37 25 13 28 37 16 5 6 21 13 34 6 8 21 37 4 4 10 18 11 37 18 12 11 23 22 17 24 30 26 19 3 24 25 1 22 39 9 14 28 3 4 13 39 30 16 9 18 21 38 35 3 39 23 32 4 25 28 11 9 6 26 8 28 29 27 15 12 15 13 35 23 17 13 34 7 36 7 38 39 18 18 38 19 38 25 18 11 16 34 23 24 37 31 2 34 9 20 26 13 37 4 15 30 7 22 6 33 7 3 39 13 26 2826 3156 4004 4777 2966 3165 4176 4484 2664 3700 4091 4857 3475 2547 4660 3601 4502 2664 3759 3003 3182 3297 3845 4158 2593 4993 3770 3809 4336 2806 3816 2709 4414 4437 3992 3850 4411 3939 3996 2736 4825 3086 2757 3943 4085 2526 3741 3500 4783 3597 4757 2602 4745 2771 4917 3742 2646 3788 4926 2761 2661 4445 4633 2700 3945 2879 3547 4500 3865 3990 4703 3854 2959 3747 3805 4172 2562 3085 4632 2611 4372 3425 4729 3534 3009 3525 3897 3301 4678 2867 3174 4646 4783 3537 3943 2637 3713 4774 4489 3529 4690 3755 3636 3311 3986 3387 3957 4266 3428 3915 4548 4429 3379 3211 4228 2809 4791 4359 3788 4456 4364 4497 4383 4191 4898 4787 4762 2924 4088 4583 4148 2997 3777 3285 3879 4851 3402 3981 3287 4286 4636 3522 3915 4568 3830 4554 4074 3239 3206 4634 2909 3632 2841 4279 4733 4420 4529 4884 3965 3244 3956 4728 3827 3946 2732 3326 4843 3343 3285 3046 3082 2872 3906 2654 2709 4321 4301 3982 3925 4480 4816 2539 3427 4666 3488 4231 3876 2551 3236 4348 3107 2545 3236 2901 3175 4023 3828 3952 3948 4669 2861 4167 3468 2636 4189 4589 2678 3206 3750 3080 2977 3293 4093
16 39 15 32 4 1 24 14 8 33 23 32 17 28 4 31 25 19 5 24 2 23 18 5 22 24 14 6 27 11 38 30 12 3 22 20 4 36 27 10 8 5 11 12 1 8 31 15 15 3 24 4 9 14 7 7 1 34 34 13 2 34 19 17 6 8 3 15 4 34 24 14 28 21 19 19 26 18 5 32 15 36 13 20 22 21 15 20 6 1 12 32 34 26 19 7 7 0 31 38 32 20 27 3 38 3 8 34 15 7 21 8 4 36 14 8 26 26 13 16 25 17 11 37 15 5 12 29 5 32 5 14 10 1 5 3 38 39 36 21 31 9 21 31 28 22 33 18 25 37 35 6 36 20 37 22 7 3 6 20 33 8 25 4 17 26 28 9 32 9 28 30 18 15 5 17 24 25 14 19 2 16 8 27 3 2 18 31 6 30 3 7 11 34 5 2 17 11 37 6 17 16 16 39 27 12 16 3 11 17 26 27 3728 2839 2546 4107 3431 2696 2701 4389 4272 2955 2541 3316 2530 3757 2791 4650 2544 2912 3117 4975 3435 4015 3592 3405 3477 5 3862 4776 3893 3326 4337 4618 3699 4264 4384 3844 4615 4928 3545 4973 18 4715 2968 2753 4510 3302 3974 3659 2726 3446 4604 4692 4355 3187 3898 4265 3475 3628 4321 3944 3663 3771 2642 4253 4897 4488 4641 3120 3598 3359 4278 2840 2577 4402 3476 4786 2544 4278 2542 3193 4918 3920 2842 3672 4471 4557 3238 4852 3226 4265 4305 2838 4068 3546 3482 3939 4850 2836 15 2999 3285 4772 4994 3994 4569 4546 4672 3642 4646 2992 2870 4131 2876 4333 4203 4663 3071 3157 3385 3694 2539 2526 4117 3036 2735 3402 3842 4471 2807 4548 4762 4694 3195 2613 3815 3819 3952 2918 3970 4860 4185 3199 3832 4617 3289 4635 2780 3271 3589 3212 3475 2519 4114 3470 2636 4926 4169 3398 4211 4848 3005 4597 2531 2778 4085 4402 3133 3291 3303 2943 4338 3382 3059 3757 2528 3877 3802 2993 4535 3562 4656 2869 2690 4452 2996 4700 3732 4682 4945 2680 4153 4586 3582 2629 4889 3726 4519 3500 3202 3199 4472 4473 3506 2694 4784 4491 3594 4670 3662 4562 3198 4533 3249
7 32 37 19 38 39 3 35 14 1 12 26 1 2 8 39 17 13 11 29 1 39 35 2 9 4 27 19 14 16 11 36 6 33 31 15 18 7 25 31 34 17 30 39 14 17 18 28 34 31 37 2 27 11 28 3 8 25 2 6 19 32 39 39 35 7 25 27 16 17 19 36 13 7 33 37 9 19 20 13 25 23 13 22 36 17 14 5 11 9 4 7 20 24 32 37 13 3 0 3 5 10 17 10 15 24 9 6 31 15 8 23 16 24 28 5 14 32 30 32 28 19 12 34 18 25 21 5 34 21 24 35 6 13 16 2 11 2 31 25 15 39 12 34 25 19 38 23 20 37 16 32 14 16 18 33 27 33 24 2 8 39 27 4 1 30 25 6 3 2 36 30 4 35 17 24 4 31 3 28 11 36 17 3 27 9 32 26 23 2 6 5 23 24 19 32 28 23 10 6 31 35 12 14 17 20 17 39 13 35 17 20 3952 2583 3569 4531 3583 2618 4765 4182 3042 3171 4349 4858 4241 3247 3590 2501 3325 4324 3502 4449 3371 3704 4362 3235 4146 2547 2723 4803 2551 4379 3313 4870 3685 4103 2570 2760 2662 4229 3985 4938 2942 4138 3060 4238 4747 2871 3842 3120 3371 4085 2586 3885 3891 3977 4098 3808 4400 3145 2867 3652 4426 4047 2610 2725 3189 3966 3328 3235 3461 3689 3756 3978 2590 2984 3018 2632 2823 4001 4253 4236 2996 4236 4827 4047 4273 4596 3510 3673 2778 3892 3917 4917 4513 4976 4454 2781 3333 3734 3073 3703 4873 2669 2838 2848 3384 4798 4386 2729 4870 3440 4825 3136 4705 3158 3768 4685 4309 3525 3711 4446 4483 4876 4869 4169 3770 3963 2608 4667 2598 2850 3693 4793 4779 4714 3550 4305 2640 4485 3697 3455 2969 3609 3887 4921 4270 2810 2782 4710 4336 2753 3856 4504 4414 3288 4442 3407 3146 3319 4885 4359 4683 3230 4845 4088 3206 4664 3197 3627 4171 2914 2768 4672 2906 3323 3306 3462 4374 4771 4227 4785 3635 3016 4668 3180 2762 4200 3769 2652 4541 4105 4469 4344 4884 2916 3567 4252 3957 4016 4184 4604 4572 4568 2965 4460 2706 2518 4571 2594 3179 2585 2790 3591 4365
31 19 4 10 30 30 39 37 34 35 13 36 17 17 5 30 15 1 26 9 30 23 36 19 28 4 25 32 29 14 36 2 38 5 27 11 25 38 25 9 7 27 3 13 19 13 18 37 32 2 3 4 26 5 27 8 16 7 39 4 3 20 31 22 22 17 19 32 25 24 21 9 14 32 4 18 39 1 26 34 5 38 38 39 17 12 8 3 32 5 29 7 10 35 30 12 36 24 37 0 28 33 18 18 9 34 37 5 23 3 24 15 8 33 17 16 34 11 27 16 16 14 26 32 12 1 39 31 9 21 39 23 27 39 4 38 39 12 32 39 14 15 14 4 23 20 5 32 13 8 12 26 36 18 11 14 17 25 16 36 10 2 28 25 29 22 29 27 35 11 39 6 33 27 31 13 2 24 9 13 17 31 25 38 6 21 22 4 26 30 1 13 1 18 17 4 23 17 23 28 4 20 11 11 2 24 29 30 35 23 34 4 3426 4528 4013 3349 2564 4468 4786 3123 4367 3089 4840 4442 3542 4313 2550 2733 4963 4659 3416 4755 3412 4350 4274 2848 4846 4670 4007 3627 2796 3464 3196 7 3785 4907 4157 4976 4703 4023 3297 2633 4032 3989 3771 3211 3676 4150 4624 4436 3078 4938 4411 3886 3482 2799 3437 3191 2785 3331 4743 2974 2959 2611 2576 4159 3729 2956 2940 2991 4265 3423 3827 2534 3039 4671 3819 4135 4934 2920 4221 3132 3546 4992 2613 2855 4522 4850 3178 2966 3762 3402 3611 2628 2651 4204 2801 2731 3788 4139 4247 3663 4960 4457 3576 2670 4633 3990 3729 3215 3402 4083 4825 3415 3676 3679 4796 2740 2592 4290 3005 3911 2767 3717 4429 3354 2594 4844 4086 4354 2999 2578 4386 4264 3760 4511 3289 4131 4534 2950 2814 3273 4102 3415 4420 4161 2580 4243 3484 2834 4178 4852 4662 3747 3074 3857 4055 3037 2815 4670 4423 3545 3899 4173 4082 4923 4932 4112 3646 2530 4791 2569 4391 3294 3539 4082 4382 3894 3008 4103 4250 4928 4839 2692 3330 2553 2888 3260 3610 4060 3899 2817 4235 3586 2521 4441 2797 4965 3931 4023 4223 4544 4750 4620 4993 2594 3377 3855 3642 3675 3132 3156 3615 2896 3172
32 16 9 2 31 19 12 9 33 1 29 15 6 37 19 9 12 11 21 18 21 4 26 7 21 8 27 27 16 20 11 7 22 15 26 29 15 6 10 20 6 39 2 11 33 8 22 23 37 35 20 15 25 21 17 5 22 2 1 18 5 7 34 35 37 9 19 12 19 27 9 16 5 34 21 19 4 31 6 30 26 10 33 29 39 13 38 27 32 11 9 35 16 25 26 20 13 7 12 9 0 26 4 31 13 18 8 21 18 5 3 18 12 25 4 35 7 5 25 3 25 24 1 17 6 12 16 16 38 20 10 19 10 15 39 9 21 35 21 16 18 27 27 19 3 22 32 8 34 7 37 27 4 2 6 22 15 2 15 2 1 10 25 14 8 8 30 11 15 9 39 26 2 29 17 34 18 8 24 14 39 10 24 18 9 32 5 39 38 24 29 23 17 29 6 5 18 25 21 13 11 19 3 38 17 2 38 27 28 5 31 17 3644 4501 3296 2694 4376 3458 2682 3569 4661 4502 4122 4030 2640 4350 2566 2522 4658 3303 3048 3034 3323 3701 3389 2732 3320 4008 4730 4097 4422 2684 4119 3586 4532 3954 4358 2731 3137 3489 4285 4731 4504 3737 4574 3681 2635 4734 4153 4766 3567 3281 2618 4996 3152 3833 2908 3088 4631 2981 4879 3652 4309 3606 4992 3959 3749 3688 3361 3074 4022 3759 3253 4059 3167 3513 3967 3317 3655 4342 2727 4735 4985 2610 4688 4616 2765 4907 3498 2881 4670 3208 3992 4560 3757 2642 4426 3408 3376 4824 3112 2734 3758 4964 3557 2952 3402 3884 3204 3317 2971 2608 2818 2789 4408 4279 4192 3513 3568 4521 3892 4527 3283 4027 4898 4818 4415 4218 4571 2638 3854 4968 3461 4078 3633 3580 2944 3709 4359 3696 3631 3463 3197 4597 4743 3034 3264 3281 2696 3675 3992 3848 3959 4669 3070 4545 3571 4698 3136 3890 4482 3412 2791 4172 3657 3924 3507 4174 4176 4497 2716 4204 2710 3123 4469 3206 3099 3822 4027 3082 4887 4910 3489 3884 3772 2764 3536 2647 4760 3874 2614 2574 4133 4477 3174 2640 3989 3195 4690 3704 4578 4709 4719 2997 4796 3904 4926 4591 3965 3862 4436 4405 3151 3114 2667
9 26 7 4 4 35 27 8 35 39 39 29 14 12 29 9 25 31 27 34 38 20 11 35 21 2 35 6 19 32 1 6 8 4 4 37 19 13 23 33 3 18 19 8 35 12 33 16 29 7 8 1 12 31 26 11 35 11 32 18 7 11 38 34 9 23 30 37 31 10 16 2 39 25 35 13 3 25 15 5 4 11 11 8 10 21 31 29 23 13 29 15 9 39 14 19 2 33 3 22 8 0 24 36 39 27 26 4 3 29 27 10 37 20 38 31 9 34 19 11 35 35 34 1 34 11 20 27 18 32 7 1 14 3 35 39 22 16 14 4 39 3 1 19 36 37 19 39 2 12 20 2 31 25 31 1 28 7 14 12 33 38 13 19 13 14 29 32 8 26 29 39 5 38 24 13 3 11 8 26 36 32 37 19 3 14 35 39 19 30 27 1 11 10 35 20 13 5 39 36 26 31 7 1 14 27 37 12 28 28 20 24 16 2774 4587 10 3494 4676 4955 2973 4709 3997 3622 3607 4717 3043 2938 4689 3221 3394 2733 3962 4274 3462 3733 2618 4172 4573 4477 4895 4508 4743 2801 3049 2537 4161 4060 4853 2769 2562 3933 4044 4069 2502 3468 4845 4378 4821 4975 3025 4680 3602 2845 4242 4901 4311 4340 3394 4919 4289 4116 3432 4873 3903 3311 4903 4105 3289 2788 3255 2624 3837 7 3204 2887 3237 2949 3945 4880 3761 3375 4229 3509 3874 3939 3386 4173 4422 3961 4361 3237 4825 4525 2695 4734 4134 4099 3965 3093 3736 4079 3800 3521 2851 3369 4859 4901 3600 3113 2568 4920 2617 2636 4393 4826 4568 2703 3120 3159 3698 3231 4681 4560 4951 4346 4124 3724 4479 3501 3281 2615 4026 2896 3564 2773 3604 4855 4434 4243 4189 4533 4768 2501 4348 3945 3144 3787 4704 3155 4851 2558 3895 4749 4230 4987 4119 3846 3610 4699 3145 4330 3668 4975 4377 4400 4591 3262 4281 3527 4043 3126 3080 4350 2894 3414 3856 3308 3892 4815 4445 4501 3101 2534 4198 2756 4583 4635 3574 3761 3599 4713 3709 2791 3203 4288 3858 4300 3271 4990 3163 4633 3360 4833 4582 4816 4295 4048 4366 2844 3716 3440 3164 3941 3531 4959
3 36 26 35 29 37 17 33 27 12 35 30 33 36 14 22 14 38 12 19 32 28 28 29 27 7 5 21 33 30 4 9 30 3 33 34 5 15 32 33 2 19 28 9 3 13 10 22 1 23 23 3 25 32 27 38 18 13 14 12 33 30 22 10 37 28 36 25 19 7 24 4 24 8 32 26 10 14 10 37 38 27 39 24 21 21 9 9 9 36 35 10 10 18 16 5 6 30 13 18 25 34 0 17 22 23 23 33 6 1 39 37 21 16 5 18 3 39 16 38 1 21 2 12 14 36 29 35 37 31 34 7 14 23 7 14 15 36 33 6 37 34 23 39 9 17 33 21 33 20 7 36 10 39 7 16 16 2 26 18 36 11 1 23 4 12 21 23 24 36 14 14 24 39 27 34 6 39 19 6 3 25 19 13 9 29 35 1 14 13 30 1 5 26 24 23 34 4 6 31 39 2 4 35 14 4 19 9 28 10 31 6 2549 3466 4376 2815 2937 3133 2761 3503 4129 4490 4302 3502 3860 2811 4829 4743 4329 3603 2931 3641 4698 4044 4789 4884 2671 3366 2804 4712 4332 3259 3637 4930 4396 2762 2599 3421 3557 4700 3387 2679 4024 3107 4615 3743 2893 3966 4818 2893 2938 2968 3267 4738 4849 3820 2877 4055 4174 3874 3400 3167 3740 2603 4637 4129 4175 3993 2826 4675 4075 4554 2549 2731 3313 4959 4765 3385 2628 3981 3650 4628 2733 3051 3534 4917 4579 4874 3126 4162 4879 2591 3879 4130 2733 4107 2884 3069 2607 2740 3675 3084 4782 4693 4374 4604 2917 4703 4750 4410 3380 2987 3904 3210 4690 2732 3594 3144 4391 3162 4533 4594 4498 3164 4094 4435 4879 4991 4413 4205 3489 4333 3455 4019 2819 4358 4324 2955 2910 4438 3068 3761 3777 4164 3401 3676 3512 2882 3937 3157 2837 3945 3151 4537 4815 2652 4593 3694 3827 2882 4926 4874 4346 3255 3018 4643 2802 4906 4821 3494 2870 4505 3046 3887 3112 2578 3764 2637 4501 3751 2677 3772 3382 4256 4868 2534 4087 3400 4220 2890 4438 3879 4648 3865 4420 3684 3540 4649 4826 3606 2782 3505 2539 4593 3811 3753 3102 4814 3684 4472 3967 4899 4116 3489 3553
6 29 26 3 11 36 32 12 26 28 29 25 38 4 3 9 3 22 27 5 34 19 37 26 37 12 18 20 32 18 36 17 21 31 32 14 14 26 15 8 7 7 14 26 38 6 24 34 30 2 29 13 24 6 15 26 38 27 24 20 31 3 24 15 23 26 27 10 1 38 9 13 4 24 2 36 25 26 23 33 25 21 28 14 17 2 5 38 9 17 1 9 4 26 28 27 24 25 22 8 21 37 31 0 30 17 35 20 32 34 27 39 3 34 20 38 16 33 28 12 20 13 13 10 12 1 13 30 16 5 30 35 15 38 15 16 34 30 2 37 15 27 24 7 22 21 27 2 17 13 32 17 39 22 17 16 38 13 22 10 11 6 8 21 25 15 5 12 25 31 31 35 3 32 25 25 35 7 7 10 30 12 28 10 2 25 29 19 37 36 34 35 31 12 4 4 27 34 24 12 28 26 35 10 21 5 20 1 22 2 3 13 4074 3406 3091 2821 3334 2581 4023 2938 4759 3649 3168 4280 2578 2528 3720 2519 4623 3336 2558 4228 4635 3576 3729 4488 3285 3737 4192 3478 4516 3115 4906 4226 2855 3476 3443 2917 3784 4337 4695 3787 3504 3506 3020 2640 4877 2885 4355 4689 3225 3408 4162 4678 2862 4917 3361 4879 2974 2527 4336 3866 4577 2569 3794 3291 3905 4118 4186 2810 2969 4450 4310 4511 4717 3963 3610 3038 2877 3052 3625 3623 4597 3594 4733 4696 3539 2957 4139 4028 4359 4883 4263 2776 2508 3156 2653 3481 3226 4975 4113 3426 4514 3451 3007 4242 2916 3412 2810 3508 4228 4349 2954 2605 3066 3274 4649 3205 3834 2908 3365 3327 4890 3978 3244 2705 3770 4657 4272 4752 4052 3322 4852 4741 4657 4390 3377 3701 3918 3567 3900 4218 2890 4811 2937 4325 4107 3230 3726 3441 3090 3176 3941 4813 4536 3165 3903 3708 4894 4394 4398 3849 2647 2645 3418 3104 4560 4744 3140 2632 3036 3717 4050 4946 3098 4307 2647 3098 4141 4218 4435 3184 2517 4489 2679 3157 4922 3619 3736 4368 4801 3697 3347 4888 3592 3057 4291 3866 3843 3373 4666 3061 4773 2621 2585 3642 4350 4377 4181 4790 3015 4811 4176 2952 3245
39 2 13 3 36 12 21 34 36 10 36 18 39 19 7 31 23 28 16 24 39 2 8 37 37 15 38 5 38 31 24 37 29 30 31 7 13 38 38 26 29 11 25 16 29 35 30 34 24 5 25 19 7 27 5 12 5 1 7 23 29 27 22 16 20 23 32 39 4 21 33 17 23 18 6 2 36 26 15 30 1 22 21 20 5 12 20 22 17 14 39 31 30 28 39 20 38 22 34 7 13 15 31 27 0 24 1 22 8 24 7 30 39 34 3 7 32 23 15 3 10 6 20 11 33 3 14 32 4 17 18 19 21 25 22 23 16 9 1 5 15 25 9 23 29 38 9 12 18 32 9 17 37 3 39 22 10 21 6 30 12 6 2 36 10 8 37 20 11 5 16 21 15 28 6 33 20 22 11 1 29 21 1 2 1 24 3 14 13 5 29 17 29 16 27 15 19 5 29 11 27 24 32 8 11 2 12 3 23 5 33 16 2909 4669 2670 4000 4702 2779 3849 3196 3628 4384 2707 3677 2919 4812 4603 4930 2887 4812 4605 4708 3972 4571 3343 2819 4244 2864 4822 3057 4381 3581 4418 3608 4737 4024 3410 3165 4022 4839 4684 4214 2659 2690 3404 3784 3584 4880 2826 4140 3711 3290 3369 4763 3472 4640 4385 3710 3431 2568 3527 3808 3394 2746 3204 3396 4063 3480 4493 4532 3282 3924 3385 4538 3177 4111 4825 3545 4981 2705 2663 4494 2971 3214 4560 2826 4400 3846 3477 4338 4827 4780 3679 3466 4175 4350 3605 2950 2567 4438 3221 4733 3322 3693 4245 3730 4197 3748 4956 4004 4710 4786 2925 3112 2541 4741 4091 4220 3576 4675 2931 2976 3643 4160 4501 4907 4256 2708 4830 3001 3202 4181 3444 18 2844 3347 2655 3398 3329 4017 4501 2664 3711 3926 4795 4743 3389 3398 4260 3493 4479 3031 3251 3013 5 3525 4568 4536 2669 4357 2757 3682 4627 4441 3710 3503 4263 3794 3666 2998 4388 3160 3022 2793 3783 4399 4486 3838 3421 3030 3466 2938 4349 3847 3822 4438 2978 2828 4508 4120 4583 3881 4425 3534 4327 4115 4516 3821 3052 3927 4866 4007 4009 3116 2674 4658 4334 3792 2998 4981 2597 4905 4792 4380 3752
9 30 14 6 28 18 8 24 35 5 37 3 16 4 12 33 16 21 34 36 25 35 32 14 32 28 17 15 12 6 30 14 26 13 25 8 19 15 26 4 1 18 18 25 17 4 7 12 22 17 25 32 2 21 20 29 7 19 20 6 3 7 3 5 24 28 21 26 3 13 18 3 31 26 3 16 19 16 39 8 4 20 3 10 35 15 11 35 33 13 3 28 35 20 35 25 36 38 33 22 32 16 10 6 10 0 7 22 16 17 21 39 39 4 15 36 11 23 12 25 16 37 14 14 6 7 14 3 23 1 15 2 14 10 33 19 10 1 8 13 32 24 17 32 15 17 27 8 10 21 38 32 5 37 22 18 10 22 21 21 6 14 14 28 8 39 33 2 36 5 26 8 19 3 29 24 2 38 9 2 31 28 24 7 1 13 24 18 7 34 15 17 17 17 33 28 31 8 37 35 8 28 13 38 12 28 19 1 7 17 7 21 3759 4695 2760 3225 4973 4746 2980 4926 3360 4265 2714 3347 2942 3772 2934 4762 4585 4431 3606 4567 4245 4729 4856 4676 3360 3003 4538 3076 4922 3762 3595 3566 3679 4975 4018 3326 2882 3884 4785 4896 4262 3358 3355 4486 2643 2691 4258 2940 3196 3385 4260 4946 3964 3431 3827 2858 2682 3495 4847 4227 4968 3352 3462 3152 4083 4511 3591 3299 4218 2616 3109 4142 3599 4336 3193 4590 4321 4181 3427 4480 4169 4570 4759 2512 2728 3000 4036 4361 3839 3927 3619 2834 2836 2661 3444 3650 4422 2827 3879 3619 4248 3024 3125 3652 2655 4304 3201 4030 3032 2697 3202 3220 3080 2904 2980 2599 3006 2978 2598 4037 4185 4192 4022 2879 4935 3942 4136 3949 3489 3486 3864 4344 4951 3693 4419 4531 3092 2616 3406 3353 2626 4511 4000 2717 3064 4502 4066 2891 4337 2791 4348 4440 4930 3384 2695 4938 2867 4450 4708 4373 4674 2870 2844 4016 2664 2518 3231 4068 2656 2840 3809 4839 4032 3902 4272 4138 2509 3457 3539 2779 4906 3136 3305 3038 2762 4393 4703 3153 4277 3669 3763 2645 3838 4903 3919 2870 2781 3292 2753 3973 4698 4600 4290 4200 4102 4302 3168 2892 2534 2599 3232 2618 3686
29 16 5 23 6 9 29 27 35 36 35 24 17 21 16 5 9 5 9 11 27 9 26 30 6 8 36 29 19 33 38 9 28 25 20 6 16 27 1 28 39 5 38 1 21 4 31 24 23 11 22 4 18 23 34 30 29 31 35 29 38 23 34 19 39 30 7 5 14 34 15 36 9 35 10 25 25 17 15 37 5 31 5 36 31 15 26 26 17 28 33 4 2 5 9 20 32 21 13 20 9 35 20 5 3 14 0 14 1 17 23 16 36 27 24 30 32 15 34 19 3 20 9 32 27 15 5 1 21 26 25 8 24 9 11 37 32 33 39 23 15 13 33 6 8 35 21 1 39 23 8 32 31 1 10 11 27 14 9 6 29 24 5 9 18 20 34 20 17 23 2 8 38 22 28 15 22 14 26 3 5 8 22 18 18 2 1 20 8 39 31 32 14 23 27 30 34 6 14 20 16 36 36 35 4 11 32 26 8 5 38 10 3222 3229 4172 2597 3604 3261 3264 3687 4181 2938 3851 3914 3699 3010 3241 2977 4927 3060 2621 3580 3637 4319 4140 2885 3561 2970 3386 3891 4385 3248 4549 4950 3179 2575 4028 4700 4822 4504 2689 4253 3324 2923 4407 4378 3989 3100 3584 3426 2517 4854 2903 2514 3976 4907 4494 3573 3417 4722 3759 4618 4990 3226 3197 3569 4109 3177 3934 4075 3529 3052 2731 3662 2829 3528 4555 4111 2841 3702 3353 4277 3486 3985 4649 2631 3057 4398 4200 3932 3906 4857 4190 4098 2591 3647 2867 3708 4078 3332 4977 4671 2519 4146 3367 4061 3216 4375 4179 4070 2582 2653 4075 2671 3381 4248 3954 3068 4619 4263 2749 2511 3627 3500 2844 3317 3584 3341 4270 4331 3442 2502 4317 3424 3565 4647 4526 3438 3344 3390 4692 3201 4635 3592 2775 3886 4468 2743 3468 4263 4242 2874 3057 3213 10 2834 2684 3900 2603 2790 4785 3070 4412 3143 2825 4184 3154 2751 2721 4012 3596 4726 4974 4748 3191 4978 2899 4114 4569 3942 4900 4637 4247 4349 4594 3574 4350 4267 2870 3400 4462 4000 3845 2834 4316 3364 3080 3817 4214 4904 3425 3999 2883 3197 3069 3149 4379 2776 3514 3285 4671 4427 4224 3010 3532
11 20 9 37 33 12 7 28 27 4 29 26 38 36 12 33 10 17 11 39 31 18 3 36 11 23 32 1 16 2 6 15 11 8 32 3 1 33 24 1 1 7 14 8 27 26 33 28 22 10 33 15 37 32 38 38 19 5 26 18 19 4 26 9 15 18 27 26 29 34 27 2 24 5 30 7 26 18 33 29 20 19 12 16 35 34 33 23 5 18 8 8 12 23 1 4 20 26 37 35 34 39 31 8 24 26 26 0 27 29 7 2 37 23 9 39 35 33 9 19 29 28 6 2 4 31 1 12 19 26 20 2 38 24 37 23 18 14 13 30 26 4 39 4 6 29 35 3 25 37 6 12 9 25 20 2 12 3 31 7 25 26 4 29 19 29 15 18 14 12 1 35 13 23 36 31 24 4 26 32 18 28 8 39 39 26 33 33 17 9 2 19 16 2 9 17 34 6 4 14 4 8 7 10 23 2 16 35 39 20 10 12 2539 2767 3269 4061 2865 3483 4485 4006 2709 4073 3367 4816 2527 3703 3086 2631 4465 3606 3074 3167 3191 3150 3036 3338 2513 4494 3913 4624 4357 3176 3269 4297 2666 4149 4122 2644 4142 4735 2879 3230 4361 4978 4011 2624 4128 2604 3540 4695 3572 3082 3787 4202 2894 4757 4001 3019 4815 3516 2763 3621 4693 2586 3748 4074 2890 4591 3059 4967 4693 4900 4020 3235 3761 3761 2700 2753 3786 3600 4497 2553 3598 4336 3066 4447 3656 3049 2554 4874 3017 3605 3497 3045 3835 2970 4835 3474 2639 4849 3466 4820 3145 2815 3083 3739 3210 4221 4077 3049 3692 2590 2668 2851 4481 4885 2852 4926 4423 4133 4620 4551 3743 2692 3864 3928 3727 4785 3446 15 4481 4900 3608 4188 4869 4823 3648 2834 4140 4230 2981 2990 4572 4189 3500 4853 3072 2636 4321 4832 4940 2719 3382 2607 3752 4797 3596 3354 2535 2661 3687 2923 2936 2594 2753 2913 3239 3123 2537 4148 2675 4044 3038 2582 3073 3032 3039 3338 3584 3740 3897 4844 4699 4478 2653 4401 3999 3815 4463 2739 2722 2627 4129 4284 2744 4695 2702 2518 3133 4987 3830 4366 2891 2872 4548 4278 4508 8 4437 4695 3356 3765 3712 3914 4049
34 22 3 17 36 38 3 16 38 5 10 15 39 14 30 37 36 17 9 30 28 32 14 12 17 15 29 25 26 30 6 3 2 33 22 34 13 32 21 8 10 32 31 28 33 19 6 35 36 5 37 35 1 2 28 21 11 24 13 32 36 32 30 16 3 29 37 11 36 23 19 11 37 23 30 36 26 19 7 24 13 6 13 24 21 14 38 32 33 7 2 28 8 17 2 26 32 3 33 4 31 30 12 17 20 25 20 28 0 30 35 37 21 23 2 17 7 31 28 27 3 16 32 32 30 29 2 1 13 14 19 37 33 32 11 29 23 39 3 12 16 19 1 30 25 38 18 38 1 9 37 16 24 14 8 2 27 24 1 25 26 24 6 1 2 6 1 18 19 20 22 33 39 22 10 31 31 11 13 24 28 30 4 11 30 30 36 8 30 1 4 7 16 19 3 15 33 16 13 22 21 35 35 5 39 3 14 36 9 15 39 13 4960 3701 4600 2695 3325 2504 4133 4583 3361 3627 3568 2608 2783 3315 2760 4529 4295 2933 3195 3234 2841 3313 3379 3263 3871 3690 4822 3655 4383 3387 3938 4525 4407 3573 3716 4974 3338 4050 3999 4858 3488 2970 2595 4173 4874 2922 3143 2776 3068 4717 4698 4353 3126 4437 4006 3699 4957 3558 4313 2917 4803 4601 3989 4700 2877 3023 3445 4143 4433 3576 4769 3678 4736 3046 3563 3833 4746 4691 2529 4340 4607 4145 4015 3504 3631 3074 3463 4362 3008 3116 3832 4503 4233 2969 4735 4905 4169 4647 3681 4461 3565 4932 2566 2602 2584 3507 4176 4693 3127 4688 2587 4298 4903 3932 3293 2972 2740 2810 4283 4976 2629 4430 2535 3409 3324 3028 3370 4562 4326 4872 3491 4597 3516 4970 4591 4782 2597 2788 3515 3486 2535 3778 4939 2585 3685 4817 4332 4043 3388 4704 4114 3807 2776 3628 2974 4608 2992 4541 4072 2697 4905 4213 2631 4180 4689 4099 3666 2614 5 3921 3695 4010 4438 3300 3101 4540 2706 3610 4516 3084 4666 4159 4001 4974 4130 3599 4549 4394 3766 2922 4216 4004 2710 4503 3185 3401 4077 4508 3653 3516 3362 4828 4020 2888 3606 3320 3830 3788 3674 4258 3810 3299 2810
6 30 20 2 38 37 36 16 24 30 34 35 38 6 5 16 9 9 33 17 39 34 1 35 13 18 39 3 17 37 39 1 35 9 26 29 1 13 18 12 34 5 15 22 25 3 11 5 35 33 18 30 22 14 10 3 10 34 15 35 32 31 13 3 23 26 39 34 26 13 31 5 27 16 19 21 26 34 8 33 36 14 3 30 21 28 35 31 27 1 1 32 21 31 5 13 35 27 9 5 4 23 16 7 14 28 19 5 39 0 35 17 7 21 11 27 5 35 29 8 14 26 20 11 18 15 12 24 16 18 23 7 13 8 38 36 8 27 16 19 16 32 1 10 3 3 20 18 1 14 19 14 12 4 11 8 18 25 2 24 17 22 34 35 13 36 26 29 1 38 16 29 1 24 32 16 22 16 4 1 28 10 11 32 14 31 24 6 24 19 10 22 1 2 4 4 2 18 15 12 7 11 37 12 7 29 38 5 11 21 16 39 4049 2594 4286 4084 3267 3818 4154 4657 4735 4696 3696 4807 4793 3246 4808 2604 3747 4781 2981 4347 3071 3803 2585 3053 2705 4118 3662 2816 4308 3903 3786 3527 4226 2961 2725 2710 4023 4079 4604 4303 2711 4046 2539 2899 4206 2833 4759 2781 4303 2583 4373 4939 2773 4004 3391 3382 3358 4428 4326 4677 4374 4687 2866 4019 3355 3979 3468 4631 4704 4095 3658 2803 3736 3673 4887 3416 2645 4422 4280 2658 4029 3962 3228 4394 3871 2697 4578 2784 3933 3082 4970 3252 3310 4877 3521 4345 4501 4227 4697 3309 4951 4181 3784 3150 3857 3308 4442 3704 4254 3140 4313 4895 2596 4268 3683 3402 4809 3701 4261 3608 4539 3156 2838 2660 4942 3777 3187 3610 3691 2962 2734 4012 3815 4348 4416 4819 3838 3406 2759 3461 3417 2613 3768 3989 3158 4379 3214 3307 4170 4342 4700 4444 3626 4557 3826 3513 3586 4919 3838 3606 3543 2844 4304 4677 2903 4194 2793 2635 3326 2662 3970 4046 3437 2986 3268 4851 4003 2503 3300 3573 2530 3701 4638 3857 3621 2950 4355 4976 3119 3398 3791 4708 4628 3856 4305 3889 4125 3218 3212 4961 4305 4925 3967 4398 4994 4741 3745 4727 3289 3048 4929 4370 4184
28 16 26 28 39 14 1 39 31 18 31 14 22 35 10 35 1 33 25 15 30 35 14 8 7 25 15 22 12 15 18 21 7 26 12 26 30 39 28 34 7 34 34 34 10 21 35 17 26 25 23 29 35 18 11 26 31 18 18 1 34 38 36 24 33 28 4 39 31 35 6 11 30 33 12 23 35 37 25 2 3 29 16 15 17 25 20 21 28 2 1 20 30 16 38 24 38 31 11 8 15 9 22 39 13 8 33 31 11 24 0 36 18 36 38 2 15 18 32 26 20 6 32 16 16 36 39 3 30 10 9 13 18 36 21 7 30 39 30 23 16 2 4 3 15 27 33 13 8 35 15 26 11 27 11 30 15 14 24 38 37 39 27 34 9 34 39 8 35 1 15 35 2 23 38 36 30 9 27 5 19 16 14 3 39 5 23 38 5 27 30 5 27 10 15 26 26 37 31 28 5 18 24 7 34 15 3 28 5 3 33 37 4174 3756 2757 2731 4864 3311 4846 2570 3153 16 4158 4052 3270 4111 3592 3528 3698 2647 4310 4795 4052 2644 4729 4183 2509 4167 3218 2575 2750 3353 4417 2813 4892 2911 3753 4453 3014 3175 2686 3877 3182 2646 2607 3233 4545 4372 4657 4665 4378 4604 3710 4665 4798 3775 3910 4676 3274 4450 3733 2613 3359 4415 4263 3635 3862 2917 4087 3047 4765 3119 2610 4779 3157 4816 3047 4418 4733 3925 3521 4416 3871 2813 3377 2502 3137 3369 3154 2859 3466 3424 3965 4877 4657 4181 4239 4334 3462 3237 4219 4897 4291 3672 4083 4257 2594 3706 2773 3249 4035 3887 2529 2844 2720 3014 2576 3335 3626 3290 4855 3971 3588 4800 4004 2783 4891 4823 4882 4534 3994 3175 3976 3829 4319 2638 4502 2961 4771 2976 3198 3237 3985 2877 4172 4391 2869 4085 4243 4318 2673 4324 2687 3753 2842 3767 4664 3548 4336 3696 3460 4932 2875 9 2706 2513 3292 3095 3193 4020 3601 4451 4400 3617 4395 4621 4424 3747 4761 2593 2589 4605 4924 4187 2984 3030 3699 3512 3017 2884 4975 4666 4244 2934 3729 4275 4344 4969 3786 3926 4575 3325 4674 4002 4406 4316 4191 3936 4377 3423 3951 3826 4555 4630 4883
29 27 27 14 24 34 19 26 30 34 4 35 19 38 27 19 15 17 38 33 20 19 28 24 8 5 5 13 30 2 23 22 22 24 31 20 10 5 31 18 28 15 11 5 14 8 35 3 6 27 19 6 18 12 2 13 34 18 22 37 17 17 39 39 1 37 25 35 14 39 10 16 1 38 33 27 5 38 23 8 24 21 20 24 9 6 33 19 36 25 8 5 2 28 36 1 1 30 19 37 4 20 14 25 12 12 21 13 14 2 9 0 26 23 6 12 19 11 22 24 34 6 17 28 2 13 30 31 7 26 22 19 21 16 13 20 3 33 4 17 36 24 24 31 4 25 22 33 27 34 22 1 4 5 39 33 38 33 32 2 1 3 31 2 34 14 36 37 20 37 11 8 29 26 7 9 38 1 24 37 30 6 4 3 32 3 18 25 17 20 4 1 7 2 21 38 27 17 17 32 18 8 6 33 6 25 9 6 32 36 31 8 3657 3399 4807 4548 3381 3549 4428 4873 4746 3778 2592 2761 2863 4445 3908 4103 4982 3852 4535 2572 4621 4908 3900 3796 4807 4817 3524 4038 3564 4234 4889 3159 2591 3137 3440 4891 4588 4863 2724 4140 3434 3428 3037 3409 4145 2751 4258 3423 3755 4501 2919 3832 3692 3583 2518 3925 3490 3962 2770 4269 4206 2983 4095 2749 4482 4659 3671 2969 3996 4554 4050 3629 3606 2551 3130 3026 3544 4023 4829 4075 4073 4843 3235 2694 4857 2574 2935 2692 4525 3416 4165 3975 4740 2896 4540 4052 4743 3394 3604 3931 3179 4662 4050 2663 4858 4219 3339 4482 3476 4331 3321 2568 3846 3907 3675 4651 3785 4188 3768 4661 4329 3299 2511 2575 2840 4180 2930 4015 2605 2713 2550 3358 3119 3035 2810 3661 4508 4353 3981 4880 2614 4167 3245 3816 4125 3245 4803 2836 3106 4792 2882 3505 4604 3555 4625 4936 3886 3899 4340 4623 4389 3956 4167 4009 4473 3404 3637 3020 2779 3476 3104 4645 4863 3315 3923 2640 2618 4405 3381 3820 2720 3879 4963 4147 2773 2556 4400 4512 3826 3161 2879 4232 3586 3235 3597 4497 4890 3204 4687 3120 3737 18 3285 3815 4973 4117 4640 3283 3320 3746 3406 3511 3788
34 18 10 3 15 31 32 30 10 14 10 20 21 24 15 6 26 6 27 36 23 26 11 30 3 5 6 37 11 22 26 23 18 24 21 5 2 36 3 32 14 28 8 34 3 16 4 15 27 15 7 9 27 26 4 22 12 27 29 33 16 24 7 18 6 39 18 3 10 17 9 20 26 22 2 27 4 11 10 35 18 11 33 30 37 39 6 3 30 39 8 32 4 11 27 19 13 26 24 5 3 28 28 32 32 27 4 33 13 16 13 20 0 6 22 19 15 8 21 1 7 34 26 4 3 9 29 25 26 12 9 37 16 29 34 20 14 26 5 7 25 6 6 5 11 33 26 26 15 24 34 7 36 10 15 20 37 23 32 9 21 20 20 5 16 3 32 22 24 1 8 16 11 36 13 1 38 6 4 10 20 18 1 34 27 4 24 11 38 23 4 35 21 14 28 10 25 35 11 7 20 16 32 22 22 18 23 14 22 20 2 16 3627 2909 3671 2899 4085 4149 2516 3009 3487 2874 2808 4809 3792 2998 4696 3420 2794 2506 3813 4281 3102 4929 4048 3501 2886 2579 3980 3666 3032 4918 4368 4862 4507 4375 4337 4769 4037 3578 3559 2793 2891 3196 4112 4314 4112 3922 4764 3248 4784 4528 2971 4703 2855 2675 2946 4479 4516 3284 4621 4229 4558 3336 4387 4755 4285 2680 2802 4072 3255 2615 4291 3385 3840 4203 2968 4502 3928 3917 3729 3640 3523 3251 3476 3478 4170 3550 3731 4162 3336 2590 4695 2801 2597 4255 3698 2627 2825 4705 4963 2770 3851 3628 3100 4492 3648 4216 2657 4657 3233 4944 3701 4180 2881 2966 4354 2840 2582 3706 2632 3597 2883 4315 4501 4746 4816 2507 4595 2514 2877 3667 2916 3591 4895 4384 3061 4120 3235 3130 4292 3876 4293 4621 4978 2869 4405 2714 3560 4531 3890 3952 2673 2947 3459 2889 15 2680 3904 3250 2636 2576 4650 4459 4335 4035 3201 3792 3300 4583 3274 4281 3040 4420 4915 3856 3130 4543 4273 4993 4074 3448 3732 3971 3995 4625 4628 3738 4013 3805 3062 7 4046 2902 3239 4812 4916 3626 4656 3129 3555 4894 3550 3876 3655 3873 3224 3424 3025 4420 3706 4015 4457 4372 2847
3 31 32 34 35 14 26 36 8 31 25 8 15 3 36 38 7 1 37 6 18 31 26 2 19 27 17 16 5 20 33 4 22 6 26 12 12 7 20 15 35 8 35 30 21 33 23 24 36 38 37 3 31 29 9 26 8 24 21 26 20 4 35 22 39 8 16 11 17 6 16 20 19 15 3 30 7 16 38 25 8 8 13 29 28 24 29 25 14 32 39 28 22 27 25 12 26 18 28 12 10 34 32 5 12 19 38 22 15 1 38 7 7 0 12 9 35 33 4 26 6 21 16 27 32 29 2 31 25 38 30 15 24 30 31 16 21 3 10 23 14 39 6 37 34 30 38 25 1 23 30 38 32 7 39 24 19 35 21 38 21 6 8 11 31 29 5 20 21 23 14 5 31 24 18 14 11 8 15 12 6 3 16 1 20 14 27 20 34 34 12 37 32 13 25 37 9 28 32 27 1 5 18 6 15 25 28 12 14 20 14 18 3555 3038 4370 4155 4643 3929 3224 2519 4067 4740 3162 4147 3066 4588 4707 4886 3807 4630 4579 3010 3681 4056 4235 3215 3290 3261 2871 3997 3544 3778 3137 3770 3781 4222 3564 4085 2559 2547 2699 3902 4625 3934 3113 2898 3186 2690 4904 2858 3982 4567 4729 2820 4416 3371 2780 3915 3297 4181 3824 3271 3459 4914 4156 3051 3329 4948 4640 4802 4971 4495 4349 3081 4662 4278 2853 3920 3619 4533 3882 4825 3501 2715 3447 3217 3559 4414 2887 4967 4438 4008 4973 3462 17 2759 2878 2658 2978 3829 4466 4213 3136 4526 3822 3792 3612 4408 3787 4264 4369 4605 2862 3508 3853 3320 2951 4824 2585 2507 3817 2540 2976 4082 3124 2990 3479 4195 4970 3183 2846 3764 4659 2709 3005 4533 4656 2832 4165 3914 3447 4298 3677 2926 2664 2949 4192 4422 2628 3587 3456 4085 2940 4415 3191 2745 2904 4968 2828 2835 3538 4907 4051 3765 3989 4489 3871 4526 3178 3963 2765 4409 3503 3379 4865 4034 3853 4049 4889 3179 3543 3878 3535 2695 4726 3374 3515 2680 4462 3867 4663 4456 2943 4073 2947 3642 2857 3491 3695 2534 4332 3477 4617 4440 4278 4857 2567 4309 2802 3357 4431 4387 4030 2908 3765
25 30 36 16 36 29 5 13 17 19 38 13 27 26 33 11 33 13 20 34 28 24 4 21 10 6 31 15 8 6 23 31 21 16 11 15 3 28 28 3 18 34 2 32 6 22 25 13 11 2 4 17 7 12 19 37 29 6 4 24 12 26 17 20 9 22 17 14 27 23 7 39 35 18 23 12 5 7 34 35 20 8 13 1 38 34 36 35 3 3 10 28 23 29 10 27 33 36 14 36 3 17 23 5 19 22 29 25 14 39 35 16 20 10 0 34 8 6 4 4 13 1 18 24 13 37 39 31 19 20 12 30 11 33 15 1 13 29 13 27 27 26 11 37 9 27 38 34 25 8 3 2 16 7 20 10 18 18 32 14 5 35 33 3 25 22 24 25 2 1 11 11 18 20 3 9 2 14 28 11 4 37 20 13 21 30 22 4 9 35 32 9 13 34 25 7 6 19 6 17 15 18 11 19 4 33 13 34 18 18 3 38 3319 4142 2917 2620 3640 3070 4734 4937 3047 2796 2827 4120 3079 4637 4801 3489 3104 4523 3452 4502 4589 2672 4081 4393 3715 4661 3020 4831 2965 4764 2718 4908 2655 4268 3036 4599 4115 2745 4501 3733 3611 4941 3135 3176 3682 4291 3341 3086 4225 3908 4131 3553 3814 4829 4841 2919 2873 4351 2958 2771 2945 4959 3573 3267 2957 2996 4516 3739 2576 4051 3152 4906 3881 4908 2963 2555 4237 4841 3629 2922 3217 4786 4406 4142 2540 2802 3580 3116 9 2792 3593 4240 4104 3943 4879 3393 3768 2559 3938 3769 3420 2615 3162 4580 4343 4635 4921 2948 4008 2870 4965 4372 3090 2983 3455 4184 3224 4241 3085 4555 4503 2725 3266 4569 4083 4730 3173 4310 3961 4774 3071 2730 3371 3536 2912 4693 4367 2661 4204 4505 3094 4754 4190 2764 4416 3274 3273 4620 4475 4924 2990 3905 3760 3344 3754 3597 4593 3691 2561 3631 3184 4157 2999 4218 3125 3202 2754 3802 3357 4566 4731 3425 3818 4698 4374 4887 4463 4722 3582 4663 3705 2762 4140 4900 4870 3449 3946 4507 4784 10 4582 2951 4415 3073 3400 3801 4291 4458 4333 3319 3947 4545 2796 4513 3090 4150 2584 3455 2748 2831 2671 4275 2817
2 5 14 15 16 7 26 22 19 3 5 24 13 12 22 29 8 31 13 7 2 15 31 36 9 16 13 17 11 19 13 20 28 18 31 8 39 9 16 8 38 32 23 29 6 3 30 1 3 6 15 6 10 7 19 7 25 30 26 10 14 5 18 32 25 31 11 39 30 23 17 11 18 27 10 37 5 10 34 5 14 11 29 7 21 21 20 34 36 24 1 18 24 25 35 20 24 35 22 28 27 39 11 7 12 15 36 16 1 21 24 28 10 26 21 0 20 21 20 33 7 38 28 12 26 17 24 12 33 32 5 8 12 32 8 26 23 38 36 9 27 6 17 31 19 18 7 19 35 26 26 13 24 12 28 3 13 15 32 34 14 9 2 11 35 20 24 33 30 21 3 29 21 24 11 14 12 38 1 23 27 39 29 15 28 8 23 25 30 29 22 8 20 11 39 4 5 3 24 4 28 5 3 29 35 27 14 35 25 32 8 18 3370 3213 4287 3438 3996 4303 3359 2675 2794 4431 3840 4971 4997 2532 4055 3637 4247 3463 3849 2829 3632 3407 3466 2569 3456 3112 4855 4304 4743 4130 3542 2688 3016 2653 2929 4478 4018 4185 3617 4557 2636 3036 3023 2529 2850 4626 3013 4992 3196 4863 2789 4062 3467 2821 4806 3234 3977 4963 4290 4145 3485 3709 4903 3297 2506 3475 4097 3030 4963 3295 3886 3276 3568 4751 3345 4679 3520 4558 3709 4358 3024 4546 3894 19 2691 3275 3623 3988 4753 4188 3903 4671 3854 3060 4660 4582 4574 4381 4496 4741 2737 4327 3844 4778 3489 3894 2890 3143 4607 4273 4365 4012 2541 4670 4735 2701 2914 4118 4605 2541 3139 3910 2990 2607 3506 2649 3679 2946 4378 2885 4830 3572 3066 3883 2510 3183 3397 4743 4651 2716 4969 4053 3270 3175 3569 4447 3910 4371 2734 4711 2949 4996 3934 3955 4300 3982 4224 3049 4240 3361 2895 4318 3820 4282 3317 3678 4892 3886 3221 2814 4907 3702 4721 3065 4171 3362 4408 3481 3937 4792 4305 2993 3653 3609 3372 3313 3993 4704 4345 4725 4243 3233 4624 4261 3829 2693 3320 4993 3220 4364 2692 4986 3214 2518 2936 3080 4376 3693 4898 4104 3564 3940 2527
3 24 13 4 12 12 9 34 7 30 29 35 3 5 2 36 35 1 32 1 23 10 9 27 9 10 38 26 18 31 21 12 14 3 25 30 8 17 28 15 38 15 14 35 8 32 21 11 11 38 34 35 32 24 38 14 24 30 27 2 13 30 36 35 17 13 20 8 28 9 1 10 20 28 2 22 9 9 1 4 26 6 22 30 9 17 29 37 36 5 14 24 35 16 32 9 11 39 34 36 28 22 33 34 25 14 4 11 35 19 16 17 20 19 33 19 0 28 24 19 1 2 10 28 7 33 15 29 21 33 22 38 3 13 20 16 29 37 35 30 26 36 33 36 10 28 4 23 22 14 31 9 8 39 27 13 17 24 27 24 34 24 10 9 22 38 30 29 33 6 25 22 16 33 10 15 26 7 16 17 14 14 28 1 5 9 7 39 26 35 29 13 26 1 15 30 14 21 3 19 35 32 17 12 18 19 34 20 26 31 4 20 3181 3689 3317 4491 4666 4050 3901 3334 3596 2855 3735 3756 4837 4454 4656 4342 4140 2954 4107 4014 3184 3448 3519 4795 3346 3736 3022 4944 2617 3877 2679 4185 4411 2681 4336 2959 2721 4240 7 2963 2784 4507 4215 3636 3375 4874 3747 2593 4713 3508 4485 3570 2654 2727 3809 4732 2997 3493 3855 3915 2527 4457 3338 4341 3960 3219 4113 3542 3448 4515 3753 3570 3661 4818 4528 4989 2615 3787 3129 3045 4633 3759 4466 4962 3847 3177 3512 4739 2951 2762 4327 3992 4709 3611 2984 2510 4202 3085 4464 4070 4904 4188 4573 2967 3756 2825 3712 4431 4203 4111 4052 3304 4280 2713 3455 3377 2959 2731 4711 3857 3646 3362 3796 4045 3441 4873 4759 3994 3312 3592 3646 2608 2886 4788 4226 3070 3923 4532 3605 3927 2706 4530 4826 4185 3173 3577 2717 2708 2897 3479 3907 2826 2553 2565 3391 4894 3498 3164 4779 2953 2726 4233 3318 2778 3214 2511 2951 4502 2787 4867 3490 4034 2609 2956 2884 3996 3849 4585 3879 4202 4055 4063 4563 2786 3161 3307 3164 3095 4677 4035 3161 3313 3879 3035 4026 2559 3296 4168 3889 3666 4055 2589 3730 3811 2647 3839 4264 2927 3628 3774 4223 3931 4249
12 9 11 17 6 13 36 31 25 6 1 2 23 11 13 26 9 10 26 28 1 30 31 17 35 28 3 17 21 35 14 31 4 7 1 13 25 4 27 19 39 29 11 34 19 31 26 34 26 10 32 18 33 6 39 12 38 36 32 19 26 26 24 34 32 19 12 21 32 15 27 7 2 31 27 14 4 25 35 15 18 15 33 36 16 12 37 36 34 13 16 36 17 39 5 6 8 28 28 10 19 32 12 33 10 39 16 24 32 20 5 37 18 30 3 32 35 0 27 38 35 7 21 19 21 25 19 18 11 6 7 1 26 13 20 24 20 22 18 20 21 16 30 20 31 18 34 36 34 10 16 18 24 11 17 10 23 37 24 16 29 3 3 4 32 18 13 33 37 11 10 26 24 12 16 18 22 25 27 36 36 29 13 3 13 3 36 32 12 28 29 29 26 16 26 25 38 24 31 22 29 19 24 11 16 10 12 30 12 14 5 10 4131 4310 3763 4485 3336 3645 3396 3485 2703 3986 3831 3488 2550 4358 2940 4800 2525 2811 2980 3318 2567 2652 3457 3870 3022 3655 3160 3671 3409 4045 2684 3342 4985 2811 3741 4649 3523 4953 3011 4434 2593 4670 4569 2951 3625 2795 4414 4261 2557 3607 4698 3161 3238 2876 3248 4305 2894 3304 4841 4363 4427 4213 3414 4926 3447 3369 4006 3777 2516 3190 3162 4751 3303 3966 4904 4741 2626 3376 4324 3864 4817 2823 2688 3997 4024 3728 2657 3942 14 3595 3965 2560 3341 4717 4322 4953 4195 4937 3379 3420 2975 3478 4052 4178 2861 4207 2971 4381 4316 2903 3022 4364 4744 3362 4217 4131 3679 4753 4321 2863 2694 2638 2502 3631 3414 3612 2779 4464 2841 3662 4873 3231 3084 4883 4212 4675 2887 4751 4931 3363 4429 3162 3834 3183 4299 2676 4089 2936 3948 3414 3965 4708 2874 4819 4949 3980 3427 3302 2570 4822 3709 3647 4000 3866 3842 3130 3645 3697 3663 3069 4685 3236 2937 3817 2864 3295 3388 3438 3081 4704 2783 4670 4543 2558 3507 3447 3168 3279 2760 3112 2925 3843 4727 2945 4459 3648 4789 4714 4373 3294 4586 4274 3355 4624 4171 4323 4948 4905 4460 3193 4117 2931 3317
8 27 19 3 11 15 11 4 26 12 13 38 33 39 39 26 32 28 13 25 16 6 18 29 12 6 17 31 16 25 8 7 13 25 12 9 2 23 9 37 16 31 29 2 2 31 33 37 11 33 10 19 19 33 4 2 4 14 20 13 33 23 4 8 9 9 18 16 32 19 9 20 22 6 2 9 5 26 17 21 5 34 16 27 19 23 10 14 27 32 37 2 11 2 2 4 39 5 26 21 28 2 38 38 29 16 13 32 1 28 18 32 15 24 26 24 9 18 0 28 10 7 13 23 22 11 6 9 4 9 21 9 22 4 36 25 8 25 24 25 10 36 34 29 32 32 33 22 34 20 4 17 2 19 23 22 2 21 11 30 32 2 3 16 19 29 14 13 30 24 30 17 5 17 26 8 37 8 23 37 14 11 7 21 16 19 12 22 38 19 4 2 23 10 37 33 23 16 2 3 4 16 1 28 34 4 7 12 10 9 35 1 4918 4550 4936 3564 4976 4281 2657 3698 4151 4125 4959 3497 4272 4943 3489 2663 2607 4542 3920 4269 3268 4588 4163 3379 2828 4577 4451 4846 4774 3927 3001 4150 4196 2709 3071 2729 4411 4227 4532 3879 2976 4882 3279 4612 4420 3874 3213 3571 2591 4195 4688 4896 2708 4438 4168 3962 4922 4325 3650 4501 4745 3278 4403 4081 4851 3293 3472 2710 4480 3508 4659 3242 4316 2646 3537 3859 3319 3894 3531 2753 3209 4035 3549 4550 4444 2887 2664 3024 4838 2690 3717 3853 4515 4210 3841 3624 3114 4704 4525 3607 4098 2673 4338 3457 4597 3560 3390 3188 3643 4368 4845 3912 4522 3283 3478 4801 3951 4991 3502 3030 4026 4500 4248 2523 3045 4402 3124 3556 4178 2969 3038 3502 3344 4473 4448 4282 3142 3408 4302 4800 3088 4155 4865 4036 4091 4320 4234 3785 4783 4537 4341 2548 4355 3221 3916 2589 4075 3672 2702 2596 3444 4112 3514 4980 3643 3947 4686 4792 2909 4374 3898 4995 2755 4696 4292 4720 4249 4393 4190 4061 4209 3187 3492 3777 3575 3592 4814 4331 3258 4438 3865 3101 2537 2841 3206 3126 3306 3548 4457 4911 4187 3460 2756 4901 4381 3337 3740 2834 4453 4550 4305 3554 4580
6 37 26 31 35 6 11 10 23 36 34 20 27 39 11 31 33 10 14 5 30 24 17 5 30 14 5 12 12 18 30 8 16 15 18 1 26 28 36 5 4 2 22 4 6 16 10 33 10 25 23 17 19 22 19 7 23 21 2 37 17 1 15 6 31 2 38 12 12 11 31 23 29 34 24 9 25 9 12 13 24 34 25 12 15 27 5 18 11 5 5 22 7 37 10 32 16 9 16 15 39 25 37 10 24 18 16 14 14 35 37 3 21 29 1 26 36 26 34 0 38 12 29 37 33 6 37 13 19 22 7 1 25 10 11 12 17 21 1 36 10 10 25 21 27 22 26 3 6 39 35 19 29 38 18 36 39 1 15 24 28 20 23 5 3 7 9 11 4 23 36 39 25 18 33 39 6 23 15 35 14 21 35 4 5 5 26 8 30 1 10 4 39 39 33 26 21 32 18 20 27 33 13 39 13 12 39 7 39 35 34 30 4524 2801 2615 2699 2622 3852 3691 4687 2860 2774 2635 2605 2638 2677 4580 4702 3506 3857 3112 2895 3298 4358 3112 3036 3395 2671 3197 2863 4954 3437 4528 3863 3412 3646 2806 2886 3563 4310 2956 4880 3238 3607 3644 3589 4725 4413 3400 4924 2559 2960 4954 3769 2646 4862 4305 4434 4450 3843 4774 2917 3065 2637 3564 3776 4875 4537 4900 2761 4595 3744 4255 4804 4699 3551 2697 4437 3755 3406 4390 3412 4474 2756 3118 4897 3883 3241 4223 4728 2506 3873 2663 3491 4449 2961 3086 4129 4217 4486 4571 4198 3711 3975 3716 4476 4177 3891 4333 4297 2621 2628 2801 4563 3285 3635 4450 4778 2827 4037 4747 3433 4999 2685 2688 4379 4323 3116 4336 4636 3605 3397 3582 4146 3515 3778 3588 2614 3353 4191 3000 4513 2684 3131 2673 4590 2680 3437 2817 3955 2902 3456 3510 2907 4557 3482 4559 3397 2855 2539 4388 4994 4385 3895 4387 4072 4641 4985 4489 2530 4340 4505 3724 4287 3457 3414 4962 4330 4867 3680 4401 4475 3270 2921 3077 3824 4212 3606 3909 2620 2920 4747 2732 3497 3782 4665 3999 3193 3005 3996 3665 4911 19 2970 4175 4279 3428 3273 4809 4836 3391 3426 2911 4306 4377
11 24 22 3 30 2 9 9 11 27 5 26 30 14 6 24 35 33 17 27 30 5 3 37 4 26 6 5 31 3 30 21 11 38 37 8 14 8 35 30 39 22 29 32 16 15 27 4 6 33 31 25 18 4 37 23 34 12 3 36 18 18 36 25 5 9 39 34 19 24 7 23 19 32 2 30 13 24 27 3 38 10 3 3 3 27 5 39 1 7 14 4 20 27 1 17 29 3 33 12 4 27 20 30 20 26 11 28 18 38 10 11 11 4 18 37 11 17 2 34 0 21 32 24 32 1 27 20 3 24 19 12 4 17 16 20 34 10 11 3 25 36 3 30 9 14 6 27 11 33 18 6 9 19 27 30 17 3 34 19 33 22 32 36 12 18 35 7 4 3 10 13 21 13 19 6 1 30 9 19 3 18 21 11 33 36 22 17 26 32 36 22 38 12 2 15 27 8 20 20 23 14 13 1 33 34 9 14 28 30 17 8 3248 4074 3937 4588 3298 3360 4789 3509 4076 3830 4571 3713 4279 4176 4794 4176 3252 4975 3426 3694 4742 2585 3856 4390 3316 4283 4158 3071 2951 4547 2872 4368 4580 3154 4206 2777 4597 3056 4533 4153 2722 2948 2658 4653 4312 3041 4520 4437 4334 4114 4829 2863 3993 4642 2648 3929 2512 4467 4010 2727 3136 3105 3043 4539 3176 4163 3082 2662 3545 3609 3556 4584 4067 3420 4894 4266 4599 2845 3378 4159 4273 4639 3876 3524 4879 3793 3849 4261 2512 4123 3543 2925 4556 3433 2999 4571 3544 4765 4075 4299 3366 3488 2754 4367 4041 4441 4855 4118 3184 4868 3463 4700 3103 4076 2506 4612 4129 2766 2798 3884 3767 2804 3373 3651 4215 4503 3985 3795 2916 3642 2839 3490 3326 2607 3361 4135 4088 3816 4292 4769 3095 4638 3590 4506 4588 3468 2591 2848 3490 4713 2849 4729 4627 2527 3432 4532 3847 3478 3733 4751 4475 4446 4409 3057 3373 4583 4770 3972 4147 4934 4577 4214 4887 4316 2810 4371 4558 2868 4465 2982 4471 3745 2715 3003 4182 4037 3399 3561 2598 2536 4717 4839 3194 3003 4482 4182 3828 3046 3180 4172 2727 2792 3203 2737 3162 4478 4929 4807 3169 3978 3708 4742 3962
31 8 16 27 30 10 26 39 7 25 33 27 15 12 13 5 36 33 33 28 6 36 33 10 5 1 30 3 26 5 7 5 23 34 26 28 38 39 20 5 11 37 14 28 15 35 30 14 17 19 22 12 28 31 24 13 22 25 17 1 37 35 25 17 5 33 29 1 20 3 33 2 17 28 14 4 34 23 2 20 3 17 35 13 22 9 39 27 9 13 10 14 31 35 2 15 5 22 4 4 28 29 29 22 11 31 39 13 6 11 2 36 26 17 28 38 23 17 19 29 39 0 37 28 12 8 12 17 24 31 12 32 24 4 36 14 19 3 23 24 5 11 1 25 23 28 37 27 12 19 13 32 30 9 13 38 12 34 21 14 14 18 35 5 11 33 31 35 7 38 5 9 36 33 27 9 35 22 24 1 28 33 33 6 14 31 19 28 24 23 25 1 20 33 22 12 30 37 12 32 10 30 26 24 37 24 22 7 39 19 2 2 4482 4620 4570 2662 3366 4777 4198 4025 3050 2702 2617 4089 3778 4489 3504 4855 4134 3424 3398 3197 3778 3875 3430 4716 2546 3086 4802 4128 3071 3495 2724 3531 3118 3349 3791 3307 3563 4786 3791 2842 3759 3584 2750 4518 4497 4965 3744 4697 2885 3619 3403 3625 2586 2947 3722 4190 3355 2972 2615 4075 4293 2549 3234 2813 4733 3001 3437 4925 3554 3228 3305 2549 3038 4424 2993 4384 4396 3472 2648 2664 4588 4031 3275 3067 4301 4889 3146 4566 2981 4394 3168 4693 2529 4393 4157 3337 3141 4568 4730 3481 2806 4377 18 3862 2938 2991 4050 3575 4255 3330 2943 3039 4715 4647 2750 3261 3352 3263 4466 4416 2812 3665 2531 3902 3450 3390 4647 3451 4259 3453 3624 3309 2557 4924 4831 3527 4751 3407 3221 4649 4140 4280 4995 4320 4422 3899 3427 4156 2736 3303 4614 3744 4917 4690 4935 4973 14 3284 4210 4729 4890 2708 3981 3673 3574 3968 3442 4315 4225 4004 4305 3060 4195 4457 3390 3396 4579 4543 2958 4565 2616 3442 4711 4023 4296 3780 4446 2716 4208 3089 4824 3094 3978 3135 4141 4763 4924 2733 2638 3758 3472 4520 2751 4515 4567 2857 3654 3845 2994 3517 4251 3513 4845
35 15 20 9 37 20 4 20 16 30 16 4 1 35 20 3 34 25 21 23 9 20 32 20 18 28 5 39 22 9 25 11 32 5 11 13 5 32 4 39 24 26 3 5 38 21 17 14 27 3 17 19 6 27 19 15 24 14 35 15 35 5 30 36 37 32 32 10 39 1 19 8 38 22 39 15 7 4 38 19 34 35 21 27 18 37 23 28 15 9 19 32 21 19 7 28 10 24 10 30 28 12 3 14 17 32 15 7 11 19 30 23 27 10 37 27 38 8 22 19 10 11 0 17 12 2 23 26 36 20 7 24 7 11 6 39 8 30 31 4 3 3 28 34 25 8 14 19 4 5 1 35 37 22 14 39 36 23 7 13 23 2 4 23 16 33 38 29 21 32 34 18 39 23 19 21 18 22 14 34 27 14 11 29 10 20 18 34 8 19 20 1 31 13 15 18 17 27 22 34 1 9 32 39 12 23 19 23 25 4 22 5 4498 3272 3372 2827 3604 3820 3544 4310 4409 3910 4275 4511 2875 3666 3912 3589 4305 4537 3634 3219 4245 3441 3234 2701 3875 4272 2892 3997 3187 3772 4845 3233 3597 2795 2597 3763 3611 4755 3072 3838 4304 3659 2742 4229 3667 4093 4306 4179 3627 4800 3114 4836 4286 3638 3470 2872 2959 4637 4735 3955 4473 4381 2739 3813 4968 2910 3890 3804 4764 3081 2503 2673 2659 3749 3611 3096 4192 4657 3992 3048 2664 2870 4332 4765 3775 3554 4431 4622 2733 2980 4968 3712 4284 4417 4694 3379 4895 2595 2948 3884 2990 4693 3619 4006 4202 4611 4705 4014 2553 4591 2794 4582 3310 4560 4878 4189 2518 7 2774 2587 4550 4417 2559 2791 3739 2595 2593 4195 2659 4291 4145 2572 4463 3322 3582 4290 4015 3624 2671 3536 4341 2842 3509 4678 4305 3084 4378 3767 3813 3904 4346 3705 3339 3317 4430 4282 2593 4499 4515 3832 2713 4872 3826 4345 2809 3567 4844 3835 4568 3616 3682 2769 4868 3690 4592 3863 2593 3952 3559 2815 2923 2719 3997 4208 3905 3062 4859 3677 2629 4623 3942 3634 4047 3807 4855 3490 2685 4321 2843 3837 2665 3888 3602 4691 3283 4153 4848 4166 3919 3719 2941 4400 4968
5 10 31 10 11 29 36 35 27 24 23 31 36 38 12 31 25 30 8 9 19 1 2 35 7 29 36 12 38 13 27 28 5 32 20 17 20 32 35 24 13 15 11 8 35 14 31 36 13 20 21 12 11 4 36 15 9 8 12 24 14 12 18 37 9 39 10 15 14 8 39 23 25 19 3 30 11 37 6 7 12 33 13 8 33 18 16 28 3 32 9 36 39 31 34 21 38 26 20 7 18 4 7 16 14 15 16 15 16 16 37 25 10 16 2 3 35 12 26 4 12 26 11 0 34 21 25 39 7 15 28 39 11 2 21 8 19 15 28 6 32 31 16 10 23 6 13 35 27 3 6 17 22 33 28 35 16 11 18 1 3 35 14 33 18 29 18 26 13 31 23 8 1 36 29 27 18 28 9 14 11 12 37 24 31 16 7 11 6 2 5 26 32 26 19 28 12 12 21 37 38 23 2 16 39 26 34 23 9 10 16 19 4070 2861 4446 3453 4506 2839 3767 4978 4667 4177 2854 2930 3375 3411 2545 2936 3198 3558 4687 4056 4526 4231 4412 4940 4381 3278 4672 2770 3303 4980 4344 2963 4804 3223 3138 4359 3761 4252 3642 3622 2797 4685 3660 2628 4635 4192 4956 3537 2551 3980 4641 3572 3487 3597 4699 4169 4843 2768 4097 4540 3317 2510 3364 4888 4958 3863 4195 4551 4418 4310 4751 3255 2811 3785 3425 3215 4301 4816 2616 4274 2890 4553 4860 3920 3816 3855 4232 2997 3979 3754 2805 4322 4210 3251 3539 4348 2819 4960 4787 3312 4031 2792 2530 2655 4613 4439 2724 3875 4542 4342 4779 3864 3565 4308 4849 4096 2903 2708 3152 2980 3241 4611 3632 4252 3128 4901 4297 2733 3918 4660 3679 3233 4814 2727 3967 3237 3475 4112 4175 4194 2718 2670 3882 2541 3421 2973 4002 4835 2922 4378 4053 4100 3420 4233 4702 4492 2554 2585 3901 4726 3851 4048 2664 3007 3542 4824 3975 2762 3124 2715 3543 3801 3991 15 3037 3267 3185 3882 2798 3919 4136 3893 2988 4197 3524 3337 4875 4785 4161 4921 4334 2522 4832 2716 4748 4481 2861 3520 4436 2892 4306 3632 3759 3014 4803 3478 3958 4152 3607 3794 2909 2625 3628
35 17 5 20 35 19 16 19 22 17 30 16 24 8 25 30 6 27 35 12 27 37 31 25 9 5 25 37 14 22 9 13 37 5 23 25 13 23 25 23 11 12 31 3 39 15 16 31 18 25 24 37 5 7 39 26 26 27 13 35 29 12 7 39 8 13 13 32 16 14 5 36 30 8 21 6 10 12 8 7 7 30 2 27 2 32 25 2 24 23 9 10 6 12 2 27 28 32 5 19 13 30 14 14 24 10 3 4 31 6 25 34 22 35 12 36 38 36 37 36 24 19 31 38 0 24 24 35 31 39 35 2 29 9 35 21 9 27 31 5 10 5 27 16 7 28 28 37 27 12 2 3 36 15 5 4 22 7 9 30 24 15 17 39 12 26 36 39 16 20 36 14 6 17 15 29 39 12 38 39 11 36 33 9 9 22 24 14 31 26 39 29 21 33 20 39 35 6 36 34 14 31 39 13 30 2 34 34 7 12 11 29 4788 2855 4862 3970 4290 3606 2699 3617 3841 3292 3963 3275 4806 4453 4017 3436 2527 3628 2540 4079 3172 3531 3503 4700 2941 2725 4216 3659 3969 3831 3238 4855 4461 3423 2928 3569 4411 4182 2778 4995 4129 4393 3706 3004 2703 3141 3076 3021 3925 4998 4896 3013 4355 4966 3271 4187 3299 4218 2842 2582 4854 3873 3880 3591 3224 4040 2990 4272 3544 2687 3675 4839 4152 4627 3813 2698 3442 3366 3986 4455 4302 4103 4947 3992 3564 3488 2666 2882 4178 3296 4516 2695 4826 4047 2844 3693 2860 3371 3336 4053 4267 3352 3795 2500 4356 2639 3228 3696 3059 3661 4214 4290 2933 3702 4197 4541 4916 3234 4195 4182 3870 3316 3454 3406 4655 3850 4975 2693 3430 2513 3251 4422 3009 2705 2890 2586 4718 3978 3847 2926 4213 2949 4360 3372 4203 2669 4962 2533 2643 4537 3259 3303 2546 3340 3364 4787 4948 2534 4286 4841 4027 2961 2991 4760 4548 4629 3664 4292 4898 3584 3904 3230 4062 4413 3412 2682 4784 2825 3991 3561 3735 4876 3759 3358 4982 3335 3683 4028 2502 4089 3052 3766 2731 4623 3738 3145 2982 4798 4692 4162 4657 3425 4770 3210 4787 3399 3723 4331 4597 3012 2799 4659 4048
7 24 18 4 38 33 3 31 18 23 24 34 37 29 18 31 7 24 4 38 1 22 36 18 31 3 39 35 27 15 16 17 34 7 26 7 7 38 31 12 20 9 22 8 16 39 30 32 10 13 8 33 2 37 38 38 1 28 13 16 24 19 16 25 30 39 33 34 19 39 37 14 11 39 32 20 38 39 15 17 31 8 32 27 1 10 26 3 35 22 35 30 4 30 17 32 3 21 26 2 34 15 5 5 3 29 5 10 11 29 24 2 11 8 24 13 17 24 23 27 10 17 8 3 24 0 38 22 8 10 39 17 6 34 24 14 24 27 16 19 39 28 7 15 7 3 28 9 15 1 24 26 1 18 34 30 28 25 29 31 28 36 2 29 26 5 4 1 19 7 25 8 22 19 17 11 21 6 22 8 1 20 9 14 10 11 17 28 14 30 11 12 34 34 5 18 19 38 12 8 15 30 11 19 14 13 4 12 38 6 7 35 2655 4258 3110 3723 3572 2944 3318 3123 4511 3119 2685 4197 4891 3633 3000 4311 3228 4388 3906 3232 4734 4112 3067 4628 2521 4010 3219 3279 2753 4095 4149 3597 3864 3797 4561 3103 2804 3413 2864 2848 4147 2739 3365 3026 3955 4663 3406 4405 4419 3352 3097 3303 4712 4932 2810 2949 3373 3455 4422 4374 2920 3910 4124 3675 3230 4790 3713 3997 3287 4005 3946 3322 4449 2759 4666 4130 4956 4232 4396 2606 4302 3752 2841 3269 4033 4334 3038 4303 4837 4220 2607 4259 3667 4810 3127 2876 3742 4676 4216 3811 4120 3551 4190 4833 3475 4797 3852 4306 4262 2742 4380 4089 4327 4154 2837 4465 4028 4903 2984 3785 3848 3923 4635 4641 4722 4980 3227 3427 3557 3445 3351 3839 4594 2802 4855 2805 3384 3944 3262 2838 2875 4490 3538 4404 3665 4780 3874 3447 3697 2945 2529 4536 3230 4804 3977 3858 3370 3443 3414 3213 4371 2551 4405 4592 2902 4988 2786 4608 4681 3163 4158 3606 4169 3143 2645 4043 4952 4867 4134 3279 2927 3240 4077 2523 3460 4582 3509 4748 4735 4793 3509 2809 4992 2996 3388 4405 3966 3226 3261 3106 4604 4595 3866 3811 4089 4764 4892 4412 2780 4782 3724 2714 3486
12 21 26 11 1 38 17 11 22 4 26 7 29 12 23 38 5 9 12 33 38 27 33 13 8 21 37 28 33 14 12 34 27 17 30 21 13 32 24 37 2 28 34 9 1 5 6 32 36 15 38 20 37 28 23 9 36 2 33 32 7 22 1 38 2 19 18 37 7 20 35 10 7 13 19 25 32 36 37 8 13 32 13 2 38 9 34 21 10 3 39 38 2 35 3 16 14 39 26 12 11 12 30 38 5 17 36 11 2 27 26 19 27 25 15 8 4 38 33 25 30 38 21 9 20 20 0 19 22 39 23 30 2 27 13 16 38 20 37 9 9 18 7 27 13 31 27 1 22 18 21 20 25 21 12 39 26 12 21 10 32 11 16 27 16 26 7 39 39 30 20 2 18 13 39 28 38 26 32 26 23 4 3 28 29 39 29 27 20 23 18 32 32 27 12 36 21 9 4 1 14 18 33 14 20 37 26 6 7 8 5 3 3371 2649 4458 2579 3573 3275 2775 3551 3158 4926 3856 2591 4863 4784 4817 4617 3844 2573 2948 4810 3039 3924 3012 2525 3277 4237 2573 3076 2697 2836 3917 3713 3812 3383 3892 4752 2904 4565 4142 4542 3204 4531 2844 4237 4702 4491 3255 4058 3632 4525 3955 3483 4710 2967 3429 3533 3231 2798 3415 4392 4577 2526 3124 3930 3177 3324 2897 3133 4442 4600 3853 4092 2953 4720 3939 4438 4435 4218 3924 3066 4772 4561 2673 4725 2873 4317 3295 2785 3377 4586 4145 4671 3410 4402 3219 3431 4951 4556 3421 4755 3584 3223 4216 3259 3099 3070 3162 3688 3806 3056 4858 4694 2861 4082 4467 3004 15 3009 2728 4839 2747 4684 3593 2820 4071 4783 4264 2923 3934 2552 2825 2883 3078 4494 4268 4928 4112 3460 4124 3044 3839 4613 3709 4434 3125 4934 4041 3900 4022 4534 2797 2685 4222 4608 4767 3639 3275 3315 4771 4235 2530 3412 2787 2867 3638 4915 3921 4797 4798 4028 4923 4146 4217 2973 3635 3520 2626 4774 4782 3692 4859 4831 3666 4753 4714 4729 3925 3480 4012 4354 2841 3300 3881 4976 3192 2685 4540 4916 3948 3829 4269 4482 4783 4016 4588 3013 3959 3476 3486 3921 4072 4651 2505
4 37 32 36 11 7 31 18 17 15 38 28 24 18 1 34 1 31 20 1 34 6 1 11 31 2 19 10 26 4 3 15 31 29 36 18 31 22 39 29 17 33 33 6 15 28 27 28 30 5 25 19 8 1 27 27 23 5 6 22 13 14 19 30 12 20 25 38 5 6 20 21 7 21 19 31 24 11 28 35 20 3 37 31 15 33 10 16 14 22 39 24 7 15 8 31 16 24 34 35 24 13 19 12 2 23 7 33 32 19 30 29 13 5 25 25 33 39 13 37 25 18 9 32 15 18 3 0 13 9 3 26 23 5 13 24 17 33 39 16 2 14 20 19 11 12 29 6 33 3 4 5 2 1 15 22 36 28 26 17 2 28 13 12 35 29 10 22 19 30 4 16 35 23 29 10 2 27 34 22 19 18 21 34 35 20 20 28 38 2 23 20 21 27 28 22 25 19 22 4 36 3 20 22 29 38 3 24 35 37 1 5 19 3644 2740 4493 4646 4320 3204 3521 2900 4790 4432 4825 4987 3380 4487 3845 3970 3075 3507 3855 2948 2742 4599 3832 3155 4987 2615 2993 4193 3318 4746 3430 4931 3704 2831 2785 4833 4162 3269 2658 4948 4394 4241 4613 4741 4413 3086 3795 3225 3398 3671 2806 4614 2778 3282 4000 4216 2507 3842 4026 2947 3908 13 3764 3396 3868 2836 3469 3274 3505 4165 4618 2976 4178 4687 4869 4116 2581 3175 3053 4098 2673 4490 2975 5 4776 4344 3429 4521 3794 4113 3767 3556 2587 5 4624 3195 4770 3479 2559 4824 4457 4583 3253 3942 4027 3835 4909 4481 2989 4226 4506 4566 3593 3702 4524 4952 3490 4851 4141 3626 4157 3516 3472 4257 4360 3193 4875 3129 4708 3697 3313 3306 3789 4167 2689 4443 3405 4106 4594 3707 3085 4952 4335 2894 2628 3868 3785 3861 4456 3044 3953 3024 4614 2945 3285 4328 2852 2884 3836 4601 4996 3997 4767 3354 4451 4143 4273 2727 3525 3943 3132 4597 4926 2893 2548 3679 4763 4672 4243 4047 4188 4444 4671 3403 2548 3091 3868 3211 2503 3154 3582 3690 4829 3041 3108 3249 3225 4731 4247 3737 4839 4509 3317 2924 2773 4534 3960 3639 4823 4292 4168 4900
5 15 7 36 1 29 31 19 37 17 9 20 29 26 30 16 33 32 8 12 14 15 19 8 18 31 5 28 32 32 24 17 7 21 12 34 1 27 12 15 37 14 39 15 10 36 10 18 3 11 8 27 21 10 3 27 22 4 2 16 4 26 11 12 14 7 9 27 22 32 3 10 24 6 12 5 34 29 23 35 24 17 14 6 11 20 18 21 38 10 10 34 30 35 26 28 16 37 27 16 31 3 21 32 29 16 10 17 36 21 35 38 24 12 29 39 13 35 12 25 35 11 32 14 28 32 30 32 0 27 18 15 38 33 30 4 23 22 5 5 13 29 11 3 17 27 19 11 5 19 21 4 31 39 10 11 25 35 7 11 28 16 32 14 18 28 2 34 19 30 3 34 27 12 19 4 39 30 3 35 14 24 21 18 27 17 28 19 13 38 25 14 22 32 25 33 1 32 21 28 38 8 24 35 23 14 24 31 28 36 4 9 4282 4108 2635 3231 3458 2887 3333 3690 2987 3229 2874 3187 4628 3518 4616 3750 3676 3269 2955 3565 3891 3786 4975 3253 4778 3400 2762 2860 3391 4846 4913 3299 2838 3658 3515 3647 4097 2504 3848 3740 4947 2968 3037 4209 4397 3934 3954 4986 2985 3801 4663 4865 2612 2775 4856 3385 2622 4099 4135 3891 3743 3668 4785 2535 3704 4875 3879 3114 3967 3053 4938 3262 2977 2810 4800 4145 3472 4030 2728 3019 3780 4288 4144 4619 3470 3814 4535 3456 3696 3001 2997 4002 4865 3457 4142 4932 3987 3965 4368 3365 3299 2813 4081 4943 4201 4566 3428 3263 4821 4586 4686 3170 3320 4967 2988 4620 3297 2646 2841 4584 3291 4955 3675 3801 2904 4932 2787 4908 2540 2647 3938 2880 3653 3956 3443 3310 3199 4288 3775 3396 3586 2536 3694 4460 4600 4622 3171 3873 3787 3603 3038 3676 3752 4835 4766 4091 4557 3462 2503 3853 4040 2823 4877 4156 3613 3565 3678 4657 4878 4123 3881 4808 2796 3530 3491 3840 3794 4378 4674 3921 3747 4208 3116 3343 4537 4813 4903 4524 4387 3742 3537 2757 3740 4984 2965 3988 3917 4083 3689 3493 2806 3353 4003 3407 3466 2848 3504 2902 4105 4389 3827 4462 4440
38 24 36 3 30 14 4 2 26 29 32 12 3 18 20 7 27 1 32 22 20 19 25 25 12 35 25 15 34 15 21 34 39 27 9 18 24 23 17 26 37 33 37 23 11 12 6 31 13 11 11 18 7 31 39 7 18 39 12 9 37 17 18 30 3 33 9 31 18 20 17 17 34 18 38 5 34 23 15 20 26 35 11 22 3 4 29 26 36 33 29 27 33 18 9 30 15 33 6 2 19 30 24 16 2 31 20 24 30 32 10 28 39 25 27 36 27 22 37 11 24 15 18 17 30 5 6 10 29 0 20 11 16 14 19 26 39 30 29 32 15 14 23 17 24 28 39 34 10 37 10 35 10 16 19 26 25 21 12 27 22 18 19 31 14 16 39 31 20 18 31 18 38 17 38 30 2 39 24 7 32 20 19 19 20 17 35 33 29 31 37 15 29 14 25 9 21 35 11 12 17 10 34 11 25 5 2 25 39 16 13 16 4557 3678 3440 3207 16 3398 4220 2630 3635 3013 3534 4642 2702 3305 3276 3238 2720 4047 3636 2879 3373 2755 3556 3079 4471 4197 4533 3837 3498 4771 4445 4538 3662 4425 2645 4094 3330 4863 3826 4343 4885 3429 3644 2703 2533 3966 3934 3865 3882 3236 4436 4173 3081 2659 3089 3303 4382 3260 4387 4427 2926 4944 4111 3128 3385 2772 3863 3879 3440 3632 2944 4275 2560 3586 4788 4206 4010 4012 3593 4159 2895 2503 4702 2590 4786 3326 3562 2550 3029 4853 3563 4300 3797 3914 4900 4726 4224 3280 3473 4130 4829 3006 2696 4813 3292 3478 3023 3827 4172 4397 3299 3263 4649 3349 3324 4848 4778 4819 3057 4356 4866 3090 3682 4561 2853 4034 4025 4898 4580 4684 3162 4110 2557 4640 3421 4993 3598 4935 4885 4835 4465 3402 3613 4876 2832 2886 3682 4568 4291 3561 4133 4483 3195 2779 3825 3672 3327 3884 2814 3390 4723 4882 4069 2668 3239 4802 4139 4894 4239 4352 2735 4785 3002 2563 3140 4537 4001 3708 3462 4740 4899 3314 3654 2550 4826 4542 2671 3495 3577 4743 4049 3028 4604 2892 4150 3814 3597 3469 4647 3597 4025 4740 4299 2694 4493 3854 4815 4357 3227 4315 3289 4552 4252
39 12 3 1 25 7 33 6 4 39 29 20 22 30 38 23 34 36 19 27 18 36 19 38 36 7 23 16 1 18 23 9 5 13 36 9 34 11 38 10 2 13 30 21 20 13 16 31 2 19 6 5 14 20 14 18 10 15 20 34 9 2 4 16 8 28 28 32 31 4 31 34 27 5 21 28 28 35 36 7 27 18 18 11 9 38 21 25 30 9 24 38 25 16 14 36 15 4 19 28 5 7 15 33 8 25 7 24 4 36 23 32 26 14 12 24 6 5 1 8 9 18 33 25 16 4 8 28 32 3 0 11 28 32 36 35 1 30 9 24 19 4 27 4 32 34 15 14 15 23 28 18 39 30 39 5 24 16 39 30 34 26 1 38 17 20 1 19 23 24 33 1 9 36 38 4 32 14 10 4 35 3 25 35 18 25 31 34 16 20 27 23 39 6 2 12 36 12 5 33 22 33 36 26 13 39 25 37 8 33 4 2 3873 2788 3099 4209 4006 3926 4832 3377 3370 4906 14 4360 3474 2923 4909 3774 3820 2557 4043 3446 2586 3133 4935 2961 4983 4492 3168 3638 3197 4934 3859 4665 3773 2963 4785 3408 2854 4373 4817 4799 4275 4323 3130 4082 3415 4502 3840 4989 2536 4680 3651 3416 2846 4048 4525 2507 2804 2914 4074 3865 4667 4750 4922 3615 3240 3343 4460 4293 2590 4803 3040 4862 3001 4443 3149 4903 4938 3957 4156 3124 4632 4552 3823 4512 4715 2842 4016 4908 4492 4249 3154 4675 4842 4707 3931 3162 4031 3103 2653 4532 2894 4129 3966 4685 3189 4240 2803 2859 3295 3334 3636 2845 2638 3679 3477 3481 3933 4446 4243 3492 2790 2728 4374 3698 2776 4399 4252 3056 4788 2644 4249 4604 3381 3766 3463 4182 4661 3997 4712 4163 4872 4308 3813 3235 2520 3642 3076 3667 3715 2717 3462 4605 4982 3394 4050 4891 3119 3917 3040 4447 4429 4062 2696 2734 3231 3924 3187 3912 3941 2638 3424 2849 4594 4502 3699 3689 4576 2571 2838 4331 3082 3050 2508 4764 3470 4830 3972 2811 4271 4712 2824 3809 4218 2655 3901 4608 3045 3131 4417 4127 3296 4319 2507 3402 4260 2660 4013 3406 4176 3736 3832 2786 4469
20 4 30 12 39 19 23 25 18 35 13 29 4 6 26 2 3 1 1 19 25 28 32 2 34 21 10 19 32 28 20 9 35 19 29 38 5 2 16 26 1 10 37 36 16 4 20 11 29 20 29 23 31 2 11 35 20 6 15 2 15 27 2 35 33 18 12 1 17 38 24 20 6 20 37 8 13 36 34 3 29 9 14 24 5 2 39 23 37 12 21 23 17 29 6 6 3 25 18 11 16 16 33 23 12 18 31 18 30 8 26 8 31 23 23 24 27 22 33 6 13 32 29 19 26 38 7 13 14 28 21 0 29 39 2 38 17 8 36 11 33 9 18 22 38 29 36 21 21 22 14 32 29 17 24 13 27 34 16 31 22 25 21 13 18 7 15 30 33 36 1 23 17 10 24 32 13 5 5 26 15 11 5 33 13 31 9 33 27 35 7 37 13 22 15 14 17 31 37 12 24 6 12 4 21 22 36 18 34 12 37 32 4962 4756 4389 3591 5 4439 3494 3596 3675 4655 3792 3157 3895 3187 2567 4017 3839 4040 4204 3438 12 2738 4075 3738 3112 3679 3579 4352 4728 2644 2699 4153 2643 2797 2518 3589 4892 2970 3322 3911 2690 3742 3720 4217 2674 3041 3466 4443 3017 3520 4665 3650 4012 4255 3534 3247 3370 2516 4082 3685 3195 3087 4885 3720 3340 2818 3126 3716 3990 2703 2567 2529 3982 4096 4348 4541 3902 4234 3826 4905 2894 2820 2781 3759 2746 3481 2780 3144 3265 3423 3378 4244 3376 2545 3046 2721 4760 4706 4557 4885 3186 4725 3458 3046 3751 3867 3522 2875 3666 3814 3113 3075 4285 2825 2753 4213 3448 3997 3308 2850 2523 3811 4626 4284 4756 4370 3464 4059 4225 2807 3197 3568 4275 2796 3443 3181 3893 3082 3331 4396 3719 3723 3592 4984 3052 3231 4765 4044 3280 3901 3514 3295 3144 4149 4017 3185 2869 4348 3911 3352 4638 4268 4884 3018 3663 4052 2725 3052 4787 4181 3939 4952 3899 3114 4234 4110 3022 4490 4300 3254 4146 4426 2675 3458 4111 3116 3502 4556 4961 2921 3285 3494 3550 4658 4551 3447 4739 3619 3597 2860 4229 4634 4107 2769 4999 2961 3496 4161 4400 3679 2807 11 2568
31 34 23 32 26 22 7 10 31 9 6 17 11 23 16 12 30 25 22 7 28 23 12 37 15 33 28 5 20 9 4 20 15 22 38 18 20 14 6 24 10 30 28 18 37 39 27 27 22 15 38 13 30 9 14 5 20 39 33 33 10 17 12 38 16 22 18 33 4 23 37 39 26 38 29 16 3 15 25 34 32 17 18 24 13 8 30 8 22 34 6 16 35 23 25 18 29 24 7 22 12 37 17 18 16 26 28 25 2 38 37 23 33 7 20 24 4 13 21 5 32 18 28 5 28 19 5 3 17 18 24 5 0 5 2 1 2 16 21 30 16 14 2 19 32 1 1 6 26 5 7 6 20 18 9 36 4 27 38 28 5 1 39 36 25 5 12 8 32 23 13 10 13 7 30 19 34 12 32 20 28 30 7 26 16 7 3 20 10 35 12 20 6 17 4 2 32 30 19 19 19 9 21 18 19 37 10 11 24 25 18 6 3780 3922 2585 4972 3740 4893 3988 2663 3648 2968 2626 4200 3538 3335 4606 3811 4310 3538 3572 4123 4107 3632 2852 3145 2754 3259 4835 2749 3819 2750 4683 2543 4470 2771 3442 3116 4427 3242 2763 4190 4011 3098 3290 4344 2563 3906 4277 4808 3003 2539 4017 3490 3737 4072 4892 3252 3917 2946 2577 4049 2573 4060 4739 3962 4103 4105 4252 3872 4378 3659 3355 4618 3659 4311 4152 4403 4335 2657 4624 4693 4252 4237 4803 3090 3782 3893 3228 2553 4956 3923 4462 3004 2606 4126 3602 3370 3855 2779 4949 4744 4169 4642 3932 3054 4300 4360 2984 2862 2586 3564 3922 2607 3451 4254 3348 3219 3379 3436 3237 4066 4416 2725 4183 4139 2645 3835 4908 4054 4048 4192 3067 2580 4439 3215 3851 4716 4250 3622 3091 4186 3125 3613 3678 3243 4245 3446 3673 4145 3492 3236 4788 4408 3198 3726 2890 4772 3233 3147 4876 4917 4553 4986 3446 4802 3815 4958 3086 3227 2717 3384 3006 4021 3939 3942 3497 3118 3884 4851 4765 4915 4424 4642 2847 4497 3921 3709 2601 4560 4528 3767 3307 3782 2631 4715 3903 3216 3349 4168 2878 4024 4801 3470 4678 4129 4354 2958 3989 4151 3962 4976 4185 2706 3874
19 39 3 1 16 14 21 2 32 38 35 14 28 19 24 25 34 39 33 5 32 25 36 35 15 18 16 39 36 14 20 28 1 28 26 34 9 23 23 6 1 6 16 9 24 14 39 2 22 21 19 15 28 28 15 23 34 21 27 18 17 7 20 31 13 9 15 5 15 35 30 19 17 25 2 24 17 38 27 24 6 26 18 39 28 11 26 25 2 11 21 21 33 28 17 18 23 9 35 26 22 20 33 31 3 9 31 11 24 15 19 1 25 22 28 28 21 9 17 4 39 12 23 13 16 28 37 26 36 15 9 14 2 0 25 28 16 33 37 31 34 4 35 37 30 38 37 28 10 20 30 2 9 34 18 11 17 2 18 25 3 21 24 27 34 37 13 14 24 37 31 31 29 14 21 29 31 4 19 37 26 34 36 19 21 33 36 38 10 18 14 2 30 35 7 38 22 39 20 18 31 17 21 35 23 21 1 26 32 33 30 38 4402 3646 2605 3068 3072 4026 3660 3397 3820 2937 4780 4630 3556 3959 4164 4202 3132 4619 2894 3899 4571 4939 3433 4224 4557 4917 2992 3521 3653 4970 3019 3555 3907 3333 2885 4970 2649 4124 3370 3407 2866 3399 4862 3808 4668 2860 3769 3937 3727 3375 4634 8 4576 3491 3494 4819 3086 3188 3363 4625 3166 3554 2577 4370 3586 4517 3615 4503 2779 4001 4297 3622 2765 4672 3172 4567 4625 3337 2909 3685 2699 3257 3225 4702 4398 2747 4829 3569 4788 3474 4655 3370 4049 3260 4791 3735 3124 3378 2869 2646 3519 3184 2527 2964 3182 4169 18 3834 4944 4346 3143 2754 4139 3016 3625 2709 3462 2938 4786 3552 3426 4800 2591 3763 4939 2919 4630 3409 4563 4185 2766 3623 4694 3728 4112 2778 2792 3992 3799 2709 4239 3794 2597 4831 4357 3707 4907 4184 4228 4633 4758 4473 3420 3760 4559 3213 4662 4674 3387 4243 4558 2842 4134 2939 3110 4648 4283 4274 2824 4018 3599 2877 4761 3612 3221 2806 3746 2682 4658 2674 3567 3418 3988 4018 2840 3156 3078 4580 4547 3346 3926 4493 3210 3192 3746 3302 3595 2878 3849 3260 4799 4300 4654 3059 4474 4161 10 4903 4130 4696 3873 4841 3394
27 15 21 32 33 28 34 23 25 27 1 29 17 15 31 32 20 18 17 20 37 10 16 34 12 6 12 2 13 1 32 21 24 11 31 32 5 13 31 22 38 38 7 8 13 36 11 32 31 33 28 30 17 37 19 31 30 29 38 32 3 4 1 10 35 24 5 7 1 8 4 13 26 28 5 21 6 8 34 13 4 30 19 7 13 7 13 2 31 25 3 23 38 11 28 36 9 3 8 35 11 10 39 11 27 1 28 29 1 15 39 32 6 28 15 2 6 6 35 34 1 5 22 15 22 18 12 32 24 35 2 28 34 28 0 19 19 17 32 25 28 3 19 33 20 14 7 37 1 16 24 29 34 25 27 11 22 36 1 9 23 2 19 25 22 25 9 34 30 18 33 20 9 17 16 22 7 30 24 39 32 37 6 33 9 4 9 28 32 20 13 12 30 12 33 9 3 15 31 26 1 9 29 24 23 32 15 29 16 39 31 9 4039 2997 3850 3884 4030 4323 3649 3911 3602 4163 3567 2954 3014 3059 3778 4092 3003 2694 3918 4231 4780 3579 4807 4770 3059 4473 3103 4279 4980 4013 2967 2577 3989 2659 3036 3606 4200 2795 3911 3815 3113 2879 4545 4882 3636 3035 2787 3813 4054 2859 3929 2549 3313 3177 4189 4302 4649 2750 2686 2543 3082 2932 4967 2642 4920 4107 4129 4676 2704 4925 4535 3981 4124 3513 3253 3737 4554 2732 3241 3705 2742 4313 2594 3818 4685 3740 3804 2676 4328 3835 2571 3925 2806 4058 4267 3412 4735 3606 4363 3017 3220 3710 3411 2759 4994 4882 2691 3902 3144 4739 3592 3535 4645 4547 4263 3312 3093 4716 3870 2955 3354 3959 2519 3523 3228 3109 3563 3476 4160 3346 3071 2711 4429 2874 4269 2572 3964 4787 4427 2760 3513 4299 4403 2545 4547 4029 2940 3498 2632 4646 4853 2983 10 3181 3289 2978 2822 4086 2903 3362 3764 3099 3071 3788 2696 3709 4883 3019 2826 3418 4032 2910 2756 3717 4299 2633 2752 3057 4010 2922 3010 3814 3661 4065 4212 3137 2659 2766 3810 3881 2936 4005 3954 4158 3960 2841 3105 3950 2760 2917 3224 2756 4527 4404 3919 4001 4951 3367 2709 2802 3433 4162 4722
39 38 5 24 4 38 32 10 28 35 36 24 6 38 17 20 37 21 21 37 6 25 5 27 11 34 21 23 1 28 11 13 13 9 19 12 29 10 19 33 1 17 17 26 31 12 4 6 2 18 22 25 32 32 31 26 31 13 31 31 39 19 19 15 32 12 9 39 32 36 18 37 20 19 7 3 8 22 32 36 15 16 18 39 30 37 21 19 25 6 14 10 35 29 20 24 19 2 13 5 35 2 39 6 12 34 3 16 4 34 9 34 11 9 3 8 22 6 5 8 16 1 35 10 33 8 10 20 19 11 9 23 10 8 1 0 34 35 2 35 5 5 33 29 4 7 21 23 18 3 36 37 13 32 23 27 23 18 12 6 8 17 28 39 31 3 24 14 8 17 35 10 6 1 39 17 33 38 28 19 37 13 37 17 36 12 2 25 21 2 12 32 31 16 16 10 20 11 7 36 11 35 37 21 24 39 24 18 11 30 37 19 3887 4723 3125 4705 4379 3944 2533 4319 4308 2504 2603 3526 2959 3828 4578 4770 3110 4245 4041 3522 3302 3672 3054 3268 4540 4930 4334 3514 4867 3332 3823 4146 3820 4491 2668 3782 3237 3401 4177 2813 4863 4991 2681 3984 2662 4479 4397 3778 4443 2942 2988 4192 4709 2853 3449 4263 3208 3669 4623 2827 4395 2970 4401 2996 3729 4497 17 3138 4183 4556 4476 3891 3388 4981 4508 2665 3661 2554 3003 2998 2832 3716 2692 3262 4830 2790 4652 2820 2786 3501 3250 4155 3509 3266 2825 4766 4971 3698 4669 3553 2890 3291 4770 2781 4710 4050 4143 2523 3079 4854 3174 3272 2657 4366 4337 4929 4414 2528 3096 3191 3215 3832 4394 3471 3186 3440 4192 3080 3583 3295 3028 4796 3005 4673 3489 3709 4605 3121 4271 4761 4610 2649 4991 2647 2954 4969 3577 4181 3869 3222 2527 3924 2735 3537 3839 3764 3858 4837 3075 3767 2614 3450 3393 3392 4940 4841 3535 4782 3394 2802 4537 3162 3888 4532 3215 2984 3766 3244 4477 4225 3898 4587 3230 3635 2956 2975 3722 3691 4283 4879 4901 4272 4070 4106 3478 4497 4665 2871 3402 2844 3874 3490 2532 3779 4475 4064 3063 2540 4066 3714 3850 4580 3390
11 14 19 24 20 3 17 34 31 22 26 38 35 39 14 1 21 12 11 33 39 30 27 34 25 39 14 16 30 25 30 4 11 24 16 24 32 1 1 9 4 24 33 9 31 17 13 38 6 14 11 13 10 15 6 6 24 34 11 9 7 22 21 17 22 32 32 9 29 33 2 1 4 20 3 9 4 23 2 39 34 9 32 33 22 8 12 6 36 4 27 15 8 7 23 18 7 1 30 13 14 34 18 39 13 19 2 32 7 14 21 37 14 12 17 3 4 13 5 18 25 7 33 20 9 34 20 4 38 31 23 17 5 3 8 8 0 16 22 4 6 12 17 15 29 38 15 20 8 32 35 6 30 17 22 32 15 30 11 14 35 33 33 38 8 19 29 13 26 18 36 32 13 37 8 11 4 18 32 24 1 21 14 14 1 28 28 37 24 24 5 19 8 37 14 22 28 38 12 19 10 17 34 13 30 15 23 27 27 25 23 26 3246 2788 4360 4643 3982 3138 4603 2612 11 4614 3357 3396 4406 3659 4394 4916 2609 3439 4909 3753 3288 3657 4220 3906 4186 4181 4524 4537 4315 4220 4205 3850 4037 4392 2872 4235 3166 2778 3703 3818 3185 2890 3401 4620 4859 3724 3940 3644 3820 3047 3155 4341 2752 3822 2647 3125 3669 2532 4844 3457 4965 2521 3547 3514 3558 2829 4577 4330 3097 3830 4628 3382 4719 3816 4095 4619 3473 3109 2682 2811 3734 3548 4328 3030 3452 4067 4624 4644 2997 3236 3271 4634 3897 3146 3873 4882 4306 3773 4164 3383 2887 2708 4042 4332 2692 2543 4231 3450 2627 2834 3828 3682 3160 3420 4299 3203 4823 4377 4275 3179 3428 3704 4712 3121 3204 3281 4456 4037 3833 4527 4021 4102 3412 2833 4685 4499 3367 3234 2736 4704 4034 4742 3832 4798 2841 4005 4988 2696 4766 2916 2704 2647 4614 3549 3822 2536 4010 3581 2755 3344 3367 3936 2886 4559 4240 4820 4401 3287 4997 4502 4116 3241 2839 3766 4812 3348 3415 4252 3688 4418 3351 4638 4798 3474 3822 2989 3753 2824 3299 3187 3449 3875 4728 4408 2558 2885 4280 3134 2644 3545 3392 3245 4627 4576 3034 4700 2634 4300 3434 3154 3242 2505 3931
35 13 36 17 21 26 19 18 8 17 20 19 31 26 12 30 5 17 18 30 25 31 24 36 34 3 20 26 21 33 5 29 26 32 13 5 39 27 17 12 8 21 39 21 27 20 24 1 23 26 28 25 18 16 11 2 24 25 15 36 27 10 22 38 6 23 12 13 13 39 3 3 29 12 10 37 34 20 21 20 21 4 35 34 18 9 8 14 9 37 16 4 1 12 37 19 10 28 20 23 8 14 18 34 26 12 2 24 32 24 6 4 15 12 34 20 21 28 26 25 27 36 36 20 17 29 27 18 8 1 23 32 35 24 30 21 4 0 5 23 9 25 22 6 37 5 31 11 14 25 7 9 6 23 27 2 25 34 30 26 16 7 16 19 3 33 32 23 34 34 32 27 13 36 37 17 34 15 36 37 10 20 14 5 16 9 11 18 31 4 35 15 15 19 28 22 33 16 17 39 14 34 30 13 24 3 18 35 25 19 13 9 3780 4464 4421 3600 2861 2875 4787 4903 2874 4138 3037 3274 2990 4149 3778 2546 3149 3638 3601 4776 3560 3314 4243 3084 4277 2920 3813 4740 2640 2787 4422 3211 4437 3990 4760 3857 3161 4460 3614 3690 2508 3401 3648 3382 4549 3201 4926 3022 3124 2578 3809 3272 3815 3675 3092 4004 3624 3215 3990 3787 2552 4118 4423 3511 2729 4333 3406 3501 2802 3598 4713 3464 3842 3327 2536 3037 4387 2955 2667 3086 3701 4055 4961 2683 4344 4079 4655 2619 3715 3659 2561 3988 2735 3331 4723 3399 2681 3715 3860 3595 4879 3647 3175 2766 4375 3301 2834 3265 4716 4681 3777 4752 4298 3271 4010 2823 3872 3388 4743 4824 4027 3014 3146 3606 4163 2965 4138 3724 2536 3559 2532 4696 3105 4563 2894 3329 4056 3406 4974 4874 4674 4146 4146 3696 3179 3504 3903 3626 2608 4630 2834 3917 3220 2594 4632 3071 3739 2676 3578 3429 4389 4835 4682 3951 3029 4491 4757 4696 4779 3695 4591 2674 4405 4448 3101 3999 2930 4910 4922 4851 3620 4236 3188 2874 4461 4596 3341 3239 3906 4800 4145 2938 3899 3703 4874 3836 3941 3029 3314 3368 4233 3297 3182 2934 3420 2678 2577 4487 4003 3727 4338 3746 3299
33 33 7 33 23 13 22 15 30 20 31 35 28 3 2 20 34 6 10 14 34 25 6 31 29 9 31 22 18 17 2 22 32 23 38 34 18 6 16 37 26 34 35 26 5 10 28 1 2 26 36 30 37 27 20 19 33 18 10 18 39 32 27 4 22 17 29 21 34 24 8 39 26 23 14 33 26 4 36 24 8 1 24 10 28 7 36 39 33 27 17 21 29 33 22 31 31 34 5 14 7 1 8 13 16 17 20 26 3 2 23 2 33 8 39 3 7 16 32 6 36 38 14 11 14 37 31 13 21 28 14 20 30 35 3 23 35 16 0 16 36 20 34 15 22 16 8 39 18 13 27 16 20 39 13 24 34 5 36 15 39 2 21 20 19 20 33 26 11 29 35 27 14 4 18 15 31 29 12 23 4 14 35 16 28 4 5 22 15 5 32 36 23 2 17 15 1 39 29 28 12 1 28 9 36 32 5 24 39 13 35 23 2575 3023 3529 4273 3338 3033 2841 4930 2658 4438 4215 2883 4366 4039 2803 3296 4738 3556 3107 3591 3846 3263 2643 3807 3187 4293 4436 3645 4045 4780 2929 3771 3045 4402 3323 4946 3739 3841 3746 3548 4906 2836 4011 4715 3365 3687 3280 3879 4404 4842 3870 4242 4362 3976 4801 3421 2573 4931 3601 4806 3188 3273 3969 3013 2673 3390 3504 3320 3470 3224 2845 2936 4781 4245 4724 2889 3323 3261 2808 3539 2741 3285 3928 4240 4914 4657 2904 2809 3695 3529 3854 3957 3913 3632 3010 3312 2610 3954 4293 4652 3299 3209 2786 4798 4280 4589 3365 3015 3644 4257 4436 3864 3694 4832 3220 3537 3553 2595 3603 3188 4385 3220 4384 3647 2949 4774 4821 2932 4700 3345 2874 4482 3756 4678 3544 15 3103 3572 3996 3387 4413 2878 2950 2744 2890 3254 3036 3497 3590 4003 2836 2694 4466 3282 3617 2815 3960 3149 6 4164 3480 3833 4748 3137 2634 2617 3068 4326 4211 4017 2888 2786 14 2615 3299 2685 3632 4497 2888 4026 4372 4488 3624 2697 4370 4529 3328 4424 4392 3418 2750 4126 4392 4077 2500 2646 4906 3761 4093 4545 2943 3578 4352 2651 2971 3699 4806 3864 4874 4322 3207 3871 4090
9 25 22 28 17 36 5 38 13 17 29 10 17 8 6 16 31 29 12 1 20 6 39 10 14 8 24 37 13 18 32 2 14 20 12 26 26 5 37 5 6 8 7 20 23 35 25 22 37 31 6 22 21 38 30 7 2 11 12 13 13 13 27 37 14 38 15 30 9 15 15 28 19 30 23 21 25 5 35 1 7 3 17 4 13 23 30 29 22 14 3 15 12 24 27 38 34 8 2 8 36 31 15 30 23 2 12 5 6 18 27 5 12 6 6 29 25 31 34 28 11 23 4 12 36 35 15 26 38 30 3 22 7 20 19 28 25 2 39 0 21 1 8 25 1 9 19 20 20 27 22 32 38 7 23 21 18 27 36 25 13 25 16 17 24 2 24 19 28 28 25 18 27 34 10 38 35 32 2 21 3 14 17 39 17 7 37 14 28 6 11 32 17 38 20 36 22 15 22 3 5 14 17 27 34 30 19 32 1 20 22 31 2505 4092 4294 3172 4024 3802 3193 2957 4586 3204 3046 3400 3717 3817 3371 4486 3470 2994 3761 3970 3998 3694 2910 3618 3634 4231 4950 4504 4934 4477 4037 3746 3186 3884 2755 2992 3159 4194 2819 3715 2768 4047 3223 3464 2720 4376 3277 2571 4997 3008 3337 3097 2834 4000 2812 2685 3690 4459 3234 3555 3588 4750 2571 4582 4471 4599 3775 3321 4370 4840 3045 3829 4392 3315 3367 2773 3939 4585 2749 3782 2856 3515 4337 4850 2885 2936 4168 3080 4244 3769 3813 2507 3052 4526 3548 3248 4537 2512 3552 4026 4038 3398 3782 3713 3609 3833 3837 4608 3308 4238 3174 2776 3765 4842 3809 4361 2776 3395 2908 2523 4007 4182 2911 3403 2961 4506 2941 3216 4920 4736 3133 2614 4365 3544 4504 4053 4596 3771 4502 3587 2914 4724 4806 4669 4180 4399 3985 3557 3540 3654 3153 4999 4113 4314 3033 3431 3812 2872 2744 4221 4308 3184 3343 2689 3593 2670 3875 3624 4613 2510 3792 4330 2929 4346 2503 4614 4552 4163 3538 4973 4467 4637 3842 3320 2584 4443 3507 4955 3239 2607 3735 3794 4314 2805 4984 4013 4243 2759 3983 3934 3987 3753 3262 4749 3016 4442 3062 2715 3037 2815 4274 4249 3099
24 7 2 16 25 10 38 8 36 15 11 25 31 14 38 33 17 6 29 18 30 2 38 2 38 31 14 20 12 25 38 14 34 28 13 29 39 39 24 29 26 32 8 17 18 8 23 38 13 10 32 1 31 16 3 31 24 13 30 10 19 2 6 35 39 31 33 6 4 16 10 37 26 5 19 39 37 24 12 17 35 23 5 23 2 16 27 19 18 28 17 13 6 22 15 32 26 31 1 1 37 35 12 16 21 20 26 10 31 21 2 11 28 5 12 25 11 6 25 25 26 7 30 26 33 18 33 8 25 38 10 10 18 20 35 39 3 17 6 14 0 28 21 5 3 21 39 12 17 10 31 8 20 9 25 19 26 5 9 23 33 14 11 9 9 5 37 26 13 18 25 14 7 22 11 22 29 36 23 12 34 17 31 25 27 21 3 12 12 18 32 18 25 3 15 20 2 13 20 22 14 35 21 37 33 4 17 2 19 6 33 2 2678 3255 3750 3890 4172 2544 3846 4855 4039 3481 2552 4925 4588 4403 4453 4993 4300 4924 4167 3911 4464 4346 3956 4278 4980 4200 2694 4777 2732 4805 3412 4712 4505 2580 2896 4771 3577 3703 4240 4412 4597 4585 4469 3797 4453 4513 3428 4998 3158 4513 4310 3467 4382 4978 3499 3705 4608 3975 2617 2680 4919 4496 3184 3679 4242 4723 4755 2576 4982 2987 3319 2985 3059 2594 4094 3191 3179 4033 2901 4214 4390 4448 3217 4948 4729 3600 2777 3367 4485 2817 3812 4784 4161 4088 2933 3952 3459 4119 3434 2530 3294 3811 3866 4895 2821 3527 4528 2864 3054 4949 3715 4895 4162 3666 4611 3469 2519 2789 4416 2740 4310 2757 3991 2632 2944 3556 3026 2900 3115 2657 4503 4005 2625 3345 2963 3180 3455 4666 4894 3598 3528 4909 4524 4055 3369 4139 3879 2982 4678 3933 2763 3894 3656 3388 3346 2701 4400 4150 4659 4089 4138 3524 2734 3492 3578 3536 3847 3299 3116 4974 3500 4442 2504 3269 3603 2947 4970 3844 4600 3207 4405 4982 3671 3458 3890 3283 4256 4848 4598 3781 4037 3161 4960 3813 2696 4151 2664 3362 2910 3024 2879 3641 2700 4547 3727 3507 3904 3484 4237 3622 4199 2797 2922
11 38 18 22 14 14 16 26 28 12 22 18 38 20 19 3 16 10 39 31 23 2 29 16 30 11 29 11 1 34 13 18 25 39 24 28 26 10 15 29 27 10 29 39 13 31 13 1 28 23 4 6 19 24 17 6 21 35 19 5 7 13 5 14 22 23 9 20 34 4 9 14 13 21 22 18 12 12 36 37 13 4 20 1 24 30 35 31 24 30 19 30 27 23 10 18 38 38 16 28 6 30 13 23 12 13 21 26 37 2 32 17 30 1 2 24 36 12 26 2 10 2 13 36 18 8 18 10 18 14 28 15 32 32 36 36 20 37 24 5 12 0 8 8 8 20 8 5 32 14 6 31 20 20 8 16 13 17 22 15 29 14 11 32 3 21 5 13 29 34 14 26 29 19 13 9 14 18 34 22 2 31 11 25 3 25 10 18 34 3 36 2 26 9 21 20 2 35 3 16 18 38 38 28 28 19 17 36 28 39 22 39 10 2785 4570 3710 2987 4805 2844 3145 3522 3375 3940 4874 3325 3810 2532 4695 3352 4197 4182 3578 4442 4360 4093 3325 4934 4222 4657 3375 4217 4528 3631 4993 4505 4577 3082 4221 2999 3415 3024 2674 4148 2901 4248 4709 3975 2970 4470 3655 3925 4281 3621 2599 3768 3571 4065 4835 4198 3552 4036 4780 2596 3196 3214 2847 2718 2750 4364 4220 3092 2976 2926 3474 3710 3079 3674 2610 3310 4152 3687 2921 3437 3826 3350 3338 3847 2651 4074 2526 4574 2855 4727 3288 4478 3157 2505 3986 3151 4311 3879 3326 3175 4314 4199 3929 2807 3879 3881 4382 3507 3582 3636 4678 2717 2782 3319 2760 2692 4869 4324 2639 3246 4485 2632 3309 3574 2886 2554 3068 4982 4738 2607 2625 4521 4627 4255 4727 4141 3826 4445 3683 3367 4713 2664 4399 3300 4339 4397 4167 3515 4412 2626 4618 2794 3319 2795 3232 3167 3776 3602 4165 3694 4316 4959 3271 4254 4825 3365 4067 3613 3297 4531 3102 4325 3283 4991 3755 4381 4390 4672 3962 4049 4837 3910 4762 4092 4321 3181 4939 3222 4607 3221 4563 3516 4060 2909 2573 3363 3825 4051 3963 4083 4905 4622 3198 2510 4431 3379 3159 4354 2811 2584 3652 3451
6 35 4 31 37 22 33 22 23 3 13 12 28 36 8 25 4 5 6 31 19 16 8 31 38 14 33 20 13 22 31 28 3 26 3 29 12 25 12 8 29 5 23 14 3 19 39 3 12 14 28 36 35 24 3 33 37 25 13 21 9 16 39 5 33 14 14 18 6 28 21 15 11 18 13 3 6 24 30 23 6 38 34 13 31 39 18 36 35 19 1 37 26 32 24 12 35 37 26 25 29 20 34 8 27 22 19 7 26 33 26 33 6 16 26 21 6 1 21 33 3 38 9 14 20 39 5 36 20 31 26 30 20 13 32 5 36 36 21 32 35 11 0 6 17 12 17 33 35 29 36 23 7 6 22 6 14 33 8 33 23 38 19 3 7 18 32 33 2 1 16 4 28 38 16 25 11 18 5 9 11 31 38 39 19 31 31 28 38 12 37 7 1 28 38 10 37 3 15 34 25 39 34 30 17 2 18 37 23 32 1 1 2598 3596 3193 4256 2929 3286 3209 4305 3346 3316 3432 2520 3770 4347 2661 4388 2709 4627 3677 3856 4406 4522 3479 3197 2875 2638 2789 4160 4863 4496 4300 3687 3949 2629 4582 4341 4219 3945 4387 4456 3734 4632 4567 3947 3527 4427 3061 3791 3888 4971 3693 3885 4855 3718 2654 4305 3510 3799 4255 3998 2972 2794 3604 3974 4874 4066 3953 3042 4231 2605 3498 2775 4681 3335 3061 3049 2783 3705 3308 3145 3265 3597 3706 3861 3358 4975 3360 4525 3010 4730 4961 4820 3220 4852 4377 3396 3267 4348 3751 4044 4295 4632 2653 4437 3827 3590 2991 3403 4060 4996 2647 4841 4036 3669 3025 4129 3221 4025 4506 2951 4615 4901 4358 3043 3935 4553 3981 2841 4644 4443 3171 3589 4460 4664 2952 3095 2835 3504 3189 3895 4213 4522 2725 3645 3404 4184 3829 3223 3161 4516 3884 2964 3796 3621 3718 4888 4691 3929 2869 3257 2947 4471 4824 3926 3843 2895 4679 3002 3225 3232 3075 3734 3141 4163 3321 3350 3239 4725 2907 4018 4694 4580 4490 3597 4451 4341 3193 3610 2721 3216 4479 4658 4051 2991 4817 3111 4765 2604 4987 4239 4782 2674 4577 4469 3889 4511 4317 2564 3535 3736 2959 2715 2600
29 20 24 7 1 34 33 26 39 24 12 4 12 37 8 35 21 19 22 12 22 24 11 15 20 28 6 21 31 18 38 29 16 17 30 8 28 14 1 12 13 34 36 35 20 2 26 13 5 21 16 14 38 34 24 2 3 21 34 6 2 4 4 22 33 29 39 26 17 12 26 24 19 3 2 24 5 6 22 4 37 4 22 35 18 24 1 34 10 21 32 23 35 30 28 30 14 8 19 6 26 4 12 20 34 36 20 35 27 1 28 22 19 8 38 12 12 14 9 33 13 37 10 1 34 7 7 3 7 26 36 9 8 6 28 15 18 6 11 11 4 16 9 0 5 15 7 8 14 5 8 1 20 2 5 17 28 33 19 5 36 4 4 29 26 39 22 27 1 22 27 7 8 21 36 6 20 16 11 25 32 35 31 28 23 26 5 11 4 17 6 32 38 17 18 18 1 6 25 7 20 8 24 35 14 35 8 22 36 27 8 11 4129 3049 4076 3480 3685 3618 4011 4006 4718 4098 3841 2887 4873 4575 3313 3438 3298 3780 3240 3091 4389 4106 4793 4595 3362 3357 2565 2675 2816 4705 2893 4299 2684 4072 4448 3772 3530 4169 4434 4505 2806 2751 2662 2871 3640 3610 3895 3801 3957 4263 4707 2875 3415 4268 3977 4961 3838 3802 4442 3608 14 4390 3753 4428 3507 4122 4187 3232 2536 3299 4842 3899 2536 2716 3528 4510 3842 2588 3278 2539 4966 2689 2802 4392 4558 4249 3210 3398 4716 3103 2556 4935 4606 3684 2706 3599 4581 3786 4224 3559 4163 4381 3029 2623 4324 2759 3900 4914 3045 3527 4193 2635 4106 4582 3528 3911 3451 3179 4423 2997 4992 4073 4436 4402 4465 3026 2607 4368 3209 3619 3384 4043 2835 4121 3806 4968 4077 4078 4530 3166 4783 3794 3839 2805 3708 4388 4179 4826 4122 3751 3983 4492 4947 2502 2834 4345 4855 4178 4537 3773 3780 3963 2728 4771 2964 3471 2762 4894 2504 3973 4001 4263 4363 3220 4233 3133 2689 2864 2541 2522 3719 2692 4665 4476 3504 4742 3373 3451 3824 3306 4628 3018 4882 4413 3843 4153 4535 3696 4176 3695 2921 3176 3952 3256 3425 2733 4756 3065 9 2643 2711 3439 3716
30 39 33 6 25 39 23 30 13 7 16 22 18 13 27 30 25 1 21 27 35 31 33 23 8 38 1 24 2 7 13 4 35 24 29 6 38 36 12 5 32 9 10 11 7 26 39 18 37 9 39 14 16 8 12 1 39 37 10 8 30 25 39 18 8 24 38 17 13 21 24 26 8 38 17 33 31 30 39 22 35 27 22 11 7 39 25 38 3 15 17 3 18 16 6 4 5 16 37 15 2 5 23 19 17 28 10 5 2 21 29 29 11 11 36 9 6 19 31 7 25 34 16 37 16 38 13 21 36 8 15 30 35 2 33 7 23 5 19 26 33 6 22 3 0 20 1 16 26 9 37 11 30 9 18 39 36 30 4 9 17 24 16 7 37 13 17 33 26 25 25 4 5 29 13 16 15 37 6 30 39 29 22 5 19 31 1 13 4 36 36 27 36 33 3 38 33 13 19 14 23 30 34 38 26 38 11 17 16 12 6 14 2865 3793 3853 4951 3152 4731 4848 2646 3401 4296 3520 2961 4949 2612 2982 2995 2792 4103 4951 4099 3123 3636 3259 2616 3058 4045 4525 2715 4328 4174 2942 3004 4600 3878 2745 4935 4173 4125 4768 3193 3219 3407 3621 4618 4866 4527 4861 3033 2797 3200 3626 2904 3717 4920 3509 4985 4155 3697 3992 3586 4568 4811 2625 4944 4608 3460 4356 3907 3154 3260 3281 3361 2856 3439 4223 4483 4181 2974 4920 4816 4522 4256 3204 4716 2578 3867 3070 4473 3498 2532 11 3566 3719 4159 4291 2733 4099 4545 3080 4403 4459 2736 2785 4370 4091 4890 3809 4457 2630 3095 3935 2864 4398 3433 3863 4933 3402 3514 4304 3634 4627 3789 3206 4866 3850 3983 2631 3838 4168 4151 4085 4114 4736 4110 4856 2865 2545 3113 4943 4913 3741 2852 3987 4300 4997 2807 4943 3722 4984 3153 3441 3003 4448 4566 4393 4875 2741 2916 4303 4344 3724 4972 2621 2906 2879 3530 2652 2891 3206 3858 3671 2634 2991 2730 4361 4981 4950 4329 3179 3326 3222 3709 4966 3320 2924 3480 3646 2547 3504 4316 2768 4559 4593 4443 3956 4236 4706 3893 4994 2684 4823 3576 2666 3006 3095 2602 3324 3887 3322 3481 4269 3516 3019
19 31 36 37 20 21 17 26 8 5 33 31 37 30 29 33 20 22 30 21 18 35 25 2 19 37 5 14 2 10 3 34 21 18 37 9 6 31 38 34 24 38 39 7 31 1 6 18 36 9 17 21 37 2 24 13 4 20 19 16 3 13 35 7 36 31 28 4 22 8 28 18 23 35 24 28 17 36 8 29 13 31 13 21 33 35 29 3 14 12 2 27 31 30 7 15 7 19 30 25 17 18 38 28 23 13 5 39 29 16 38 34 16 11 25 31 26 18 7 21 18 12 19 17 34 23 12 29 4 31 20 39 14 35 32 32 21 37 19 18 3 23 13 19 28 0 10 6 30 30 28 2 7 7 11 22 1 26 28 29 22 2 31 2 39 10 13 21 38 3 14 6 4 18 18 2 4 36 14 38 15 33 12 1 23 23 21 25 12 36 8 2 7 35 3 19 35 9 34 25 10 18 14 2 13 3 23 14 23 30 1 20 3549 2702 3789 3109 3875 3912 3790 4165 4256 3561 4966 2642 2527 3114 3442 4854 4050 3841 4807 4015 4502 4536 4929 3533 2638 3754 2849 4922 3796 4871 4946 3642 3698 4096 2500 4365 4254 4959 3337 4151 4422 4161 4083 3306 3705 3511 3014 3314 2559 3257 3349 4263 4005 3229 4442 3951 4263 4514 3254 4833 3064 3843 2783 4853 4232 4324 3340 2726 4994 4531 3566 4525 3989 4546 2942 4845 2685 4667 4595 3014 2564 4636 4269 4250 2800 4598 3931 4493 3673 2937 3561 4081 4203 3691 2676 4578 3379 3177 4315 3891 4100 3615 2845 4755 2757 3759 3011 3354 3928 4753 2705 4369 3883 4259 4967 3712 4055 4573 2996 4401 4201 4732 4560 3621 3013 2583 12 3336 3852 4214 2513 3785 4787 4286 4480 3379 4384 3062 4056 2717 3977 3028 2966 4284 4926 2807 3813 4016 3416 2819 4474 3846 4502 2541 4790 3777 2557 4655 3920 2701 4406 2536 3546 3862 3096 3484 2780 3948 4629 4835 3235 4652 3339 4064 3835 4962 3473 3828 3344 4429 2669 4291 3599 3595 3246 2542 4702 4143 3126 4153 4117 4629 4160 3651 4621 3497 3160 2614 3247 4532 3628 3600 3622 2934 4873 3985 3380 4971 2786 2805 2947 2831 3645
21 16 30 37 5 30 28 8 30 28 30 7 39 32 17 24 36 7 35 33 9 32 33 15 38 24 39 8 38 38 24 16 4 21 4 32 18 12 25 32 26 25 36 30 6 30 29 13 28 14 33 17 33 37 3 16 2 14 12 3 26 2 33 12 24 30 11 22 37 5 8 6 18 15 7 12 21 27 19 30 13 38 13 4 12 20 33 39 2 7 5 32 7 16 12 36 19 1 39 34 4 7 27 2 33 32 37 15 24 3 18 22 27 2 35 30 23 22 33 25 21 15 22 12 25 26 32 11 21 23 29 36 27 10 11 27 18 23 17 1 11 25 3 15 34 19 0 5 17 1 27 34 18 9 13 11 20 39 13 9 21 36 30 37 5 39 7 12 16 20 20 7 39 1 5 34 14 26 16 22 39 10 1 25 34 36 9 23 25 12 19 13 2 30 19 19 21 22 39 31 5 27 28 32 19 34 24 32 1 37 23 31 4163 3721 3943 4776 4365 3035 3298 3165 2787 4944 4109 3750 2779 3120 3317 2760 4821 4064 4165 3722 3828 4651 4630 3340 3160 3557 2841 3781 4648 4697 3597 4459 3655 4399 13 4790 3178 4160 4911 3984 3928 3937 3869 2741 3446 3886 2923 2509 4085 2518 4022 4504 4159 3825 3150 2921 3986 3990 4454 3245 4616 3905 2966 3557 3326 4167 4904 4821 4676 3515 3566 4085 2713 4937 4565 3128 4089 3963 2743 4928 3805 3101 4835 2691 4343 3506 2722 4563 4501 4811 3741 3154 2573 4974 2925 3311 4860 3775 2624 4919 3109 2829 10 3628 4251 3623 3938 2789 3793 4300 4697 19 2985 3121 4480 2770 4323 4907 3144 4449 2543 2875 4151 4379 3102 4433 4581 3008 3661 3520 2963 3982 2710 4230 3720 3647 2888 3027 2589 4278 4922 3103 3821 3664 4423 2813 4959 4357 3281 4705 2990 3703 4199 4514 3211 3787 3124 3785 4850 2851 3620 3808 3997 4934 3808 3005 3581 2987 3257 3116 4709 4825 3993 3852 4753 3759 2790 4306 4632 4954 3942 2569 2946 3405 3377 2746 3075 2652 2851 2750 3248 4504 3001 2716 2694 2538 3193 3226 4375 13 4748 2574 2820 3084 4519 3583 3630 2909 2811 4222 3707 4781 3006
1 17 6 7 2 29 19 17 15 10 21 23 7 23 5 18 16 15 13 36 9 7 17 33 22 24 3 33 36 33 1 9 38 4 15 31 24 14 13 9 33 14 37 2 37 17 4 16 9 9 37 39 27 10 28 15 4 31 17 33 37 17 30 3 1 13 9 13 22 23 15 4 31 29 34 20 3 2 27 26 27 16 10 27 30 28 26 19 6 19 5 9 14 14 2 39 36 34 39 36 21 16 2 10 32 26 19 6 15 26 15 3 31 25 20 4 25 32 18 15 39 15 25 20 35 1 36 13 30 14 26 6 27 34 20 26 12 4 15 38 35 10 12 24 25 12 35 0 26 37 29 17 35 39 30 35 39 5 29 21 35 4 12 25 33 17 4 34 11 2 12 14 39 27 13 13 28 39 20 29 30 17 31 3 19 23 9 15 2 29 8 10 39 15 17 34 14 22 11 24 21 22 8 17 32 11 21 34 14 36 38 18 2843 3331 4863 3104 3909 2934 4271 3627 3832 4388 2979 2683 4758 4781 4850 3275 3992 2981 3703 3501 4736 3572 3561 4391 4175 4682 2547 4101 4570 3992 3332 4058 2637 3095 3742 4513 4520 2508 3406 4192 2566 3435 3512 3877 4341 4592 4678 2681 3774 3735 3014 3386 2783 3808 2758 3530 4061 3763 4443 2642 2664 4692 4168 4973 2877 3914 4839 2674 4134 4716 4991 3395 3985 3676 4585 4361 4443 3002 4133 4169 3285 3932 3118 3890 3775 2962 2644 3307 3026 2592 4150 4979 3088 3333 4278 3180 3603 2536 4417 3958 4949 4614 3987 4253 2756 3308 3890 4325 3312 3968 3242 4940 4615 2581 3567 3426 3921 3863 3684 4583 4688 3150 2797 2833 3158 3503 2563 2582 3275 2998 3615 4693 3227 4003 4253 3098 3143 4724 4582 4373 4021 4801 4801 3659 2764 4077 4207 4251 2744 2822 2946 2874 3561 3019 3987 4647 19 2863 3547 2628 3384 2929 3078 3525 3387 3293 4483 2980 4027 3456 3911 4227 2881 4026 2587 3883 4017 4531 3238 4921 4839 4403 3790 3034 3895 3842 3774 4320 4034 2740 4281 2842 4908 3307 2794 4360 4055 4264 3547 3015 2517 3716 3824 2549 3815 3872 3052 2784 3205 3087 3882 3102 4501
24 38 17 5 9 30 10 19 21 22 18 16 30 14 39 8 2 1 38 26 23 37 29 34 19 8 19 6 6 16 39 20 20 35 39 1 18 1 26 28 6 20 17 11 29 31 30 24 23 31 9 2 32 10 34 4 26 15 22 27 7 24 18 35 2 7 5 26 15 18 20 28 26 28 28 7 6 30 35 15 22 2 6 37 37 15 36 13 21 30 2 13 21 9 1 28 12 14 18 35 19 5 14 9 31 3 22 21 29 28 8 31 37 2 18 25 35 5 39 36 18 25 16 10 11 9 19 2 5 1 34 21 30 2 2 29 7 7 10 5 24 38 12 5 15 1 21 16 0 30 14 1 26 35 25 37 16 3 29 17 6 36 26 12 1 1 16 11 16 21 13 17 8 2 35 19 26 5 27 37 19 19 12 36 3 2 32 23 27 28 24 25 30 38 23 6 39 28 4 21 31 25 27 28 5 3 24 26 32 14 13 36 3743 3297 4299 3873 4090 3373 2709 4017 4932 4222 3713 4083 2641 3826 3250 2907 2917 3221 3656 4517 4221 4817 2977 3013 3482 4857 3905 4635 2725 4437 3047 3660 2696 4467 3099 4753 4271 3070 2678 3663 4479 4123 4458 4463 3008 4588 2786 3132 3364 3420 4224 2643 3646 3533 4199 4173 4306 4088 3378 4414 3286 3643 4992 4501 4185 4397 4281 4223 3499 3943 4632 2726 2968 3885 4115 3160 4958 3270 4059 2771 3283 4381 4527 3106 4991 4739 3169 3849 3050 2935 3937 3391 3565 3659 2569 3888 3644 2587 4963 3850 4324 3728 3915 4019 2751 3661 2911 2525 4615 2913 3240 4548 4796 4787 4184 2861 4163 4671 3503 2834 3740 3773 3147 4969 4381 4689 3336 4468 2649 2662 3065 4126 3779 4234 2859 3943 3518 3982 4007 3393 3556 3594 3428 4238 4466 3462 3837 3393 3820 2936 2977 4628 3691 3071 4133 4668 4161 4264 3645 3261 3766 2907 3597 2500 2825 4930 4434 3198 3932 4679 3727 2972 3925 3374 3642 3133 17 2964 3380 3703 3523 3988 2983 3817 4325 4675 4424 2716 3152 3723 4741 3880 3749 4922 2672 4119 4299 2512 2875 2646 3424 3005 3292 2737 2568 2689 3020 3687 3513 2501 3062 3927 3553
8 24 27 37 38 35 8 24 15 9 23 22 19 6 19 19 35 33 21 18 20 11 13 34 18 12 9 27 1 13 29 16 1 26 8 34 27 14 15 28 33 14 7 4 36 21 15 10 25 7 19 26 9 18 21 2 13 31 6 19 12 8 15 19 37 22 16 34 38 33 31 33 10 24 14 3 9 2 12 21 16 27 20 14 36 3 31 12 36 2 33 2 15 12 26 36 35 14 5 15 31 36 6 29 14 38 15 28 19 34 39 3 2 28 2 29 30 22 37 38 13 34 3 9 9 23 13 37 30 28 6 7 14 5 21 3 29 5 11 4 24 23 16 2 17 15 11 1 24 0 3 15 36 14 4 13 6 11 7 34 28 23 13 7 26 17 9 33 36 5 24 29 22 14 4 2 38 12 17 23 39 30 2 25 15 20 18 35 39 29 15 32 19 4 20 37 19 24 5 6 27 11 16 12 25 22 36 31 5 27 16 11 3368 4950 4002 3055 4784 3463 2641 3778 4996 4281 2812 2717 4595 3221 3498 3164 4203 4056 3163 3592 3548 3729 3177 4887 2580 2502 2932 2898 4816 2709 4210 4791 3711 4292 2793 2586 3415 3062 4915 3850 4748 3869 4268 4181 3206 3196 2970 4374 4918 3336 2730 4717 4176 3169 3324 4930 2667 4429 4738 4338 4701 2699 3361 4387 4779 4770 3983 3660 3801 3210 4441 3484 3098 3020 4543 3508 4384 2648 3812 3734 3315 4107 4090 4237 2518 3531 4055 3296 4673 3378 3290 4946 4130 4558 3269 2807 4767 17 2755 4289 2706 2728 4813 3328 3629 4409 4818 2872 4406 3003 4997 4936 3150 4026 2907 4486 2835 4205 4541 3243 4272 2866 3109 3998 2824 2597 4165 2807 2930 3714 4005 3449 4106 2674 2642 4512 4605 3198 3322 3613 3289 2774 3371 4499 4834 4460 3248 3442 2810 2910 4986 2945 2992 3583 4982 2507 3960 4887 4460 3790 4939 3351 3333 3785 4473 2964 3654 3484 3473 3143 4405 2690 3214 3664 4922 4462 3656 4458 3009 2832 3760 4198 3485 3892 2958 4305 4905 2542 3430 3785 4502 3073 4453 4014 4623 4226 4005 2608 2611 4322 4247 3262 3349 2565 3990 4469 2905 4619 3772 3034 4157 4864 3361
34 2 24 39 6 24 39 30 4 27 17 32 22 2 25 13 20 1 28 36 30 24 39 1 6 29 2 13 39 12 35 26 25 22 6 17 2 36 29 33 22 9 8 23 8 25 19 9 23 36 6 39 15 32 16 36 18 22 13 11 11 9 11 1 12 15 30 16 16 18 38 37 30 12 1 32 39 6 7 28 27 32 14 36 26 7 18 4 8 11 25 7 6 17 19 8 19 16 20 10 1 3 10 28 39 15 36 9 25 17 22 26 27 18 27 8 28 24 29 36 14 39 8 3 23 15 29 14 19 3 19 34 9 36 1 14 27 17 17 37 25 22 33 24 33 10 39 12 8 10 0 10 35 3 23 4 17 3 21 8 18 6 18 14 9 5 8 28 22 35 13 28 30 9 7 17 16 37 10 39 37 9 34 35 10 29 2 15 30 31 33 19 36 24 35 39 35 2 38 21 21 18 30 38 36 15 7 4 9 22 33 37 4232 3207 3839 4507 3940 2518 4493 2958 2546 4131 4345 4522 3863 3444 3474 3015 3779 2864 2709 3623 3529 4835 2900 4608 4681 4363 2999 4784 4911 4744 4925 4976 4461 4251 4023 4406 2905 3105 4893 4427 4704 3261 2902 4525 3580 3766 16 4515 2652 4625 4428 4234 3184 4116 3161 4658 4453 3978 3679 3235 2968 3926 2647 2642 2638 4585 3580 2562 4148 4091 3041 2504 3480 4811 2612 3055 3466 2581 4680 4621 4927 3251 3228 2608 3923 4309 2590 2504 4244 4657 2551 3981 2936 4565 4139 3916 3617 4996 4800 2590 4806 4993 3655 4049 4213 3947 3327 3665 4797 4993 4626 4627 4436 3541 3209 2659 3521 4676 4542 2682 3823 2569 4574 4066 4224 2651 3470 3826 2789 2807 2747 3576 3725 4362 2933 4193 4673 3777 4579 3843 4806 2589 4457 2536 3148 4117 4182 3455 3137 4789 3647 3799 4627 3030 2929 3464 4453 4453 3070 4476 3693 3921 3166 4671 3902 4683 3190 3581 2955 4106 3545 3822 3639 3715 4199 4075 4373 4046 4354 2589 3347 4699 3723 3333 3062 4469 4350 3204 4379 4987 3880 3629 4468 3730 3978 3494 2649 3610 3625 3567 3376 3827 2689 4404 4930 4438 3490 2662 4141 3907 4667 4920 2683
26 20 25 16 36 23 26 29 26 27 14 28 14 16 38 14 4 16 24 2 11 18 18 6 18 13 16 21 25 19 36 2 22 18 1 33 38 26 25 29 29 18 19 3 6 6 21 7 6 22 35 5 14 1 13 37 6 5 28 5 23 38 2 39 32 33 30 29 18 12 27 21 30 18 35 31 20 2 39 36 30 34 15 15 6 31 7 1 23 18 32 2 21 10 19 22 14 34 14 34 13 10 38 26 11 5 23 38 29 25 5 2 23 10 21 20 2 5 8 1 12 28 36 25 38 31 1 33 28 9 17 35 35 3 13 19 35 39 17 9 16 30 32 6 3 14 25 31 16 6 38 0 20 8 18 26 34 16 35 39 4 11 29 6 1 13 20 11 1 34 2 28 4 11 25 38 11 14 20 7 11 2 5 3 33 33 36 11 17 14 22 4 19 7 35 10 19 30 39 14 11 3 14 24 27 16 3 6 31 34 8 23 4497 4174 4005 2743 3915 3689 4404 2938 4523 2796 4056 3471 2699 3387 3090 4955 4661 4837 3984 4077 3400 4325 2903 4228 2593 4290 2784 3483 2912 4454 3037 2805 3044 3948 3665 4183 3340 4359 3757 3478 2808 2547 2915 4578 3848 3355 4373 4053 3438 3196 3701 2587 4319 4785 4073 3449 4180 3110 3219 3706 4747 4400 4743 3475 4526 3595 4283 2664 4489 3125 3828 2555 4644 3135 3536 3210 3559 3016 5 2877 4690 4689 3160 3047 3914 2802 2758 4022 2840 4108 4192 3452 3808 4158 4969 2633 4509 3576 3888 3226 4574 4701 2655 4764 3481 4088 4562 3977 2874 3359 3260 4206 3031 4166 4581 3052 3054 4970 4584 3048 3278 3596 2634 2843 3229 4867 3555 4853 3886 3526 2712 2575 3076 2503 4460 3676 3238 4742 3161 3469 4565 3589 4431 3985 4593 3653 4341 3183 3968 2893 4551 3537 3196 4934 4666 4477 4932 3319 4291 3340 3529 3766 4093 4509 3953 3830 3952 4659 4715 4422 2613 3893 4468 4764 2762 4573 3937 3487 4856 4304 4770 4369 4057 3344 3922 2946 3128 2711 3436 4657 4785 4154 3005 3242 4039 2915 4254 3017 2561 3590 4514 3784 3542 4312 2883 3263 3716 4923 2887 3769 3265 3484 4306
27 11 12 30 25 17 39 23 38 15 7 21 38 35 12 2 28 8 33 38 27 39 9 33 21 32 8 34 37 2 33 30 24 29 28 13 36 12 37 8 28 30 15 18 32 5 16 3 8 16 12 9 11 34 11 9 5 23 39 38 29 8 22 34 31 12 13 2 38 21 20 27 18 28 18 15 22 38 1 17 29 26 35 29 39 4 27 10 14 39 26 16 14 7 25 1 32 34 38 15 12 14 23 31 34 1 4 15 4 27 39 33 22 3 12 31 11 33 25 28 28 36 30 3 13 18 22 2 4 12 13 10 35 30 33 12 1 21 3 31 2 14 9 8 27 34 26 20 38 37 35 22 0 37 36 30 25 9 4 12 19 39 25 18 25 25 2 22 3 5 10 3 27 22 3 25 7 16 30 28 33 9 6 11 39 24 12 3 22 21 32 3 1 36 6 24 16 31 35 30 23 32 12 38 18 4 16 25 28 10 23 29 3380 2843 3603 3168 3163 3885 4935 2565 2772 3139 4094 3297 4698 4811 3290 3970 2699 4845 3103 3652 4546 3650 4953 2813 2560 3550 2541 3384 3270 4434 3867 4338 3495 3778 4578 2941 3426 3580 3835 2962 4642 4990 4311 19 2888 3490 4492 2977 4731 4240 4699 3854 2731 4296 4359 2884 4509 3371 4114 4364 2697 4597 4259 3209 3772 4910 4002 3364 3741 3098 4797 3030 4672 3034 4629 4407 3746 3163 2785 2802 4579 3201 4706 2852 3680 3780 3954 4645 2821 4600 4324 3851 3655 3936 3196 4233 4410 4602 4308 4356 4972 2574 4713 3546 4510 3732 4352 4586 3815 4089 4438 2733 4388 4889 2643 4185 2694 4477 4561 3556 3650 3759 3789 2676 3485 4999 4224 3772 4125 4400 3193 4358 3620 4086 3287 2730 3681 3730 2676 3254 4705 4453 3749 3645 3921 4656 3723 2681 2503 2697 3247 3993 3200 3490 3145 3708 3713 3896 2771 4677 4684 4538 3056 3434 3538 3461 2833 2615 3019 3518 4415 4923 2948 3657 4438 4279 3404 2698 4799 3500 3982 3775 4517 4591 3360 3356 3046 4317 4705 3951 4334 3140 4497 3380 4999 3808 3291 3231 3405 2881 4488 3174 3576 2642 3263 4921 3140 3762 4288 3933 4398 3521 4603
5 11 2 11 6 31 29 7 24 3 33 31 8 34 2 2 35 13 1 3 9 33 12 28 31 16 20 36 33 6 12 6 9 31 11 22 31 10 9 36 33 11 22 32 38 37 35 19 25 12 31 25 19 35 1 31 5 35 37 16 36 11 36 10 26 27 23 5 7 16 28 27 5 11 17 11 24 12 13 2 6 13 34 7 27 36 23 1 15 19 35 29 18 27 20 22 37 7 19 23 20 21 35 28 13 39 32 29 3 12 3 29 30 3 9 28 36 9 39 1 4 19 23 3 11 4 7 38 12 1 20 9 12 14 25 6 29 24 35 33 28 36 12 16 39 19 22 31 1 3 32 16 17 0 19 19 19 3 27 30 1 36 5 2 17 19 35 1 25 20 15 32 14 32 32 26 25 12 14 1 31 14 29 20 25 4 11 29 21 7 22 37 16 20 7 11 4 20 21 29 24 39 18 34 37 24 30 9 15 31 8 29 3818 3770 3269 2740 4990 4132 3068 4295 2918 4569 2969 2928 3002 3473 3395 3364 2844 3867 2942 4210 2870 3398 2517 3117 2994 4836 3689 3849 4842 3718 4408 4143 2513 2727 2691 3225 4624 3671 2724 3030 2836 4549 3091 4443 4127 4447 4235 3693 3144 3305 3466 3976 3022 3892 3931 3525 2731 3857 4153 4671 3132 4642 4091 3829 4381 3438 3998 4726 3513 2724 2792 3127 2580 2617 2900 2782 3978 2774 2836 3376 4968 3049 4650 3691 3704 4873 3159 4628 4741 4633 4526 3513 3712 2653 3019 2935 4207 4970 2670 2936 4297 3052 2508 2643 4283 4103 2740 4519 3074 2712 3226 2547 3049 2598 3171 2926 2557 3751 2998 3481 4630 3727 3394 3842 3710 3199 4950 4017 2693 4232 4787 3381 3792 2569 4049 3318 2635 4256 3933 3672 4636 4528 2917 4249 4360 3091 4360 3921 2615 4927 3219 3223 2929 4460 3140 4364 3198 2519 4891 3644 3564 3191 3438 2783 3479 3305 2779 4190 4882 2719 4981 3076 4929 4356 4587 2607 2634 3330 2998 3084 4330 4996 4075 3940 2794 2553 2930 2558 3116 4431 3857 3755 4267 2631 4130 2829 2929 4700 3558 4315 3997 3316 4151 2737 4152 3187 4448 4968 4378 3981 4354 4923 2699
32 19 3 7 7 4 28 11 20 21 36 31 24 27 15 7 22 39 14 28 26 7 9 17 13 28 30 3 14 29 4 2 12 21 26 29 17 30 33 16 1 26 10 27 24 26 24 3 4 37 21 33 29 30 1 36 9 14 10 31 9 24 28 34 28 17 25 5 10 16 34 35 2 1 11 20 8 12 23 29 21 10 23 1 1 15 29 27 16 39 27 17 4 23 19 13 10 6 22 23 8 7 5 29 15 11 8 34 39 29 33 5 15 18 10 10 24 23 1 22 20 27 16 32 14 15 25 18 25 36 17 39 38 21 38 33 19 22 7 16 21 9 36 5 31 8 1 37 31 11 21 26 38 33 0 37 25 1 21 35 2 6 7 7 14 20 17 6 36 18 37 9 33 34 10 13 15 3 25 21 11 22 39 13 7 5 34 5 4 20 39 12 35 30 19 21 3 37 27 18 24 30 35 34 10 25 24 13 14 26 11 25 4400 3418 4099 4104 4746 4154 3309 3425 3348 4054 4236 3582 3747 2666 3827 2703 3785 4463 3986 4202 3677 3762 4224 3863 3170 3203 4811 4050 4186 2650 3702 3566 2737 3791 4916 4883 3534 4365 3978 2766 3008 4888 2986 3470 3041 2682 3184 3558 4212 3206 4078 4626 3419 3695 4588 4728 2603 4938 2680 3082 2570 4891 3712 4512 3520 3228 4662 3252 3314 3476 4755 2878 2877 3465 3912 2571 4877 4616 3683 3922 2798 4552 2866 4232 3955 4625 3746 4637 2723 4098 4893 4928 3212 3530 3672 2564 3641 2834 4575 4881 2875 2896 3285 3452 3430 4941 3261 3593 2701 4287 4588 4949 3852 3798 3125 3462 3692 2668 2747 4341 2991 3379 2729 2524 3851 4704 4229 4533 4425 2710 3114 4228 4061 2660 2664 4684 2723 2723 4330 4180 3550 4913 3728 4668 3863 4505 3206 2830 4633 4881 2881 3351 4339 3131 2675 2891 4924 4832 3203 3967 3137 2884 4884 4193 2901 4264 2668 4184 3329 3946 2771 3799 3353 4957 3997 3639 4184 4676 3798 4191 4000 4829 3361 4023 4229 3244 2518 3898 4608 4902 4984 10 4263 4118 3385 4628 3760 3262 2806 4514 4570 3043 4723 3845 3800 3696 3109 4290 3164 3838 3667 4576 4559
25 6 9 11 10 2 3 24 16 8 25 24 1 38 33 35 35 37 31 9 23 37 1 9 28 36 39 21 15 33 23 4 14 26 39 32 4 17 34 37 14 38 23 11 1 26 36 18 4 20 13 4 1 37 28 28 39 19 31 24 26 34 3 21 22 32 2 26 5 19 6 4 14 6 34 14 9 19 6 17 16 24 27 26 17 13 37 24 8 32 15 32 13 6 24 32 9 26 38 1 7 2 17 26 2 9 23 37 23 28 35 34 17 3 12 32 38 25 30 16 35 24 7 1 4 16 8 9 38 2 14 15 11 23 5 26 4 4 4 35 27 8 36 27 6 36 10 22 12 20 24 2 5 31 36 0 3 23 28 11 30 27 34 5 24 10 3 3 32 22 2 22 20 20 14 20 36 17 10 5 16 13 13 13 3 1 5 30 17 24 20 34 29 15 5 32 16 24 28 3 17 37 31 9 39 4 9 28 33 39 21 34 2974 3122 2796 4210 12 3367 3969 4592 3551 3422 4732 4044 3322 3443 3708 3346 3938 3203 2693 2858 4993 3895 4058 4751 3577 3257 3314 3966 2758 2838 3246 2731 3615 4024 4466 3804 4751 4063 4850 3929 3261 4465 3927 3955 2983 4734 2945 2508 4891 2689 3849 3484 4832 2762 3038 4570 3241 2609 2752 4053 3771 4363 4468 3237 2877 2641 2515 4816 4650 4699 4818 3768 19 3964 2506 4045 4072 4908 3072 4802 2654 4425 3118 4350 3235 2512 4143 3473 2921 4381 2909 2561 2825 4569 3593 3573 3465 4821 4200 3176 4611 2568 4413 2868 2926 3637 3575 2872 4299 4922 3814 2508 3818 3986 4366 4293 3775 2725 2599 2864 4558 4639 3841 3993 2943 4109 3769 4127 4850 2735 4388 4207 4956 2804 4381 3817 3682 3689 2932 9 4629 4601 3253 4993 4900 2737 3150 3549 3026 3797 4337 2940 4071 4764 2931 4127 2626 4274 3422 4832 3596 3071 2618 4463 4451 3029 4641 3705 2741 4464 3575 4160 2598 3194 3466 4892 4927 4673 4641 3192 3583 4717 4764 3254 2548 4445 2974 4351 3586 2836 4662 3515 4706 3367 2689 4628 2956 4766 2809 3953 2834 4283 4943 4699 3833 3483 2945 2862 4665 4221 4079 4700 3112
18 16 18 4 2 24 12 39 19 18 18 11 8 32 37 39 30 36 23 18 29 1 38 29 4 7 27 28 39 1 16 37 12 2 39 14 28 23 1 26 2 4 12 2 36 25 36 33 34 8 20 20 33 31 15 11 19 9 20 38 20 11 18 32 7 30 19 33 10 5 8 35 38 20 24 3 20 32 23 32 24 2 5 1 30 22 39 30 6 23 30 1 30 8 5 8 2 24 34 9 12 18 34 28 25 11 26 20 1 29 30 12 34 35 34 22 38 1 33 1 16 36 10 6 24 26 39 39 32 13 6 29 34 11 24 19 4 30 15 25 3 11 30 39 6 3 15 27 26 30 35 36 28 34 21 18 0 34 24 11 26 14 28 28 22 10 7 20 15 11 34 11 15 22 6 5 18 39 11 28 17 10 12 16 26 32 3 31 26 3 39 34 28 14 16 21 34 39 22 10 34 19 20 36 25 7 18 11 10 10 31 26 4299 4856 4585 4763 3357 2897 4551 3898 3398 3953 3984 4955 4636 4044 3145 3979 4279 3315 2574 2533 4330 4570 4864 2830 13 4521 2503 3549 2874 4549 2687 3834 3395 4222 3540 3544 4998 4969 4373 2571 3151 3738 2654 3806 3288 4449 4502 3686 2857 3415 2684 3998 4183 2734 4603 3857 4650 3151 4028 3517 3487 2868 3032 4513 4616 4157 3735 4760 3655 3088 4208 3590 4939 10 3306 2751 4284 4941 4766 3037 3700 4646 4707 2604 4342 2854 4647 3673 3029 2733 4282 2638 3636 4865 4464 2596 3985 3369 4790 4542 4403 4420 4243 2676 2563 3903 2776 4480 4764 2999 4666 4325 4111 3125 3632 4926 4679 3096 4865 4624 3808 3013 2546 2578 4400 3278 3233 4911 3880 4812 4232 2666 3681 4734 3739 4213 2525 2572 3582 3340 4003 2967 2638 2753 4063 2577 4071 3853 3110 3517 3131 4635 4830 3625 2826 4506 4530 2722 4590 3339 2874 3814 15 4860 4310 4832 4244 3403 3457 2778 3200 3441 3742 3134 3010 4948 3121 2984 3467 2724 2559 4612 3511 2805 3089 3813 2872 3991 2505 2536 4815 2865 3668 3448 4240 4409 3941 4873 4364 3738 3560 4512 3267 3997 3860 2838 3364 4911 2974 4242 2554 4386 3038
37 13 25 6 28 18 12 7 4 22 27 19 21 34 11 21 7 38 4 13 3 13 26 35 39 29 32 3 10 23 22 15 15 27 17 39 15 37 3 33 29 9 18 26 37 1 22 30 12 8 32 19 18 26 2 29 25 11 14 10 37 28 10 1 4 15 36 36 10 23 26 25 24 5 7 38 29 14 4 37 36 17 24 25 14 16 11 13 3 23 30 20 1 15 34 16 24 16 12 30 16 1 9 29 26 32 30 39 20 22 3 37 39 36 16 31 26 11 29 27 8 29 37 16 31 8 8 1 13 37 28 21 18 24 14 20 14 8 3 16 18 6 1 16 29 33 28 14 27 34 36 37 23 34 16 30 7 0 8 34 29 33 4 20 36 1 31 18 20 6 26 28 16 1 6 18 16 29 14 21 35 29 25 27 14 13 19 24 15 12 4 12 29 5 2 5 33 26 22 21 12 22 14 25 6 24 3 38 17 31 25 32 4470 3517 2642 3663 3679 3945 4059 4719 4194 4650 4219 4950 3371 4593 4409 4690 3951 2893 3813 3920 4848 3874 4104 4428 3107 2825 3639 3928 4657 3430 3947 3394 4195 4379 3060 3724 3791 3442 3632 4208 4495 3107 3056 4644 2960 2909 2828 4222 4623 4045 3038 4242 4019 3601 3836 4011 4371 2954 4484 4615 3099 2590 3169 3524 4496 4547 4124 4450 4139 3794 3842 3308 4102 2970 3281 4186 4816 4743 2544 3457 3854 4845 4488 3818 4659 4316 3377 3541 4177 3907 2842 3377 4355 4465 2641 3151 4932 4322 3476 4899 2586 4784 3272 4605 3621 4847 3785 3668 2553 3033 2514 3512 4093 4219 4368 3571 4317 4112 3578 3096 2674 2554 3824 3442 4638 4773 4930 3516 3461 3651 3897 4461 3149 4267 3099 4035 4488 3657 4491 4015 3785 3465 3204 3191 4254 3311 3238 3582 3872 4887 3053 2861 2876 4637 2529 4690 3640 3185 4981 4413 3073 4626 4156 2773 4998 4823 2593 4140 3818 3156 4043 2936 2978 3002 3034 4734 3771 3820 4038 4490 3564 4038 4084 2851 4050 2789 4794 4398 4382 4662 4452 4225 2717 2751 3669 4600 4120 3476 2596 3393 4678 4432 2952 4736 3413 3145 2571 4707 3229 3365 3764 4647 4244
17 10 11 25 22 17 3 14 3 26 32 18 39 12 7 15 4 16 21 29 10 14 9 18 32 6 14 12 23 9 30 9 19 11 17 24 13 10 3 30 2 4 8 11 9 22 34 15 35 38 14 27 23 1 23 2 17 33 15 19 18 13 16 2 37 36 39 19 19 39 11 5 24 12 16 3 35 17 18 13 17 16 17 17 2 21 13 22 12 39 4 28 13 27 34 31 37 10 2 20 39 25 30 8 31 23 38 36 4 34 20 36 34 26 4 19 13 29 32 8 6 25 17 28 11 37 16 14 14 1 21 31 9 26 19 23 3 2 16 38 32 34 32 11 8 38 14 2 15 31 26 15 10 19 27 7 1 27 0 34 38 17 11 24 15 9 31 7 13 27 14 17 13 4 31 22 15 20 31 13 17 8 16 6 13 30 31 34 32 8 14 26 38 10 27 34 11 2 27 3 16 27 12 33 1 19 22 12 39 31 5 9 2529 3351 2981 3695 4186 4047 3544 2567 4058 4970 2838 3529 2632 3965 3763 3120 3016 3828 4500 4559 3582 4887 3408 4805 4159 4042 4563 2635 3568 4332 2722 4956 4491 4063 2786 4910 4407 2524 3989 4440 4519 4709 4670 4038 4927 3170 4410 4870 3315 3987 3662 3189 3578 2691 3050 2590 3191 4372 2807 2616 3988 4672 3586 4897 3914 3994 4407 4673 3127 3008 3568 3795 3784 3186 3178 18 3171 3561 4526 4585 3062 4326 4940 3789 2528 4076 3435 2972 4493 2843 4290 4631 3423 2695 3261 2678 3973 4952 3894 4790 3302 3684 3722 4939 4740 2797 2602 3602 3473 3941 4797 3363 3882 3219 3129 3728 2811 2809 3653 4233 3446 4556 3188 4445 4379 2831 2672 2701 4990 3622 4061 3853 4413 4370 4395 3093 3344 4556 3184 3732 3354 4973 3883 3064 3914 4931 2850 4868 4419 2726 2541 4250 2966 3886 4216 4734 4317 4308 3666 3730 4524 3069 4317 4914 4516 4284 2901 4517 4553 4439 3892 4997 3100 3745 2802 3575 3021 3668 3989 3135 2681 3922 4359 4679 4791 3713 4302 2966 2808 4353 4079 3733 4679 4273 3252 2537 4723 4770 2892 4348 4709 4057 4104 3392 3933 4840 4312 4695 3981 4053 3091 4551 2657
4 12 23 26 12 28 29 13 35 9 28 39 38 39 20 16 29 27 25 8 32 20 19 38 12 6 15 10 36 9 22 37 30 29 16 12 22 30 28 24 37 21 8 8 34 20 12 6 9 8 23 24 5 35 24 30 6 16 20 14 6 21 30 24 31 27 33 13 21 27 4 6 35 12 33 9 25 14 11 28 37 10 8 4 23 24 25 29 3 9 31 18 5 22 26 16 17 11 32 27 24 27 10 37 34 18 8 25 22 24 23 21 22 35 5 38 22 12 38 36 31 2 33 32 12 31 35 20 34 3 22 38 4 37 7 14 11 15 32 9 19 13 10 29 27 30 35 29 5 39 15 12 5 21 23 36 9 22 39 0 13 32 31 26 17 4 34 36 4 32 22 26 37 9 30 23 34 1 23 16 6 17 2 22 27 2 34 34 27 26 7 4 1 24 22 30 38 18 2 2 19 22 9 2 26 11 13 10 31 35 7 10 2710 3096 3731 4350 4184 3964 2839 4846 4211 2635 3961 4875 3194 2595 2643 2664 4525 3671 3582 4688 4434 3944 3700 4040 4197 4882 2713 2566 4381 3924 3521 3727 3402 4111 4092 4694 3823 2958 4506 2737 4619 4065 3155 3774 3474 3799 4128 3967 4123 2693 4661 4841 2880 2977 4631 2877 3195 3662 3556 4450 3749 3486 4321 3093 4323 4097 4137 2754 4739 3135 3360 4859 4911 3298 4080 3618 4279 3852 4316 4385 3768 4068 3946 3650 3878 4198 2516 2566 3608 4600 4752 3877 3269 3601 4884 4573 4659 3041 4219 3293 3820 3042 3916 3768 3528 2642 4868 3153 4833 4067 3314 3207 2751 3154 17 3862 4774 3735 2514 3653 3165 4737 4970 3150 3687 3217 3089 2944 4671 4805 2505 3886 4550 2657 3993 4847 3596 3382 4179 4138 4440 3423 2987 4192 3698 8 3456 3431 4551 4715 4374 2536 4982 4862 3215 4664 3320 3221 2658 2956 3834 4986 4168 2795 4232 4670 4303 2802 2989 4854 2574 3255 3773 3683 4020 4966 3764 3767 3567 3119 4963 3969 2606 3087 4999 3422 4950 2903 3205 3856 4189 3760 4174 3457 4882 4438 2626 2505 4783 2815 4224 4452 2608 2857 3578 3804 3295 2989 2902 3299 4812 3615 2898
3 22 24 11 26 28 38 17 24 36 30 21 28 11 5 4 6 27 13 24 30 9 28 17 23 34 37 36 28 22 25 33 9 38 16 3 38 6 11 12 35 27 36 28 22 27 18 16 8 15 31 10 9 29 10 29 13 13 16 21 5 13 1 11 36 37 31 12 16 34 37 12 20 7 2 5 7 17 39 24 20 39 5 10 11 23 13 4 24 10 25 26 26 25 9 8 18 5 28 2 14 1 31 9 37 18 14 26 37 34 16 33 11 30 17 5 11 36 21 24 11 9 27 5 12 37 37 9 15 28 1 31 23 11 5 17 11 30 1 7 37 2 12 36 32 39 12 22 13 27 16 3 23 39 24 23 20 37 17 25 0 6 32 39 1 15 34 14 34 39 25 20 30 38 16 13 23 13 8 7 16 13 18 14 18 33 21 24 22 36 25 36 9 39 4 32 3 21 15 24 27 28 7 11 17 35 27 20 32 26 12 20 2568 3941 3304 4307 3266 3298 3323 4778 4069 4313 4553 3637 3644 4807 4049 4772 3432 4242 4585 2812 3585 4784 4105 2860 2702 2603 3894 3501 3275 2625 2515 4278 3353 3473 2590 3740 4379 3856 3211 3017 2685 2960 3768 2554 4681 4387 4325 4228 4494 4381 4721 2674 4785 4777 4596 3924 3899 3867 2731 3633 4471 3886 2690 2718 4627 4595 4855 3633 3504 3605 2848 4120 3590 4920 4399 3581 4329 3623 4000 3668 3117 3943 4380 3111 4873 2642 2735 4134 4785 4493 2614 4816 4645 3867 4330 2568 3874 3769 2523 2693 4287 3837 3275 3290 3602 4019 4707 3166 3715 2739 4006 2691 3821 2884 3457 2905 4475 3890 4878 3537 4983 4926 4942 3934 4698 4401 4161 3540 3718 3441 3182 3411 4763 4837 2732 3000 3962 3482 4203 4721 17 3699 2983 2996 3014 4874 2634 4669 4452 3710 4357 4039 2549 3749 2689 3104 3419 4408 3683 2516 4935 4064 2655 2556 3404 4649 3241 4570 3203 3354 3081 4423 3053 3481 4109 3907 3291 3252 4774 4847 3951 3883 4657 3295 3218 3620 3388 2653 2857 3264 3978 4256 4859 3901 4083 4786 4087 4515 3566 2560 3649 2954 4208 3254 3696 3052 3696 3577 3285 3692 3162 2581 2713
31 24 28 18 34 28 16 27 21 8 37 8 20 26 13 15 13 6 20 18 37 16 17 6 17 15 30 28 29 20 2 30 27 17 30 23 17 35 14 28 1 1 18 16 38 12 35 30 22 24 37 19 37 16 37 4 5 23 9 25 2 28 3 19 14 27 26 19 37 1 37 22 18 4 14 36 4 30 7 8 8 25 37 39 7 34 7 3 31 24 9 34 20 6 6 19 36 17 17 29 19 29 37 24 29 38 13 9 20 19 7 35 34 16 35 14 28 37 32 11 10 23 36 4 10 9 15 29 31 36 31 7 31 36 34 7 10 24 14 26 24 30 34 21 17 34 8 20 35 28 17 5 19 38 24 22 37 9 31 27 15 0 38 35 31 2 36 33 15 21 29 28 24 32 26 23 31 10 38 25 25 12 25 6 38 21 6 14 16 24 33 27 8 34 39 12 31 11 8 15 18 34 39 23 8 3 29 39 30 2 35 35 4551 4079 2696 3611 3525 4524 2881 4811 2833 4099 3588 3132 4180 2838 3052 3125 3658 4022 3185 4151 4023 4244 4413 2868 4029 3841 3213 2564 4909 3156 4188 2966 3641 2765 4568 3927 4638 3216 4128 4619 2902 2802 3264 2669 3385 3480 3969 4016 3972 3330 4770 4131 3141 4436 2844 3718 4213 3755 3934 4809 4841 4839 3519 3481 4170 2799 3696 3497 4805 3258 4931 3273 2725 3921 3661 3419 4413 4984 3753 3077 2636 4089 4797 4365 2723 3059 4037 3225 3905 2724 4225 4568 4972 2877 4487 2750 4345 3435 2878 4516 3306 4693 3583 4330 4438 2903 2893 2974 3608 2799 3032 3261 3220 4599 3683 4927 4378 3334 3650 9 3846 4731 4930 2808 3865 2650 4764 3771 4257 4609 4562 3957 3274 2931 3798 4727 4334 4580 4618 4415 3730 3587 4514 4535 3672 3724 4495 4899 3071 3769 3114 4857 4816 4331 4339 4898 2774 16 3863 4697 3489 4490 2542 4344 3239 2842 2987 3976 2693 4405 2579 3983 3151 4099 3272 3295 3235 4697 4875 4740 4791 3446 3480 4055 3046 3534 4341 2529 4148 3438 2757 3174 3890 4121 4911 3763 2662 4483 3776 3305 3206 4317 2606 3137 3293 3884 3643 4045 4938 3858 4602 2938 2998
14 34 36 38 30 7 8 38 26 35 30 23 35 36 16 6 4 19 12 1 37 33 28 32 25 12 17 38 20 18 21 23 18 19 22 14 38 20 8 27 25 27 6 34 35 26 25 13 2 38 34 8 10 5 9 10 3 33 11 35 17 27 18 18 36 37 15 1 7 17 22 21 31 24 14 7 13 24 22 16 5 31 14 37 14 14 28 23 16 17 15 11 8 2 23 39 12 36 28 6 33 39 2 37 35 29 30 7 32 7 28 17 7 29 13 4 11 33 6 8 9 29 10 27 19 23 17 39 27 12 35 13 2 9 9 34 5 31 27 27 35 28 16 26 18 23 38 4 9 17 1 7 23 39 28 37 22 2 8 20 37 6 0 25 37 34 12 29 22 13 15 6 6 13 36 36 17 35 24 38 11 34 18 34 1 31 12 8 25 22 17 1 35 26 3 23 33 32 24 35 28 27 36 21 38 2 7 27 29 22 38 7 3245 4483 3282 4525 2655 3140 3758 4894 3400 4315 4967 4743 3617 4464 3269 4176 2812 4134 3097 4911 2978 4749 2566 4645 4340 3760 3543 2713 4328 4487 3948 2621 4292 4233 3371 4659 3406 4469 4512 4171 3408 2671 2837 4877 3033 2676 4000 3676 4976 3012 3929 2622 2517 4838 2924 3295 3846 3038 4466 2912 4430 4662 2653 4786 2672 4203 3859 3508 4655 2946 3153 4824 3717 3136 2699 4724 2608 3760 2555 4709 2877 4653 4510 3343 2507 4018 3844 3347 3303 4305 2928 3808 4353 3893 3474 4736 4077 4631 4663 3421 3610 4774 3854 4779 3869 3880 4349 3046 4358 3068 3963 3359 4965 2635 4184 3937 4524 3953 4611 4477 4430 2857 2654 4739 3948 3355 2649 3166 4025 3203 2698 3896 2686 4636 3790 3785 3399 3810 3751 4149 3373 2611 4134 3267 4574 4604 3305 4471 3984 4437 2854 2824 4978 4549 3882 3192 2888 4605 3868 3714 3939 3261 3235 3036 3997 2708 4900 4003 4379 4176 2769 3827 3922 3708 3737 4957 3527 4964 3888 3507 3717 3416 2887 3195 2888 4839 2862 2535 4712 4482 4301 4497 2549 3597 3897 3150 3948 3575 4265 3544 4788 4142 4601 4214 3075 2873 3915 4820 3060 3745 4049 3344 4253
26 26 4 33 28 32 24 31 35 2 11 29 38 11 19 37 36 17 35 12 36 13 14 17 25 3 5 3 30 1 2 17 33 18 37 24 8 19 30 11 16 14 30 39 32 27 25 12 25 14 4 37 11 3 25 13 31 1 16 36 14 5 19 14 16 33 23 39 23 11 14 11 4 29 5 10 13 13 19 5 20 4 32 4 26 10 36 19 29 37 6 24 26 6 2 23 14 22 7 33 3 39 36 22 6 39 11 22 23 39 22 10 8 35 35 25 35 35 22 19 35 29 16 2 38 17 21 32 14 29 8 31 22 8 1 15 9 8 38 8 33 23 20 34 12 21 4 8 23 19 15 17 9 5 13 16 34 12 6 35 16 33 38 0 38 2 8 2 3 10 37 11 26 9 9 7 19 19 28 20 8 3 14 24 4 30 20 7 18 25 5 6 12 21 32 22 11 28 14 7 8 36 22 22 2 38 11 3 25 29 23 22 4884 4947 3374 4754 2789 4631 3454 3572 4948 4526 3857 3879 4642 4618 4106 2508 3210 3762 3795 3768 4048 3589 4486 3047 4942 3410 4744 3570 3382 2925 2773 4694 4637 3754 3006 4372 4507 3667 3712 3467 3493 3869 2674 3829 3303 3719 3069 4574 4055 2673 2654 4151 4719 3398 4959 3584 4986 4717 4831 4342 4160 3946 4398 3641 2511 4511 4986 3484 3705 2733 4328 2821 2811 3649 3371 4610 2636 4444 2973 2581 4319 4449 4288 3881 4731 3411 3993 4140 4595 2860 3194 4843 4905 3521 2662 3468 2628 4198 3359 3795 3099 4745 4276 2820 4465 4986 4485 3983 2809 3420 3910 3234 3443 3921 3348 3079 3459 4366 3811 2807 2553 3823 2772 4671 2931 3768 3957 4912 3179 4790 7 2584 2614 4942 4852 4078 3910 3666 4125 3894 4613 4642 3092 3984 3095 3891 3562 3771 4963 4337 3010 2632 4150 4198 3760 2954 4868 4017 4604 2717 3611 4926 2830 3673 4430 3525 4859 4392 4122 3259 4184 3913 2619 4095 2735 3432 3322 3647 7 4490 2831 4116 3793 3285 2785 3523 2778 3485 3785 3451 3610 4375 3011 2965 3086 4910 4494 4580 4590 4340 3600 3098 3439 2915 3957 2746 3147 3256 3381 4341 3348 4278 4041
11 2 23 2 4 20 28 13 10 25 9 2 12 18 10 29 30 25 28 9 32 19 32 27 3 16 19 36 10 19 26 10 36 19 26 20 14 12 4 16 27 39 16 3 12 34 31 11 11 37 1 9 34 24 25 17 30 4 22 4 16 8 30 26 28 27 23 33 14 3 36 35 5 38 18 31 15 18 18 7 27 7 37 4 5 31 24 25 34 13 10 35 2 18 4 2 4 6 13 21 6 27 21 5 34 20 7 24 39 24 16 23 20 34 20 12 16 1 1 36 26 26 12 38 39 15 1 4 9 33 1 28 34 36 38 20 35 5 2 14 38 29 24 21 38 11 6 3 27 1 14 18 33 1 15 10 16 21 4 7 21 32 20 37 0 18 15 26 11 34 12 4 4 4 26 6 39 19 33 15 24 21 22 29 26 17 29 33 7 22 9 5 39 31 37 7 3 13 30 8 20 24 9 30 33 2 37 39 37 38 33 5 3938 3734 3164 4945 4728 4390 3830 3353 4746 3000 3287 2676 3200 4328 3206 3357 2636 3904 4358 3432 3815 3219 3523 3275 3987 4858 4084 3547 4921 4547 4486 4972 4968 3902 4843 4039 3270 3612 3339 4898 2939 4414 3487 3120 4091 3544 4352 2634 3535 3094 4819 4269 4490 2605 2902 2908 3267 4105 4851 2818 2541 2649 2989 4701 3818 2623 3478 2865 2737 4537 3113 2618 2549 4572 3265 3951 4315 4456 3207 4762 4485 3392 4137 4621 2983 4097 4354 3541 3492 2620 2778 4566 4793 3673 2529 4580 3952 4982 8 3140 2981 3204 2532 3348 2566 4285 4754 4859 4151 4580 4829 4840 4244 4054 2524 4006 3537 2569 3196 4004 4844 4939 4119 3973 3563 4371 4902 2661 3524 2864 4405 2942 4595 4849 4571 3046 3964 3293 3466 2946 4010 4634 2867 2933 3151 3846 3463 4699 4851 3382 3609 2541 4091 4182 4470 3081 4602 4172 3895 4535 4857 4930 4755 3386 3237 3341 4177 4781 4185 2829 4788 3187 4715 2514 3806 2645 12 2635 3879 3671 3937 2718 4991 2678 4307 4703 4030 4936 4576 4558 3924 2879 3175 3234 3198 4590 4312 2666 4321 4780 4657 4020 4390 4326 3518 3902 3292 4516 4809 4178 3636 3451 3742
38 39 1 33 39 11 19 31 19 30 3 24 32 18 21 10 24 32 35 13 39 4 2 30 5 6 15 33 32 31 6 33 26 32 37 35 12 13 7 22 12 20 34 10 18 24 16 19 7 24 13 35 5 35 6 19 27 27 39 23 2 13 1 2 27 19 27 34 6 20 38 11 29 16 24 33 24 3 10 9 8 23 17 30 11 13 5 30 10 22 24 23 11 25 14 11 10 39 13 38 32 34 39 2 9 1 39 7 4 3 29 32 12 37 13 10 23 15 24 33 7 31 26 15 15 18 3 13 9 34 13 2 18 21 4 9 30 23 3 6 38 29 7 23 32 9 8 34 19 36 34 14 3 26 30 36 29 17 27 31 39 38 1 20 1 0 37 23 37 39 2 15 7 23 20 22 34 17 34 34 38 19 30 2 30 35 20 31 2 31 37 38 8 39 29 26 29 12 4 34 10 4 22 20 13 13 12 24 6 11 10 3 2546 3440 3414 4311 2941 4026 4114 2729 3842 2869 3996 3147 3687 3706 2775 4496 2674 4437 4630 3612 4354 4188 3465 4552 3776 4563 4410 4667 3770 3305 3716 4456 2933 3756 2613 3558 3183 4596 4594 3465 4145 3641 2946 4357 4211 2796 3609 4087 3127 4775 4768 3070 3762 4275 3494 4073 3986 3063 2639 3641 4371 3219 3047 4973 4246 4844 2937 4865 4765 4855 2703 3351 3474 2832 4662 3075 4458 3257 3666 3349 2620 3346 3149 4921 2622 3065 4643 3723 2782 4052 3168 4049 2635 2718 4614 4420 4563 4690 3063 2901 3198 4110 4773 3465 3592 3591 3722 2886 2733 2825 3996 2778 3031 3010 4226 2664 4587 2568 2741 3364 2675 4042 4571 3495 2812 4334 3820 2977 3694 4696 2842 3389 2615 4221 3024 3683 3067 4090 2739 4054 4271 3259 4054 3093 3379 3722 3248 3414 4560 3010 4802 4480 4867 4035 3962 3474 4835 4267 3136 3839 2602 4242 4053 6 3693 4437 4280 3595 3163 3849 3101 4149 4351 3088 3389 4546 4768 2862 4599 4642 3572 2917 4669 3745 3043 4189 3289 4082 4770 2721 4027 3296 3970 4273 4938 2921 3338 2875 4973 4861 4143 4965 3928 3310 3805 3801 4229 2977 3848 4955 2724 2717 2933
29 15 33 15 20 14 34 22 34 21 13 25 20 33 17 29 38 23 2 36 6 1 22 24 4 36 11 17 6 38 15 25 26 12 4 25 26 3 9 18 15 17 3 37 32 2 26 34 35 34 29 32 12 20 38 9 22 3 24 21 33 33 14 28 24 10 8 2 37 33 3 19 34 2 36 17 35 10 34 14 15 18 36 36 18 11 11 21 6 29 27 7 8 34 3 12 3 14 12 14 35 27 9 25 27 19 31 25 9 2 20 26 14 18 12 31 31 37 35 7 31 37 12 14 37 17 22 37 38 13 21 26 20 15 15 11 35 2 1 12 17 33 28 13 33 27 30 33 29 9 21 19 5 14 12 14 31 36 23 5 3 2 36 34 5 37 0 17 5 30 3 18 3 13 37 37 31 33 6 39 26 12 20 36 2 32 15 37 17 17 29 20 32 6 27 11 19 12 1 7 27 28 3 24 38 33 6 38 6 18 13 11 3447 2518 4492 3498 4869 2666 4363 4750 2669 2718 4040 3849 4887 4996 3103 4393 3696 3958 3961 3419 3984 4441 4081 2762 2649 4288 4605 3464 4723 3117 3705 4834 4545 4013 2956 2750 3374 3114 3639 2816 3018 2510 3008 2798 3630 4448 4902 4411 4210 2630 3156 3477 2667 2648 4318 3497 4515 2720 4408 4194 4038 3590 3821 3901 2866 3366 4729 3852 3222 4752 3943 3058 4945 2858 3458 4830 3041 4053 3979 2706 3720 3440 2716 4577 4308 3184 4789 4878 3073 2709 4689 3037 3077 3177 4682 3311 3010 3642 4214 3230 3242 4450 3989 4745 4161 3706 3210 3384 4954 4827 3086 2845 3904 4688 4963 2534 4538 3373 3507 4974 3196 4892 2932 3992 3874 3281 3677 3122 3390 4320 2576 2854 2532 3368 4318 3131 4008 4791 4705 4629 3683 3966 2702 4419 4213 2949 2902 3475 3161 4411 3387 2764 2651 4526 3904 4604 2946 3093 2600 4278 3044 2796 4986 3677 4839 2668 3077 4283 3090 2755 3126 3451 3238 4732 3060 4268 3433 3649 3827 3266 4363 2524 3180 3460 4659 3510 3911 3787 3929 4380 4011 3976 3715 3136 2508 3656 2982 2664 3364 3228 4133 4869 3050 2630 3847 4336 3392 3277 3488 3071 4705 4067 4516
18 27 27 11 22 34 35 25 34 38 25 34 3 14 34 1 11 29 25 7 1 14 13 36 2 27 25 7 10 8 34 19 38 6 39 13 11 13 32 36 13 30 35 10 29 13 25 36 5 11 10 39 27 23 25 34 2 36 31 15 14 16 19 10 21 5 3 29 16 5 19 11 28 33 30 29 34 16 20 16 16 9 24 20 11 18 38 15 15 12 24 9 26 35 1 22 23 17 34 21 35 11 14 7 39 33 25 19 21 34 20 11 16 33 2 14 25 23 39 8 19 23 27 5 21 15 16 10 36 18 39 34 11 21 19 1 16 11 30 38 30 22 35 38 7 1 28 31 16 10 18 9 7 26 34 9 39 16 34 37 31 22 21 11 3 24 7 0 14 15 6 38 3 34 30 2 27 15 3 26 30 37 7 8 14 17 4 39 18 30 18 13 36 11 35 31 24 35 19 12 7 25 5 5 20 20 10 28 27 24 14 25 3497 3185 2571 4932 4062 3395 3970 4527 4174 4615 4794 4260 2517 3295 4037 3231 4604 4944 2682 3769 4985 3846 2508 3307 3048 2673 4700 2551 4250 4108 4711 4381 3823 2548 3387 4325 3055 3078 3268 3870 2644 3072 4195 4003 4834 3384 3355 3835 4451 3969 3086 3231 3036 2778 2564 3670 3968 3713 3279 4676 4225 3947 3767 4141 4675 3633 3477 4821 2658 4057 2996 4816 2522 3487 4485 2656 4567 3787 3240 4468 4498 3389 3070 3656 4735 2739 4160 4278 4783 2619 2922 4899 4256 4278 3404 3181 4086 4908 3708 3075 3203 4477 3864 2734 4277 2937 3329 2506 2976 3401 4284 4101 4467 3094 4534 4278 3798 3194 3936 3492 3450 4076 3667 4889 4468 4102 4365 2571 4067 4242 4767 3146 4465 3585 2502 3129 3707 4677 3325 3824 4193 4606 2549 4204 4494 3355 4902 4547 4362 4310 2510 4088 4744 4024 3610 3924 4900 2504 4890 3607 3430 4398 4761 4607 4050 4410 3579 3117 4309 2633 3130 3550 3107 4077 3404 3168 3080 3230 2721 4978 4381 4598 3631 2677 4683 3615 2501 2836 3300 2543 4369 3613 3368 3343 3372 3076 3277 3945 2611 4368 3237 3842 3291 3204 4329 3782 2696 4656 2899 3127 2520 4025 4675
13 17 38 19 26 27 19 13 7 26 37 1 7 15 25 2 18 7 28 29 32 20 23 2 20 26 25 26 11 9 33 21 29 24 1 3 9 3 24 14 33 7 36 33 15 6 30 37 35 22 8 27 15 2 39 35 13 25 12 7 2 36 24 32 19 34 8 11 31 5 16 38 17 39 15 2 19 24 2 1 24 1 17 23 16 21 17 20 30 27 10 26 12 27 22 31 8 21 8 16 10 11 1 21 26 12 5 27 25 20 32 1 4 27 16 28 10 18 39 2 33 23 30 37 11 6 4 24 6 23 25 19 13 18 27 17 14 38 2 4 17 39 12 5 10 21 19 17 20 22 7 27 27 4 36 32 25 38 19 10 7 8 38 13 38 24 33 13 0 8 5 25 8 32 14 13 14 18 14 31 19 25 14 34 10 7 35 28 22 22 18 10 33 7 36 25 2 1 3 11 5 18 23 28 20 5 32 26 32 27 17 7 4955 3671 2563 4717 2521 4379 4576 4155 4608 4529 4281 4649 2593 2526 4876 3782 3119 4777 4993 3781 2817 2874 3093 3624 3717 2964 4415 3445 4113 3230 3010 4618 4345 4670 2777 2745 2754 3920 4488 3284 3363 2981 3913 3482 4180 4547 2914 3871 2760 3471 4545 4829 2719 3167 4753 3599 3364 2640 2856 4113 2552 3763 3422 4356 4019 4492 2869 3497 4255 3238 4703 2533 2531 3823 2725 3920 3203 4228 3448 2877 4625 4380 3665 4890 3151 3871 2982 3155 4845 3503 2674 3515 3633 3824 4270 2921 3781 3630 3092 4913 4820 4526 3181 4638 3954 3780 4249 4708 4485 3981 3906 4918 4082 2899 4997 4248 4950 4474 2533 4573 2855 2757 4428 3567 4269 4547 4421 2713 3391 2719 16 2553 4313 4200 3550 3659 3357 4577 2870 4065 3319 2876 3636 3511 3641 3604 4772 4546 4158 2852 3281 4786 3458 3562 2629 3657 3445 3829 4935 3310 4419 3804 4329 3426 4662 4160 8 3692 3218 4626 4916 3753 4565 4427 3498 2710 3599 3455 3155 4497 4350 2904 3905 4118 3954 3371 3046 3187 4294 4028 4022 4605 4129 3528 3749 2842 3841 3113 3735 4863 4024 2848 3759 4450 4703 4152 2572 3798 3258 3292 4062 3638 2932
11 39 14 6 16 26 31 4 4 3 21 15 17 3 7 32 10 24 14 12 32 21 27 15 7 7 22 25 9 37 11 28 27 39 20 4 30 28 20 4 10 5 15 20 38 24 5 9 3 8 38 31 7 27 13 39 14 11 36 9 17 27 13 23 20 19 34 23 9 25 25 38 36 1 12 38 4 34 4 12 15 13 17 1 7 12 37 38 37 11 22 38 27 19 29 12 39 1 33 27 24 21 32 17 15 6 19 20 17 12 34 22 23 30 14 7 9 19 14 2 16 27 14 5 10 10 35 20 27 20 30 36 36 12 5 29 25 21 39 19 9 30 4 13 5 28 24 37 34 13 10 13 9 13 36 3 27 33 1 4 35 1 39 29 35 27 7 5 17 0 22 36 6 2 25 32 23 31 10 28 30 5 20 14 25 9 20 1 15 1 15 17 28 37 1 32 27 27 33 10 25 27 13 21 39 31 8 11 5 17 13 34 3291 4509 3517 4145 4081 3017 4647 3164 4879 3090 3130 3111 4496 4477 4886 3828 3437 4963 3951 4391 4890 4287 2976 3605 4514 4072 3709 3159 4591 3931 4386 3779 4526 4385 4114 2933 4628 3047 4380 3603 4548 2558 4342 4245 4146 2551 2778 4177 2546 4831 3446 2611 3233 4977 2999 4179 3470 4951 4859 3045 4705 3519 2736 2503 3770 4969 4438 4531 3757 2715 3232 2600 3358 4986 4958 2681 4047 3053 4569 2691 4070 3211 3231 3482 2607 3547 3962 4218 3948 4023 3552 4692 4551 4774 4730 5 2769 3092 4395 2631 3717 3713 2916 2772 3885 4239 3521 3991 2721 2685 2869 4781 2964 3004 4142 3903 2811 3869 3767 4796 4431 3377 3625 4574 4890 4617 3465 4553 4925 4399 3457 3070 4262 3627 2741 3453 3220 3736 4211 4223 4859 3914 4110 3175 4040 3804 3395 2621 4676 4781 2893 2537 3171 4399 3184 2885 4098 4933 3406 4103 4480 4379 3583 3233 3039 3117 2679 3327 3671 4552 4949 3236 3241 4788 4790 3378 4984 3196 3296 2904 3171 3737 2581 3194 4670 4246 4766 3865 3344 4706 3814 4593 2856 3263 4351 3371 3178 4951 3038 3566 2868 4881 4207 3783 3076 4870 3099 3627 3644 4993 4329 4015 4763
29 8 13 26 20 34 4 18 31 30 6 21 16 28 27 32 3 26 39 35 18 24 39 2 17 9 11 22 11 30 36 11 36 37 15 3 18 17 14 4 16 22 16 16 37 4 29 1 18 29 11 10 37 25 21 39 29 15 16 29 30 14 4 13 2 12 33 33 9 3 18 36 7 9 21 19 5 33 32 33 15 33 4 29 11 24 14 14 13 36 30 22 10 39 19 1 13 17 13 7 39 37 33 1 30 37 12 32 23 8 23 39 22 5 14 38 18 18 5 15 18 11 39 20 32 33 20 3 31 34 35 7 9 5 25 16 14 24 32 7 28 27 28 24 11 20 30 13 25 29 17 23 9 20 8 8 10 20 6 34 23 23 12 29 18 36 20 20 8 32 0 13 24 25 7 39 7 32 23 17 38 28 10 32 9 18 3 13 26 4 23 12 21 12 28 8 18 4 28 31 33 17 14 11 24 36 7 31 32 20 18 3 3198 3086 2559 2856 4114 2526 3739 3765 3820 4028 3652 2709 3866 3583 2704 3882 3230 4092 3776 2988 3541 4645 4906 4055 4107 3825 3414 3384 4008 3476 4175 3339 3954 2584 2842 2552 4557 4255 3255 4225 3855 2713 4262 3323 3856 3972 3475 3414 3953 3923 4152 2760 2611 3864 3868 3697 3376 4484 3943 3323 4512 4087 3903 4734 2696 2758 4292 2730 3580 12 4174 3816 2677 4459 4079 2684 3604 3381 3322 4382 4805 4918 4342 3517 2978 3507 3684 4521 3185 3142 4309 3050 3180 3418 3335 3232 3952 4091 3078 4738 2775 4843 4563 2685 2920 3994 4560 4657 4568 2616 3344 3224 3661 4303 3832 4588 3887 3091 3994 2646 3198 3514 3794 4450 4402 4398 2968 3231 3628 4923 2532 2816 3415 3442 4791 4347 3757 4952 3344 2565 4448 4739 2540 3828 2689 3354 3275 2668 3157 2624 4397 4877 2837 2532 3762 3483 3248 4496 4788 4325 3911 3885 4270 4206 3830 4594 2976 4372 3775 4028 3039 4931 4893 3505 3949 3226 4405 2707 3266 2677 3863 4606 4312 3864 4387 2627 3431 4006 4701 3516 4361 3182 3739 4881 3911 3436 4585 3100 4966 3188 3054 3489 4781 2690 3547 4017 2750 4133 4975 3353 2759 4398 2895
14 20 22 11 5 27 12 15 25 36 8 37 17 28 17 27 8 32 11 37 24 23 23 30 21 37 34 33 7 37 9 17 34 25 9 2 26 24 11 14 11 7 14 32 24 1 20 2 35 8 37 37 34 38 1 38 19 4 37 36 35 37 36 14 22 15 24 9 17 19 33 37 10 18 18 15 24 37 9 7 8 19 17 23 33 6 6 8 31 15 12 30 28 21 37 10 39 17 8 18 26 18 4 4 4 5 15 7 25 21 10 31 20 36 26 32 10 3 20 26 29 8 1 34 12 9 7 10 31 27 20 19 1 10 21 27 12 30 27 28 34 5 28 35 32 22 9 13 13 15 15 3 24 3 29 1 35 16 18 26 16 19 20 35 37 6 29 22 15 28 2 0 12 3 18 22 20 38 21 10 29 13 13 15 19 33 30 25 36 1 5 12 15 15 33 13 20 29 29 7 18 32 23 1 36 18 18 39 6 32 1 20 4764 2673 3211 3737 2597 4927 4932 2772 19 4288 3032 2745 4190 3056 4736 3178 4736 3327 3797 3867 4688 3119 4797 3508 4279 3603 4743 3424 3710 4528 4411 3539 4326 3530 4182 4709 3364 3410 3073 4199 4340 2636 4592 3035 2650 2752 3513 2803 2581 4056 4253 3129 3713 4740 3593 2887 4303 3323 4860 2734 4384 2969 2536 3817 3248 3987 4174 2646 2674 4839 4737 2818 2577 3637 4913 3078 4135 4389 4491 3625 3235 4435 3255 4253 3003 3108 4058 4827 2925 4499 3802 4405 3741 3806 3256 2883 4161 3482 3592 2527 3566 4594 4384 4277 2525 3701 2857 3806 4187 4055 4804 2617 4713 2675 2563 4352 2839 3702 3177 4099 4711 4144 3388 4393 3352 2742 4298 3089 4896 4069 3683 3608 2515 4558 4698 4669 3208 3931 3030 4175 2605 3617 4051 3138 3924 3333 2720 3368 3686 3466 4287 4532 3887 4222 4192 2765 4570 3511 4085 3706 3569 4034 4694 2721 4763 2876 3323 3884 3941 2598 3726 2797 3405 3679 3216 2797 4193 4749 2673 2764 3543 2925 3500 3056 3309 2609 4893 3874 4481 4195 4303 3634 3622 4767 3147 2880 3141 3246 3076 4981 2847 3946 3808 7 3643 19 3241 4639 2656 3220 3372 4600 4719
6 34 36 7 4 12 30 37 31 38 16 25 12 29 8 24 17 10 36 25 35 18 1 1 22 39 13 24 7 3 2 29 8 38 30 1 31 20 18 14 20 38 33 35 25 25 37 28 9 33 25 8 8 2 25 26 30 9 26 1 18 15 37 8 21 28 37 12 5 37 16 6 37 7 37 17 19 26 20 30 30 6 15 15 3 39 11 3 28 1 16 33 12 13 38 32 6 34 32 24 31 35 26 10 28 17 33 14 2 34 9 8 5 25 37 24 5 15 23 30 18 14 34 35 24 10 29 10 23 12 7 12 26 9 37 18 29 34 20 17 19 39 30 19 35 25 30 31 3 36 15 25 3 38 2 21 5 23 39 6 32 15 13 10 8 28 13 27 25 27 17 2 0 3 1 21 24 7 16 26 20 26 35 35 25 16 14 5 27 26 39 32 35 2 23 25 21 17 38 11 1 35 36 20 22 33 20 11 10 35 3 27 3346 4491 2768 3344 2753 4519 3826 3134 4906 2754 3323 4163 2712 3687 4000 2925 4069 4426 2628 3267 2948 4694 3947 4015 3798 3897 4303 2732 4436 3669 3350 4753 3289 4291 4223 4110 4366 4859 3301 4938 4087 4655 4068 4647 4692 3207 4142 3075 2705 4934 3494 4306 4046 2555 3432 2858 4306 3384 2682 4683 4149 3952 3213 2568 3531 4204 2795 4026 2622 3130 4488 4514 4675 2972 3874 3671 4068 3321 2920 4465 3692 3559 2700 3614 2819 4137 3473 3020 4325 3137 3964 4781 4745 3964 2695 4838 3024 2626 2600 3491 4655 3248 4934 2665 3316 3747 4248 3965 4515 4596 2518 3986 4788 4735 4552 3186 4734 3613 2816 4701 3809 4823 2578 3524 4023 2636 4141 3964 3540 4151 4521 3851 3379 3144 4665 4494 3341 4642 4815 3800 3120 2879 2703 4926 3218 4130 4051 4367 3778 3505 3055 3873 4552 4558 3964 4159 4576 3280 4177 4648 2685 2553 3573 4155 3552 2759 4195 4475 3181 3575 3245 3829 4125 2666 3791 3409 3880 4374 4587 3679 3015 2948 3145 4212 4519 2700 3864 4490 4103 2972 4951 3030 3804 4980 4802 4536 2771 4960 3845 4087 4215 4094 4360 3496 3229 4872 4849 4883 2865 3721 4780 2685 3490
14 11 30 39 14 33 23 22 30 9 38 28 17 31 28 3 27 18 14 23 10 35 9 33 9 34 36 21 6 23 2 14 38 33 7 19 13 37 38 14 32 24 22 18 20 29 6 10 7 16 6 14 4 33 19 33 23 31 36 19 33 1 12 35 25 38 3 17 33 22 26 29 33 14 13 1 6 38 39 17 3 16 39 12 37 6 8 6 23 21 12 24 29 16 12 6 21 6 35 16 11 1 7 30 15 12 35 12 2 25 39 20 39 30 4 8 27 4 36 25 31 11 37 11 16 9 31 7 38 25 21 2 1 25 37 26 4 34 1 20 32 20 36 17 5 32 10 3 8 9 37 16 4 7 24 27 12 34 33 20 29 18 17 36 2 15 26 18 32 33 33 15 9 0 2 21 32 22 15 18 22 37 39 18 4 28 21 17 16 25 32 7 21 17 39 18 22 22 18 21 8 15 18 33 17 11 3 22 28 16 31 34 4049 4208 4316 3841 4085 4503 3865 3225 4970 2800 4511 2696 3052 3359 4623 2876 4969 4932 3720 4051 4751 3932 3194 4325 3124 2809 2622 3357 4853 2808 3358 2873 4337 3751 3253 2530 3331 3839 3514 3268 3989 3671 4866 3304 4153 3259 3570 3459 4896 4471 4779 3575 2678 4643 2801 3430 4100 4515 3927 2664 3999 3671 3003 3816 4236 4590 3724 2725 3729 3583 4640 3176 3896 4032 3486 4138 4059 3359 3331 3266 4664 4719 2981 2767 3903 3353 4763 3523 3388 2855 2598 4745 2740 2790 2754 4465 4846 4280 3347 4319 2898 2572 2857 4191 4954 3759 4187 4439 4977 3426 3190 2918 3120 3494 3054 3100 4894 2896 2877 3454 3951 3683 3286 4423 3397 2513 3042 4447 3929 3750 4876 4725 4074 4588 4485 4406 4212 3671 4035 3212 4767 4898 3134 4841 3207 4961 3389 2771 3706 2771 4322 2507 3199 4298 4279 3661 4576 2540 3047 4661 3152 3663 2914 4861 4726 3123 4199 2861 3298 2922 3136 4199 4478 2518 4698 3460 14 3204 3658 2747 3438 4932 4776 3499 3815 3458 3495 4403 4077 4674 3494 4113 4492 3710 3768 4904 2651 3719 4669 3035 3261 3679 3832 4090 2585 3350 3865 2548 2968 3743 3626 4054 4589
21 14 28 36 4 23 26 39 17 27 29 27 31 35 5 30 34 10 9 29 5 12 28 26 31 39 20 25 5 38 21 5 21 2 1 25 15 8 1 6 25 20 30 32 20 24 18 15 17 3 37 22 10 2 26 32 11 31 7 1 15 15 35 15 28 14 7 17 24 7 36 24 19 38 20 34 26 14 18 33 29 12 35 29 25 35 32 11 37 36 11 28 37 25 8 32 38 7 36 17 22 2 30 28 25 7 29 32 23 10 12 29 16 28 14 2 22 5 21 2 38 23 39 11 8 36 27 26 12 11 3 5 17 33 7 4 36 5 5 12 3 14 39 18 29 33 19 29 12 20 29 19 10 23 18 15 2 35 21 26 30 9 30 1 1 17 19 30 9 33 23 36 15 10 0 24 10 25 23 14 30 10 6 3 12 12 3 37 32 7 27 38 38 20 27 12 34 16 22 17 24 35 39 2 37 32 32 30 34 26 34 18 4343 3263 3565 4207 4586 3259 3704 2694 3870 4163 2518 4380 3023 4116 4637 4081 3732 4795 3976 4480 3940 3880 3879 3237 3625 3552 3937 3212 2650 4476 17 2712 2533 4828 3824 3837 2972 4448 3731 3974 3099 3160 4467 2831 3592 3719 4935 4048 3771 3485 2506 2706 3287 3344 2684 2817 2950 3597 3568 3771 3659 3236 4664 4837 3879 3107 3836 3741 2506 3633 13 4077 3872 3700 3990 4426 3934 3271 4218 3635 3068 4803 2751 3624 4897 2834 4401 4332 2931 4840 4466 4840 3443 3075 4637 3157 3807 2745 4574 3378 4485 2916 3758 3109 4685 3527 3244 3559 4042 3200 4035 3628 4513 2990 4853 4468 2651 4841 4290 4512 3128 4016 3026 3202 2683 4063 4770 2690 3667 3066 3814 2649 3584 4488 3630 4167 2603 4247 4765 3112 2711 4204 3302 4090 2733 4256 3967 2681 2756 3399 2676 4712 4127 4171 4152 3391 3733 3854 2820 3261 2801 3051 3485 2888 3986 3562 2811 4925 3669 3547 3561 3543 3704 4126 4189 4362 4305 3175 2655 3363 3988 2966 4462 3674 2763 3182 4479 3203 3568 3753 3346 3496 4047 2751 4257 3335 3490 4692 4311 3812 3710 2690 4078 3860 4317 4229 3250 3110 2997 4157 2733 4474 4610
2 21 21 21 27 24 4 3 12 33 26 39 26 39 34 39 31 22 1 37 9 11 16 7 35 34 4 5 36 11 17 26 26 28 10 26 37 31 39 18 23 26 29 24 29 8 17 16 35 35 34 36 23 34 6 6 22 28 1 5 18 23 26 11 17 11 26 35 19 36 29 13 32 39 30 9 13 27 9 1 25 3 17 14 38 10 3 3 4 36 27 3 30 30 39 17 33 15 36 13 13 2 27 24 26 26 20 12 1 23 39 3 3 1 28 32 21 6 11 13 24 25 26 27 33 25 16 16 22 20 21 30 16 35 26 13 11 7 11 29 7 35 15 12 23 33 7 29 38 28 13 15 30 13 19 27 8 16 8 4 9 31 13 35 8 19 12 33 22 6 16 2 28 14 8 0 15 34 26 36 33 30 19 11 35 1 17 19 5 29 11 10 2 19 15 19 24 37 28 26 33 26 33 17 31 7 8 24 29 14 32 22 2904 2942 2923 3239 4943 2504 3309 4172 4008 4598 4935 3673 3028 3364 4828 3616 2597 4822 3628 4936 3086 3550 4126 3393 3555 4366 3114 4618 2838 2856 3903 4692 4405 2775 4462 3793 4720 2835 3436 4844 4855 3409 3654 4903 3699 4864 3027 3569 3301 4823 3652 4027 3212 2602 3599 3716 3166 4025 2691 4460 4726 3406 4686 3413 4180 3979 4779 3682 2673 3511 3980 2955 4651 3259 4283 4651 2693 3263 4339 4694 4418 3255 4105 3277 3364 4775 2520 4405 4331 3595 2781 4426 4779 3915 4996 3675 2501 3335 3192 2726 2795 4840 4306 2730 4983 2847 4079 4534 4244 3846 3951 2828 3982 3223 4322 2916 4281 3979 4901 4776 3870 2942 4439 2878 3247 4070 2577 3981 3172 3522 2771 4340 4670 2791 3128 4091 3647 4016 3234 4030 4420 4068 3742 3052 4590 3853 4446 2559 3996 4439 4532 3749 3549 4435 4260 4829 3378 3400 3820 3977 2669 2659 4977 4044 3188 4677 4276 2965 4928 4288 4350 3361 3618 3163 3795 2518 2880 2972 3077 4829 2819 4367 3424 3063 2538 3820 4970 4628 4114 3771 3351 3377 2599 3316 4259 4369 3887 4608 3660 4101 3167 4200 4116 4483 4750 2758 4662 3689 3343 3498 3188 3042 3224
38 35 30 8 12 7 33 14 5 32 10 21 22 17 35 12 3 8 18 19 35 12 20 16 17 24 34 33 30 10 8 24 2 33 17 18 23 14 27 5 30 12 18 26 15 33 16 29 11 17 19 28 32 14 21 22 7 19 21 12 1 18 32 37 1 28 29 14 6 35 17 33 31 4 12 37 38 2 17 34 3 21 36 33 29 10 31 7 25 9 12 21 39 15 4 13 36 27 25 11 22 15 35 13 15 39 5 14 7 23 9 14 35 33 12 25 16 35 6 37 22 25 12 29 30 37 24 30 21 25 12 14 18 7 23 32 9 9 13 22 14 6 13 36 17 29 37 32 4 28 1 20 20 8 11 19 36 5 12 13 21 21 14 19 21 13 1 5 13 34 2 13 19 36 6 34 0 20 11 23 36 29 30 33 38 19 17 8 19 19 7 2 14 39 37 1 16 37 7 27 4 36 7 39 10 33 28 10 8 16 38 29 3774 2971 3456 2597 2931 2567 4625 3754 3277 4590 3334 3248 4531 3286 4977 4740 4115 3736 3305 4883 3363 3891 4856 3709 3342 4272 3769 4001 4801 2807 2846 17 3899 3116 3300 3623 4060 2540 3219 3428 4401 2618 4854 3640 4128 4764 2561 3506 4120 3201 3767 2691 2714 4796 4552 4092 4391 3898 3299 3848 4714 3163 3397 3090 2953 3522 3541 3037 3586 4247 3100 3881 3265 4390 2903 2738 2852 3905 4262 3202 3292 4346 4097 4104 4574 2906 14 3813 3450 2932 4506 3127 4163 2543 2662 4719 3297 3758 4943 4823 4530 4050 4620 4021 4226 3240 3905 3404 3021 3107 2979 3531 2804 3690 4986 3747 3806 3799 2947 4398 3450 4113 3959 3665 3269 3248 4820 3375 3677 4098 3738 2631 2788 4356 4642 4942 4217 2816 2997 3877 2757 3624 3217 4758 3178 2764 4143 2507 4398 4388 2857 2743 4351 3433 3606 4434 2621 4312 2867 3350 4616 2724 3552 3546 4822 4766 4422 3930 3538 4440 3080 4071 2761 3161 3942 4883 2576 3782 3540 4226 3811 3941 3610 3865 3183 2717 3401 3597 3400 4934 3912 3640 4108 3759 4052 4175 3219 3511 3012 3731 3507 2740 4645 3184 3143 2554 2769 3289 4538 2767 2566 3333 4048
15 26 8 39 38 21 18 9 13 25 5 3 31 8 2 16 39 36 26 2 20 38 35 33 14 10 31 27 14 9 16 2 5 8 29 2 36 3 35 10 12 2 17 26 32 15 13 25 17 38 13 27 31 31 24 12 25 14 19 7 12 24 39 28 1 30 21 28 31 17 37 18 29 38 27 34 14 31 9 25 22 26 27 20 30 3 11 15 13 24 38 28 19 7 9 8 33 29 33 3 31 39 22 15 16 30 33 14 34 30 14 10 16 37 3 11 19 32 30 5 35 5 37 11 36 36 15 37 28 23 27 22 28 34 2 9 8 14 22 23 15 27 29 35 21 20 5 30 34 10 33 24 7 9 8 4 6 15 3 2 11 12 30 11 9 13 32 28 5 19 21 27 12 11 9 8 33 0 15 29 27 20 26 22 29 28 23 9 20 13 28 2 3 12 9 35 8 35 1 16 21 38 25 11 30 32 39 26 4 21 3 37 3170 2793 2622 2700 2621 3221 3797 2930 3461 3353 3939 4871 4940 3686 4086 2551 4067 4419 3525 4985 4185 4050 4981 3167 2991 4567 4793 4469 2795 3448 4583 5 3762 4129 4052 3742 4905 3751 2798 3755 4503 3777 2550 4659 3824 3556 4178 2569 4622 2605 2527 4407 4406 13 3283 2818 3346 4999 3974 4665 4072 3836 4944 3119 4229 3716 4934 4073 3044 4928 2558 3556 3421 4968 2748 4774 2811 4634 4237 4773 2653 4698 3816 3044 3580 4395 4562 3239 3777 3440 4257 3188 3371 3483 3358 3660 3372 4931 2931 4617 4819 2996 4019 4857 4688 3236 4028 4837 4745 3574 4955 4058 3185 3598 4394 4490 2900 3196 4098 3175 2518 3648 4023 3457 4871 3261 4872 3352 4956 2737 3040 4403 3722 4604 3250 4107 4329 4095 4609 3786 4112 3272 2984 2880 3623 2697 3619 4719 3295 3119 4584 4428 3568 4121 3748 4751 3275 4687 2576 3574 3012 4306 4295 4530 2541 4972 4015 3833 3377 3046 3357 3148 3714 2594 3075 3979 3021 2904 2687 4783 4167 2724 4270 3615 3425 3929 4382 4981 4840 4612 3997 4920 4469 3627 3231 4734 3892 2568 2775 3293 3171 2602 4640 4746 3397 3934 3417 4208 3117 4634 3163 2590 2830
17 3 36 16 36 7 9 39 9 5 28 20 22 32 36 13 5 11 30 37 28 22 4 24 32 32 32 3 13 27 3 36 13 25 4 39 35 13 10 7 7 30 14 13 15 12 19 12 33 20 33 31 29 39 4 6 28 32 27 29 15 6 19 18 25 11 7 19 35 36 20 33 7 28 39 10 35 11 7 4 1 20 26 16 16 37 36 15 35 29 39 9 23 32 7 32 31 19 5 29 36 30 13 39 19 15 2 37 38 27 24 8 39 19 23 13 12 39 28 8 5 39 15 7 27 39 10 4 1 18 25 15 10 28 6 29 10 29 6 35 5 14 18 12 34 15 22 31 17 15 32 6 34 30 30 13 20 32 12 14 26 6 7 32 32 4 16 9 25 2 14 5 9 19 34 21 39 33 0 20 11 16 15 26 13 31 29 10 11 29 18 5 12 35 34 4 1 10 21 32 6 21 12 32 31 25 7 14 36 38 24 9 2814 4669 3496 3287 4635 4516 3641 2770 3647 3795 3152 3083 3802 4007 4571 4114 2938 3934 2929 4522 4308 4584 3953 2913 2793 4719 3321 3710 2724 4552 2959 4716 3701 4093 4653 3999 2858 4089 4405 4348 4569 3896 4475 3539 4161 3155 3259 2782 2544 3267 3880 3022 3047 2882 4509 4750 3130 3773 4873 4308 4010 4621 3853 3752 2787 4139 4163 4312 3460 4410 3039 3592 18 4650 4376 4490 2657 4267 3373 3651 3309 4561 3475 4194 4553 4278 3257 3098 4776 3386 2836 4739 3105 3911 4016 4580 2886 2633 4519 3844 4222 2684 3168 3205 3682 3207 2724 4789 4735 4317 3093 4932 4190 4952 4112 2569 3853 2911 4157 3388 2780 3449 4986 4940 3458 3270 4073 4767 3826 4138 3920 4129 2666 3388 4178 3563 3021 3769 3976 2831 3509 4899 4991 3086 3359 4394 4800 4457 2768 4053 4976 3870 4356 3068 3235 2591 2923 2975 3677 3163 3955 2883 3784 3709 3342 3415 4801 4298 3419 4465 4300 4971 4478 4282 3155 3282 3520 4262 2954 3079 4713 4403 4400 2547 4717 2839 3228 3111 2514 3637 3377 3230 4678 4605 3995 3094 4040 2884 4374 3167 3592 2746 3934 3438 4486 4463 4074 2930 4992 4282 2584 3756 4390
25 37 36 32 38 22 14 18 35 8 16 14 4 11 27 17 34 30 29 32 31 24 23 14 22 24 1 24 19 25 25 23 19 4 3 27 26 20 30 21 32 13 20 10 8 18 33 38 2 9 37 38 4 21 17 14 19 37 35 29 5 35 5 36 5 24 25 27 19 3 24 4 28 35 27 9 20 8 30 26 9 2 7 13 22 13 24 29 2 6 35 28 9 1 22 25 38 32 24 8 16 32 9 1 12 3 18 39 25 19 12 25 2 1 20 36 4 12 13 17 21 16 31 11 13 18 33 29 24 31 29 21 2 4 1 6 34 28 34 6 35 2 26 22 24 39 24 28 5 22 12 19 14 17 13 27 10 6 30 3 35 9 9 28 37 31 7 34 38 24 36 14 21 19 12 24 8 34 33 0 32 30 4 17 4 18 21 12 26 18 16 15 22 9 32 27 2 31 16 1 4 6 4 23 33 38 14 19 14 10 17 21 4893 4669 3955 3406 2544 4959 2723 3377 4595 4318 3799 3839 4011 3128 2694 3898 3462 2524 2842 2712 4532 3426 3095 2928 2694 3554 3993 3073 4442 4581 2826 2685 4756 4160 4596 3437 4561 3318 4050 2581 3582 3987 4726 4691 3517 2858 4826 3350 3305 4962 4189 3853 3952 4350 4577 4115 3604 4676 2559 3739 4407 4735 3144 3384 4003 3127 2667 3521 3827 2939 3605 3925 4109 4233 4481 4428 4833 4493 4685 4681 3786 3157 3540 4047 3984 3449 3143 3283 2591 3446 3777 4223 4362 2925 3094 3963 2789 3482 4597 2527 4745 4917 2957 4095 2807 3186 4433 3761 3077 3075 4933 4291 4266 3898 4065 4704 2750 4134 4901 2711 3785 3089 4783 4086 3678 2941 3053 3422 2758 4861 4988 2800 4042 2646 2743 4997 3679 2872 3268 4899 3383 4578 4030 2776 4446 3739 4437 3024 3147 2964 3841 4127 2767 3752 2632 2904 3855 4425 4955 3659 4360 2672 4615 4142 4925 4319 2976 2508 4236 3845 4837 3641 3658 3703 4453 3428 2686 2582 3368 3390 3242 3406 2635 4439 4686 4733 4115 3439 4930 3389 4214 3412 3940 4140 4647 4482 3467 2559 3153 2797 4644 4179 4161 3631 4521 4578 4011 3229 2838 4262 2877 2785 2896
9 26 19 18 19 14 1 22 13 26 14 34 11 26 13 28 22 1 9 25 3 29 30 15 17 8 39 1 3 11 30 19 1 39 22 39 22 39 16 22 5 13 16 10 14 8 27 2 23 8 16 31 16 10 38 37 39 37 1 14 37 24 20 28 4 32 28 14 3 21 24 33 39 34 2 9 1 17 24 37 9 33 38 37 2 10 11 34 39 5 39 12 14 19 33 31 26 31 12 12 24 27 35 33 29 18 32 3 25 19 14 32 12 26 14 16 20 38 11 32 17 24 21 37 37 10 38 4 8 29 2 36 13 39 23 24 19 36 29 34 29 26 8 16 6 1 9 31 11 9 14 31 33 22 30 3 14 38 1 24 11 27 12 30 5 33 21 4 21 37 1 33 10 28 29 14 35 32 13 19 0 38 23 25 33 19 25 2 18 38 8 33 32 28 36 5 22 22 22 23 8 3 18 36 4 8 9 36 5 11 17 12 4709 10 3879 3271 2672 3697 3353 4377 3365 2855 4764 2986 3500 3968 4095 3757 2997 3155 4632 3198 4292 3192 3538 4022 4911 4676 4902 4465 4814 4346 3865 4250 2993 4711 3519 4719 3425 4515 4374 2760 4852 4890 3548 3969 4140 4343 2589 2640 3984 3765 3976 4743 2862 3671 2552 4114 3732 4352 4432 4919 4911 4489 4452 4318 2633 3454 2994 4607 4540 2966 2982 3265 4134 4495 3297 3530 4369 4198 4491 3044 4400 3834 2645 4039 3405 4552 3047 2813 4885 4067 2587 3143 3256 4643 3734 4232 3304 3198 4927 3193 3948 4500 3477 4876 4664 3172 4514 4130 2823 3677 4485 4543 4537 3094 3980 4220 4892 4979 2699 3552 4717 2684 4067 4847 3557 4677 3737 4072 4622 4321 4118 2760 2877 3703 3766 4723 3458 2812 4312 3069 4282 2760 3665 3394 4064 4362 4669 4970 2948 3125 3535 3532 4445 4474 4114 3266 2712 3728 3710 3069 3615 4473 4686 4659 2652 4081 2559 4986 4476 3474 3464 3673 4101 2510 2571 4712 4227 3510 4263 3285 4724 3611 4427 4279 3874 4549 3257 3157 4846 3269 3748 2680 4512 4298 4844 4103 4434 4109 4211 4555 4282 4141 3410 3585 3494 3652 3485 4903 2689 3404 3982 3954 3117
2 31 17 2 8 10 38 33 17 23 37 2 7 23 30 17 1 35 30 27 14 23 39 27 33 1 25 17 36 36 38 2 10 20 1 35 36 6 5 13 33 28 17 21 14 20 15 11 33 30 27 6 11 19 9 5 3 28 17 23 14 5 31 14 24 37 23 29 8 28 1 34 28 25 18 38 34 20 36 36 13 2 27 29 26 11 39 33 8 31 31 20 21 27 22 6 39 34 22 2 36 31 6 15 3 25 11 1 37 11 22 26 30 27 9 17 38 7 21 34 3 8 22 26 26 39 32 36 18 18 31 28 5 29 8 31 38 33 3 13 3 28 30 12 35 37 29 24 13 1 37 19 30 6 3 33 17 3 2 2 5 38 2 24 29 17 17 9 28 33 9 2 25 30 11 19 30 6 17 39 38 0 35 25 4 10 8 8 15 38 17 25 23 25 34 21 11 12 33 26 14 1 12 16 23 20 28 11 15 24 11 10 4028 4815 14 4542 3525 4816 4095 3725 2949 3382 3491 3152 4255 4854 2639 3909 4067 4815 3163 4908 2837 4514 3668 4242 3203 4538 4472 3712 2609 2792 2610 2730 2588 4722 3434 3574 4292 4433 2532 2809 4051 3137 3982 3091 3008 4163 2822 3300 3848 3927 3910 3514 4711 4094 3599 3094 4907 2976 4875 4022 3451 2505 4053 2778 2801 4795 4968 4359 2862 2627 4435 3137 4775 3062 4897 2655 3136 3778 3019 4492 3649 4982 3659 3398 3702 4599 3712 4119 3942 3539 3692 4683 4864 3539 3121 2891 3106 3519 3795 4430 3894 4442 2663 3806 3249 3717 2959 4709 3429 2861 3901 3895 3733 3946 4405 2805 4010 3181 3767 3138 3625 3046 2649 4761 4559 3714 2712 4184 4520 4488 4427 3979 2650 4015 4950 4058 4274 4046 2763 4954 4618 3253 3729 4100 4913 4272 3446 4210 2924 3806 3364 4097 4497 4879 2887 4366 3512 4323 3747 4673 3888 3957 4412 4784 3564 3391 4475 4212 2692 4976 2984 2588 3823 2626 3464 4400 2690 3506 4812 4008 4016 4155 4876 4039 3023 3378 2665 2877 3057 3415 4372 4119 4588 2750 3166 3032 3978 4707 3354 4208 2942 3531 4846 3657 4029 4010 4311 3728 3063 4904 4461 4980 2839
35 19 23 10 13 18 24 3 34 20 34 27 21 2 16 24 1 18 39 22 36 24 29 11 31 24 4 32 34 32 36 16 22 14 16 18 12 26 19 15 13 9 29 20 29 11 7 8 22 27 2 27 30 16 9 18 3 28 15 32 9 5 6 30 36 39 32 14 14 9 34 33 10 22 2 11 2 3 18 28 9 24 20 23 34 1 10 23 14 24 10 36 13 31 31 11 39 37 34 6 18 21 27 33 23 12 5 22 14 18 10 27 25 4 37 35 7 34 26 12 4 14 6 11 28 34 23 31 18 31 13 16 22 5 11 23 14 39 26 8 9 9 19 3 17 10 18 12 2 10 11 19 7 23 3 14 7 28 6 1 1 1 10 2 10 38 6 37 20 8 37 14 29 4 11 5 10 30 37 25 35 3 0 38 20 1 14 36 17 31 21 14 25 7 13 31 16 21 25 6 9 17 3 5 2 3 37 19 38 4 34 13 3121 4998 2684 2732 4622 4371 3012 2701 4671 4919 4899 4774 4412 3090 4398 3873 3853 3782 4040 3862 2549 2857 4189 4866 2619 4764 3190 2702 4800 4767 4802 3359 3736 3954 4314 2927 2669 3980 4282 2797 2669 3402 3827 4830 2843 3619 3965 3124 2813 2774 2804 4621 4161 4033 3325 4575 4202 2718 2716 3456 2978 2705 3387 4466 3966 3802 4519 2950 3719 4111 4841 4366 3511 2979 3435 3454 3561 3353 3126 4963 2900 3194 3661 3426 4490 4796 3890 4731 2873 4849 3482 4108 3939 4313 4685 4151 2638 2633 4511 4924 2500 4816 2587 3905 3607 2923 3614 3561 3497 2644 3965 4833 2815 4171 3388 3226 4992 3479 2615 3565 3583 4483 4989 4009 2646 3827 3662 3275 3886 4702 4516 3156 4916 3362 2775 4233 4836 3374 4876 4265 4034 3741 3208 3734 2863 4126 4922 4632 3058 4649 4841 3974 4807 3530 4728 2776 4940 3944 4063 2945 2694 4747 4144 3963 4799 2540 3584 3546 3108 3383 2568 4880 2608 2965 3268 3969 2749 3820 3842 3190 3518 4627 4355 3907 2656 4860 3689 2579 3209 3639 3993 4210 4190 3222 3419 3363 4608 3024 4233 3407 3770 4284 4582 4131 3582 4784 2778 4627 4907 3354 3275 3829 3583
4 15 8 15 37 12 23 34 2 19 15 33 28 27 33 30 15 17 29 34 14 18 2 39 37 38 32 14 28 13 19 17 20 24 33 6 39 6 1 30 28 35 5 7 35 33 27 36 4 12 23 11 31 15 4 24 7 33 35 27 35 4 6 32 8 12 20 25 22 39 6 5 34 15 38 9 22 6 39 29 3 1 11 31 24 15 25 19 26 31 30 1 21 38 14 28 6 38 36 22 12 1 22 20 33 12 4 33 35 29 2 13 10 32 17 14 27 12 39 29 10 34 37 29 11 10 32 26 26 25 7 1 18 31 6 34 30 33 14 38 31 30 23 6 3 38 34 18 4 7 7 3 16 29 18 35 33 29 4 17 4 12 23 28 10 32 7 12 20 29 3 22 9 12 30 17 11 23 6 2 23 14 20 0 14 1 31 3 25 15 26 38 1 25 31 17 20 10 31 27 11 6 24 2 29 37 12 28 7 2 36 25 4050 4220 4331 3340 4539 4392 4712 3364 3859 4549 3104 2669 4013 3309 2554 4022 3433 4216 3766 2828 3234 3372 3306 4367 3159 4490 3006 3333 3204 4383 4149 4596 4893 3184 4916 3315 3312 3982 4388 2740 2544 4879 4868 3518 3409 2984 4047 3856 3179 4223 2935 2756 4911 4810 3504 2743 3399 4985 4025 2508 4760 4548 3616 2694 2559 3049 4301 4031 4436 4777 4541 3748 3692 2945 2566 2826 3816 2891 3485 3102 3062 4146 3189 3298 2814 2912 3830 3353 3546 3768 2574 2999 3457 3693 4525 3628 2918 2578 2744 3083 4713 3791 3455 3272 4365 3516 3564 4760 4249 2955 4266 3281 4221 3469 4669 2512 3716 4293 3442 3085 3849 4258 4463 4450 2577 4634 4157 3065 4085 3067 2696 4087 3629 2711 3820 4373 4876 3213 3775 4244 4249 4183 3999 3554 4401 2864 4972 3762 4017 3311 4582 3034 4905 4685 4150 4997 4594 4026 4601 2531 3606 3897 4699 3612 2979 3201 4202 3691 4553 3270 4868 4682 2602 3292 3305 3563 4289 4500 3134 4593 4884 2719 3890 4307 4916 2744 3859 4908 4000 2710 3264 3649 3417 3970 4600 3896 2743 3375 3069 4921 3051 3832 2715 3047 4630 4206 3862 3031 4474 4375 4979 4706 4234
29 3 39 18 4 34 38 3 1 6 12 38 34 7 21 12 4 29 18 22 8 21 18 31 1 10 15 38 31 34 13 17 31 18 25 17 5 2 17 31 9 39 19 9 6 10 35 11 36 34 18 33 25 12 3 5 19 20 2 23 7 15 37 14 31 17 18 29 16 27 4 16 27 10 10 6 15 22 33 21 4 17 16 17 9 19 32 39 22 17 26 3 6 23 36 25 17 16 14 23 6 29 28 37 19 5 26 19 1 24 23 12 14 11 36 7 15 37 10 11 36 26 15 36 9 2 19 38 32 7 9 29 4 2 25 21 18 39 22 17 31 25 17 39 27 8 4 12 20 33 38 13 26 35 17 13 37 2 11 35 25 9 25 36 33 15 30 6 4 36 3 38 27 22 37 17 33 24 3 18 31 12 22 14 0 33 7 32 30 32 38 14 3 29 9 4 24 22 36 10 9 19 10 37 28 12 7 24 19 39 20 6 2611 4154 4054 4671 3519 3156 3611 3793 2824 3901 4535 2710 4622 3788 2876 2844 3321 3364 4508 4831 3430 4859 4322 4089 3770 3329 2752 3297 2684 4851 4119 3059 4954 2739 4378 2987 4115 4098 2622 2624 2898 2938 3085 2771 4521 3448 3102 4688 4978 3448 3515 4041 3817 4419 4700 3680 4150 2520 3649 3154 4221 4059 4034 4933 3189 4854 3229 3364 4165 3456 2665 4157 3635 4080 3773 2602 2561 2760 2982 2906 4539 4114 19 4939 2603 2817 3896 4127 3720 4831 4315 4980 4378 2852 3728 2904 4708 3666 4670 3654 3107 3576 4874 4318 4495 3103 3364 4576 3419 3901 3482 2732 3955 4106 4826 3729 3020 4657 4297 3248 2740 3132 3202 2893 4792 4432 3374 3950 3274 2656 3539 2887 4057 2809 4037 3882 3184 3229 4198 3547 4955 4953 2802 3175 3099 4994 4201 3890 2814 4673 3503 4396 3069 2925 4814 4031 4084 3052 4558 4747 4939 3881 4214 3766 3038 3021 2729 3055 2575 3896 2766 4556 3618 4867 4152 4032 2526 4062 4257 4438 3919 3158 3631 2501 3966 3239 3177 3388 3789 4561 4353 3944 2594 4270 3361 4388 3058 4152 4705 3499 3226 4817 3052 3398 3066 2736 4203 4462 3792 4081 3692 3899 4748
10 25 30 15 11 35 29 24 38 25 32 11 36 23 23 4 3 20 21 5 31 13 26 13 11 7 17 38 14 19 4 13 16 17 12 28 11 32 30 7 16 27 19 26 19 8 34 12 9 38 33 13 8 5 33 24 30 4 21 25 38 32 5 8 14 13 35 37 7 3 19 5 28 26 28 28 36 27 25 15 32 5 30 21 32 34 26 38 27 17 32 28 6 17 27 1 1 31 20 14 9 22 25 34 11 4 10 24 22 24 6 26 34 39 9 16 32 20 10 24 8 30 29 16 18 1 39 7 10 27 24 22 39 2 21 9 17 22 20 2 39 6 3 13 28 26 11 1 13 32 28 38 33 10 8 12 37 15 39 2 30 9 32 34 33 5 13 14 35 6 8 14 2 10 17 34 30 31 14 14 33 31 11 36 31 0 18 31 39 19 32 16 7 33 6 39 30 37 8 38 16 15 9 10 8 39 32 14 37 26 12 26 2910 4607 4656 3487 2674 3478 3365 3823 2756 3183 4103 3848 4190 3837 3083 3177 2849 3182 4231 2634 3993 3725 3268 4735 3289 3423 4215 2549 2543 3168 4317 3559 3106 4017 4448 3903 3601 3278 2808 4922 4469 3287 4980 2952 4463 3674 2753 4899 3963 3887 2963 4394 2969 4971 3510 3349 4059 4544 3004 2957 4081 4536 2847 4933 3493 4873 2914 4060 3310 3747 4824 2858 2918 4509 3890 3253 4908 4230 3806 4375 2933 2925 3647 4707 2622 4816 3721 3656 2631 4270 4608 4013 4659 4970 3988 3408 3054 3918 2686 4858 4639 2831 3755 3513 2817 3902 3214 4723 3487 4355 4811 4299 4097 2661 4591 4359 3096 4280 2593 4680 3212 3482 3446 2659 4064 4975 4849 4766 3626 3395 3187 3180 3759 3424 2795 2822 3742 4667 2609 2600 4984 3401 3736 3340 3525 2857 3323 3561 2727 4560 3701 4888 2995 4009 4138 3926 3350 4025 3912 3927 3438 4165 3969 4659 3602 3763 2938 2908 2675 3089 4493 3575 4866 4042 3058 3282 2709 3169 3488 3537 2501 3156 4040 2619 4400 3093 4877 2569 4428 3105 2847 3453 4676 4860 3189 3193 3363 4231 4073 3513 2662 3366 3906 4273 2551 3005 4538 4295 3674 3965 4127 4311 3919
5 19 17 18 31 16 4 5 22 26 24 24 20 20 13 19 8 21 16 36 9 38 18 33 19 34 17 22 13 25 14 38 2 27 31 37 29 26 33 25 8 26 17 1 26 1 13 35 22 10 10 29 12 1 22 9 34 7 22 22 33 18 33 12 7 29 15 26 39 12 23 14 23 23 8 16 15 29 10 18 4 32 9 34 10 37 16 34 24 3 10 4 37 38 28 6 27 34 9 35 31 38 26 24 21 17 3 31 9 29 8 5 9 19 17 21 21 30 12 38 12 32 12 4 33 28 1 35 11 23 36 14 12 35 25 25 27 11 39 28 34 18 7 7 4 7 20 11 35 7 28 26 36 6 6 28 30 3 33 18 37 33 37 9 25 2 33 7 17 24 18 25 20 2 6 37 16 16 30 19 37 6 28 28 28 26 0 6 33 25 26 11 27 20 36 5 22 15 16 38 17 22 5 7 6 35 20 29 9 5 20 13 3448 4349 2995 4229 4218 4729 3992 4283 4798 4562 3018 3349 2582 4338 2944 3841 2644 3857 3138 4720 4022 3721 4127 3729 4152 4496 4584 3015 4553 3859 4585 4594 4797 3413 2872 4167 3373 3045 3235 4491 4578 3997 3762 3238 4840 2870 4938 3714 3322 4479 2730 2806 3468 3953 4005 3015 3593 2721 4836 3665 4276 2870 4441 4875 2783 4264 3696 4357 2936 3597 3887 3250 3885 3128 4250 3455 3304 3666 2742 4160 4522 3210 3303 4771 4651 4277 4123 3895 3479 3625 2535 3667 4473 2502 3699 3977 4643 4244 4378 2781 4616 3232 3698 4933 3713 4313 4211 3723 2644 4937 3312 4202 4747 2678 3323 4552 4894 4988 3130 4820 4265 2918 3405 3516 4765 2682 4873 2872 3268 2979 4155 3871 4673 2653 4789 4220 3365 4717 4468 2721 2608 4112 4598 3417 3613 3315 2892 4918 2958 3405 3741 3246 3629 2705 4660 4204 3410 3772 2694 4559 3261 3737 4756 3763 2956 4627 3902 4868 4234 4753 3414 3040 2826 4039 2605 4561 3405 2556 3596 3632 3653 4689 2854 2973 4464 3101 3246 3257 2545 3841 2758 4529 2806 3535 4004 3324 3129 4777 4382 4788 3190 4842 2613 4258 4698 4583 3950 4371 3843 2855 3250 4447 4916
8 30 22 35 19 35 35 13 21 29 20 7 14 10 28 10 32 32 5 36 31 25 2 2 14 22 8 17 6 34 6 26 3 23 17 5 24 34 12 3 31 23 23 5 20 17 30 10 26 25 18 27 5 7 8 6 37 15 39 30 36 11 3 26 33 38 35 9 17 7 35 5 39 39 19 31 4 34 17 19 14 4 30 16 1 37 18 5 33 15 4 11 3 9 19 22 13 39 4 34 8 30 22 8 5 19 25 18 16 32 2 38 28 3 16 26 36 24 13 26 14 25 15 30 12 24 14 2 5 18 22 24 35 22 32 9 5 35 12 3 15 3 17 35 31 37 12 33 11 16 21 30 3 19 29 27 18 10 27 16 23 39 13 38 14 13 26 21 23 10 25 28 14 12 34 27 3 24 29 19 32 23 28 34 39 18 27 0 29 36 22 36 10 31 6 19 36 19 30 36 22 31 13 21 10 5 6 32 33 28 34 24 4274 3290 3474 4449 2656 3628 3861 3304 2676 2579 3837 4745 3126 4891 4294 2597 4218 3569 3937 2743 4237 3606 4052 2776 3993 3876 4221 3041 3823 3248 4785 3811 4080 4327 3179 3339 3493 4302 4227 3875 4841 3966 2572 3452 3990 3112 3303 4973 4543 9 3882 3351 3234 3029 4744 4210 4279 4802 2590 4780 2728 3340 3973 4312 4901 2598 2820 4016 4453 4129 2651 2596 3585 4675 3107 3138 3684 2894 4930 3237 4348 3776 4432 4693 4272 4442 3648 3527 3865 2991 4123 3853 2857 2874 2973 3157 4225 2979 3580 2812 4984 3635 4770 4434 4172 2521 2796 2878 4946 4000 4635 2652 3891 4670 4112 3663 3813 3735 4160 3376 3508 12 4568 2816 4171 2636 4479 4926 4066 3663 3530 4342 3261 2864 3681 3899 4607 3633 4165 4366 2793 3560 4867 4225 2812 4347 2612 3219 3088 3167 2511 3132 3355 2977 3537 3016 4280 3716 3463 2824 4138 2658 4272 4963 3739 4522 3652 4503 4997 3626 4000 4950 2589 2749 14 3393 4940 3625 4372 4195 3291 2668 4000 3980 4536 2701 4313 4732 2697 4346 2974 2705 4233 3615 4621 4764 2558 3062 2786 3386 3089 4389 3374 4936 3706 4661 4601 3613 4094 3427 4965 4783 4731
6 27 13 1 2 10 32 22 23 16 28 6 29 32 23 22 2 25 13 2 2 12 26 33 21 4 30 28 24 29 16 22 28 35 36 2 12 9 30 17 11 25 28 25 18 11 36 9 36 3 11 21 14 36 11 38 29 34 11 32 2 14 13 20 28 13 30 2 36 39 7 39 8 10 27 10 36 2 8 2 3 38 39 34 21 15 26 27 37 11 8 20 27 6 29 32 32 28 10 39 29 36 27 29 15 34 27 30 12 22 38 2 5 37 37 27 35 9 24 15 34 6 11 21 7 31 10 16 5 6 33 27 21 19 9 30 11 2 32 24 9 21 10 17 26 5 7 24 8 18 2 8 26 2 37 24 39 27 21 10 16 1 2 14 1 39 6 18 14 24 38 5 30 34 28 16 23 38 6 17 23 5 32 4 20 11 25 2 0 13 31 8 33 33 9 24 3 35 19 8 20 13 16 27 21 33 13 20 19 1 21 2 4126 4659 3106 3679 3571 4771 3736 3921 3379 4622 4693 4552 4058 4893 3792 4605 3024 2777 3348 4031 2847 3442 2616 2776 2979 3577 4580 2670 3094 4108 3676 3620 4900 4684 3139 3277 4753 3089 3957 3607 3628 4054 4669 3341 4563 4837 4139 2770 3427 4382 2649 4984 4516 2914 3474 4155 4110 4576 4611 2802 3377 4405 3457 4154 3604 3043 4663 3033 4870 4739 3078 3538 4998 2820 4378 3997 4039 2948 4447 3304 2627 2996 3300 4812 3047 3967 2957 3020 4761 3600 2627 3161 2762 4380 2945 3316 3288 3506 3224 2543 3428 4210 4769 4932 4407 3898 3559 3941 3195 4586 2640 3075 3361 4856 4483 3799 3512 3824 4114 3357 3119 3159 2919 4121 4642 2739 2574 3702 4153 2726 3219 2507 3950 4779 3039 3506 4065 3934 3297 3243 4725 4403 3018 3711 4314 3260 4137 4654 3388 2817 4933 4207 2715 3906 4335 3033 4319 3733 3569 2927 4487 2768 3034 4849 3552 3916 3558 3500 4632 3625 2908 3745 4991 3483 4675 4554 3174 3104 2923 4453 4338 3783 3402 3205 3158 4086 4256 2988 3850 2514 3292 4116 3617 3981 2712 4638 3452 4680 4503 4675 3258 3519 3162 4516 4037 3951 3484 2955 4464 3693 3337 4118 4711
29 9 16 17 29 30 24 23 23 30 35 9 25 5 15 24 20 33 1 31 15 2 13 1 33 34 12 29 16 2 25 5 17 30 19 19 34 18 11 27 33 20 2 37 33 10 31 28 33 23 17 37 20 19 18 13 12 32 15 32 25 5 23 1 19 34 9 36 12 21 8 19 7 10 9 24 21 23 10 27 26 14 20 26 16 26 10 11 36 3 29 30 10 31 34 7 2 32 35 15 2 38 24 20 38 39 9 29 6 35 16 18 26 14 9 34 10 13 11 14 25 30 28 26 27 33 11 24 6 9 12 2 9 35 36 32 27 6 10 10 36 9 15 6 17 22 3 27 34 9 7 3 37 25 4 25 5 38 16 37 7 25 32 26 37 39 33 35 1 3 30 10 23 4 11 14 34 10 17 32 5 33 37 14 8 33 4 15 17 0 2 34 28 21 31 9 25 25 6 30 15 20 38 11 26 32 28 30 28 37 17 14 4511 4344 2897 4542 3234 4748 2969 3716 3522 3360 2712 3904 4235 4118 3617 3737 3727 2523 2832 2949 4120 2940 3954 3823 3509 2739 2730 4060 4440 4031 4605 4442 3612 3885 3838 2618 4849 4718 15 3494 4714 2818 3288 3463 2821 2902 4725 2611 3349 2556 4645 3556 3118 4504 4263 3658 4545 3447 3454 3890 2751 4613 3688 3491 4366 4776 4452 4553 4226 3102 3876 2704 4080 3839 4612 13 4418 4650 4663 2945 3417 2923 2939 3336 4575 4070 4534 3365 3084 3036 3961 4899 4134 4192 4778 2643 2807 3265 4248 4172 2961 3585 3393 3030 3391 4185 3004 3646 3897 4164 4810 3153 3799 3410 3801 2881 3457 4419 3600 4004 4464 3783 3178 3099 2885 3885 3283 2695 4642 4426 4224 2558 3798 3877 3523 4954 4156 2501 3344 2693 3676 4208 2830 4351 3034 3774 2830 4397 4485 4756 3315 3699 3790 4996 4714 4772 2719 4599 4191 3783 4086 3323 4404 3785 4596 4449 4642 4287 2617 3479 4352 2764 4463 3294 4657 4196 2773 2923 3402 4147 3339 4111 2729 3254 3876 3684 3276 3448 2618 4553 4950 3613 3006 4909 4959 3577 4669 3845 4849 2754 2789 2835 4209 2873 3964 4574 3756 3160 4141 3732 3096 4946 4567
22 30 22 27 28 5 13 30 15 15 21 2 11 20 38 11 25 28 8 28 26 20 31 3 7 17 29 5 17 39 27 35 2 10 12 38 14 10 39 28 2 4 25 17 28 1 21 7 14 28 39 17 22 38 4 8 6 30 24 17 23 35 36 12 36 26 39 15 19 14 19 3 24 4 18 3 1 39 2 14 32 30 35 29 35 1 3 23 38 29 34 38 32 25 17 24 17 18 20 10 27 5 4 15 31 17 23 23 5 9 38 35 20 29 38 38 16 4 4 24 27 1 23 13 10 23 20 14 4 23 21 22 37 34 31 39 8 21 36 9 10 36 31 27 30 25 9 15 1 17 7 35 2 8 24 26 33 30 39 27 34 32 22 4 29 21 18 1 13 24 6 19 9 37 25 31 6 31 21 19 39 37 8 26 31 10 21 36 25 21 0 5 19 6 13 13 21 5 1 11 21 6 13 6 39 36 4 31 25 25 17 3 4741 4921 4019 2767 3765 4430 3426 3996 4715 3770 4469 3327 4645 3560 4026 4876 4909 4908 4059 4422 3808 2653 4320 3798 4288 2851 2686 3228 2655 4216 2683 2838 4956 3396 4613 3698 3610 4741 4051 4709 3597 4641 4212 3894 4932 2710 4119 3569 3298 4782 3344 4727 4173 3878 3159 3776 4473 3738 4361 3441 2819 4042 4004 3755 2644 4726 3616 3848 3438 4380 2673 3625 3556 3497 4622 3149 3416 4776 3454 4140 3404 4416 4768 3224 3849 3886 4674 4764 3636 4886 4642 4118 3707 3068 3197 4489 2791 4827 3716 2928 4390 3393 3054 4739 4677 4075 2540 3942 4748 4242 3149 4418 4663 3807 3765 3155 3241 2677 3369 2568 3720 4543 4165 4213 4078 4920 4904 3717 2957 3848 3236 3621 4445 3123 2853 4948 2794 3446 4355 3431 4728 4181 2998 2959 4399 2718 2825 3863 3259 2778 4196 2772 4337 3348 2602 4961 3677 3174 2706 3543 4546 3670 3253 4308 4009 4534 4344 3331 3534 2908 4286 2961 4821 2730 4030 2512 3921 3410 3254 3316 3485 2501 3328 2690 4511 3925 3852 3240 3313 4263 3849 3378 3969 3129 3263 2709 2921 4766 4995 2907 3003 3001 4322 3373 3818 2997 3244 3370 3782 3438 4989 4517 4636
28 27 23 35 24 33 15 4 26 38 1 3 5 25 15 10 20 10 4 8 23 9 11 33 8 16 27 27 9 30 37 25 7 38 26 12 39 33 10 29 6 11 10 15 29 28 37 12 4 37 32 6 21 10 6 14 36 33 22 3 37 25 30 14 9 21 25 4 31 30 22 31 32 1 27 28 24 11 19 8 25 17 17 20 13 16 11 33 36 10 24 29 13 28 37 17 17 29 31 11 18 26 18 11 4 20 35 37 22 31 33 4 27 4 20 9 18 15 7 8 19 28 5 6 20 29 1 9 38 4 34 8 15 1 6 3 17 12 26 7 22 26 20 8 6 15 30 21 31 33 36 9 18 13 31 14 1 1 25 22 20 35 10 6 4 18 17 19 7 6 34 28 9 1 24 23 6 7 11 15 2 8 31 22 27 38 29 17 22 21 35 0 13 12 13 5 37 1 3 17 25 1 36 13 20 37 6 1 28 29 5 2 4635 4868 4322 4427 2628 3441 3271 3780 4045 2691 3102 4932 4466 4774 2519 3606 3315 4952 2729 4726 4076 3740 4995 4105 4160 4126 4253 3752 4577 2827 4596 4302 4425 4290 3228 2518 4402 4770 3852 4519 3087 4519 3313 3590 3806 4667 2681 2708 3902 4496 4490 4237 2952 4076 4260 4998 3250 4103 3124 4817 3276 4572 2571 4710 4771 2637 4770 4142 4611 3451 2632 2799 3050 4789 4066 3947 4006 4714 4047 3517 3786 3934 3314 4354 3813 4666 3402 4119 4672 4824 3534 4769 3435 4350 3751 4362 3222 3780 3620 2756 4261 4598 2613 3472 4758 2789 4543 3982 3650 3725 4318 2848 2887 4459 3619 2591 3824 2761 3709 4290 2523 2878 4322 3787 3766 2835 3949 2712 2912 3616 4581 4457 4076 3565 4180 2903 4076 3442 2714 4946 4790 3744 3510 4126 4515 3969 2972 2936 2899 3237 3746 4898 3038 2719 3660 3801 3818 3789 4292 3415 3418 4617 2944 2741 3843 3897 2953 3808 3900 4089 3543 4231 2733 2573 3307 2648 4510 4279 2982 4148 4620 3017 4595 2961 2987 3462 2904 3796 3147 3469 3348 3745 4935 4471 4010 4581 2684 3052 2775 4854 4001 4739 4077 2677 2542 3478 2667 4290 2588 4861 4298 2592 4238
33 17 28 13 9 13 31 38 18 36 12 24 25 17 29 27 34 31 35 19 11 10 14 19 17 8 11 25 24 36 13 39 15 10 33 39 31 27 12 37 14 30 18 13 16 28 4 15 33 35 9 39 22 16 17 8 36 12 39 13 27 24 20 37 35 4 29 29 18 21 17 8 30 22 21 39 23 4 20 31 33 35 5 8 25 33 35 13 28 26 2 22 4 17 33 2 3 30 22 33 2 24 3 26 12 2 16 20 10 37 6 29 30 2 28 13 29 21 22 33 9 12 7 4 14 28 18 11 36 18 18 11 29 36 7 17 37 30 39 13 19 25 14 19 10 31 5 34 3 15 39 13 10 13 26 39 5 3 36 34 12 18 27 36 20 29 31 9 10 28 31 9 31 31 27 6 24 9 2 20 36 19 35 33 26 13 9 3 1 8 4 8 0 14 8 6 5 24 23 15 1 20 24 17 27 1 22 35 15 22 1 8 9 2789 4730 4134 3261 2972 3521 3991 4238 3580 3126 3803 3117 4304 3714 2681 4426 3816 4814 3966 4459 4527 3187 2983 4078 3177 3866 2591 3050 2721 4651 4633 4199 3993 4203 3310 2729 4635 4734 4815 3886 4138 2686 4361 4151 3531 2523 3062 2981 4162 3565 4861 3027 3247 3918 2693 4490 4059 3452 3453 4910 4110 2935 4370 4426 3977 3535 4750 3244 3332 4874 2638 4178 2973 4735 4351 4281 3303 4906 2558 3892 3505 4027 4224 4064 2876 3774 3940 4989 4241 4433 2882 2743 3793 4447 4781 3019 2574 3969 4647 4430 3258 3640 4069 3324 2975 3589 4695 3277 4423 4722 4453 2692 2606 4262 2820 3518 4576 2581 2774 4842 4438 3195 2573 2978 2875 3188 2700 4389 4867 3253 3823 3446 4098 2967 2604 3910 4812 3743 4653 3453 2722 2966 4786 2911 3351 4984 3501 3273 2595 2810 2776 4104 4156 3537 3249 3310 4329 4620 4237 3362 3786 3014 2742 4590 4024 3587 4151 4249 2728 4807 3960 3224 3719 3593 2888 2801 3560 14 4880 4173 3434 2588 2581 4946 4770 4239 3863 3725 2588 4084 2722 4486 2501 4605 4351 3303 4169 3482 3300 4210 3445 3853 4774 2732 3692 3833 2866 2666 2756 4339 3585 3841
17 9 14 23 14 17 35 7 38 9 10 30 9 23 23 32 11 39 32 38 2 6 36 6 33 19 36 32 33 17 21 4 6 22 4 1 36 4 8 13 10 27 29 33 10 23 5 32 36 13 12 3 10 2 31 15 37 27 18 32 13 36 29 16 18 16 2 7 15 30 21 16 39 10 17 11 11 30 20 28 34 14 34 7 28 13 1 32 29 30 39 1 24 9 35 29 4 12 27 18 23 7 27 6 19 10 24 27 16 18 9 20 22 28 17 19 4 22 14 24 22 27 12 38 25 39 16 5 23 21 5 15 26 17 20 30 39 32 37 39 28 17 29 17 35 10 14 1 18 34 29 22 13 10 39 21 20 38 28 16 33 30 21 36 37 18 18 26 39 32 2 19 23 13 6 34 18 17 21 15 26 30 26 37 37 5 22 28 7 16 32 23 19 0 1 34 17 3 27 5 16 11 10 34 12 30 37 32 23 33 37 2 3236 4266 4748 2523 3491 2855 3136 2727 3932 3400 2738 4775 4523 2523 4968 4403 3560 3794 4764 3509 4819 3349 4981 3916 4962 2672 2509 3510 4515 3721 3960 4264 2584 2922 3481 3824 2859 4229 4487 4044 4473 3864 4120 2717 4831 4348 2871 4542 2855 3153 2708 4063 4733 4257 4993 2524 4066 3127 2524 3612 2763 4056 2737 2537 3241 4303 3835 3455 3188 4840 2782 2978 3002 4212 3026 3710 4927 3568 3523 4611 4705 2615 3909 4794 4501 2527 3981 4760 4529 4603 3903 4072 3729 4234 4060 2630 4389 4445 3460 3693 4574 4359 3297 3508 3888 4827 4349 3056 2980 4312 2794 4003 4051 4563 2624 4562 4277 2914 3064 3187 3483 2915 4497 3370 4477 4358 2520 2707 3962 2862 4937 3482 3871 2719 3294 4527 2732 4357 3585 2634 3734 4365 4636 4722 4031 3578 2565 2794 3164 3665 3226 2697 2852 3120 4675 4955 4375 2590 4001 3762 4571 4864 4278 4076 2777 3600 4212 3197 3522 2747 4647 2766 2873 3154 3811 4783 4792 2816 4206 4833 3750 4793 2539 4791 4321 3186 4959 4062 3993 4483 4086 2576 4507 2582 4090 3635 3775 4942 3454 2904 3040 3272 3117 2869 4519 3202 2560 4258 2589 3057 2753 3109 3683
23 15 10 16 1 35 21 39 4 15 23 20 21 32 9 17 37 11 39 24 17 16 39 6 5 6 26 18 1 17 20 15 32 1 31 23 35 38 2 15 34 1 15 36 6 27 31 17 6 34 29 29 33 6 16 34 11 37 3 30 15 4 12 38 34 29 6 9 35 20 11 19 7 38 21 3 20 19 34 14 3 13 13 12 8 30 28 25 19 23 21 20 38 22 12 21 34 35 29 8 20 25 33 24 12 18 33 32 16 10 15 30 18 38 21 33 23 21 1 6 5 20 33 1 29 36 32 36 8 15 1 23 33 30 2 13 19 8 39 13 13 5 2 12 28 16 16 10 16 7 30 31 24 4 7 26 7 1 22 36 33 16 23 26 3 19 20 18 15 13 22 38 25 38 22 22 4 34 9 4 28 8 9 27 35 14 10 21 11 29 25 39 7 4 0 25 6 4 16 21 39 32 7 28 30 8 7 16 5 4 28 3 2959 3921 4582 3582 3112 2851 4659 3754 2955 3048 4294 3992 3075 3822 2885 4733 2860 2560 4091 3011 2575 3914 3398 4697 3880 3087 2956 2813 4976 3232 3536 3402 3473 3789 4178 3184 2900 4755 4412 3856 3971 3619 4120 3550 4423 3314 3940 4273 3986 3713 4843 4777 3149 4601 4425 2604 4060 2616 4923 3632 4118 3570 4878 4959 2548 4697 4151 4946 3024 3132 4330 4974 3576 3212 4029 2537 3121 4308 3697 3373 4601 3100 2868 2697 3002 3233 4900 3344 3683 3184 3077 3616 4464 4868 3533 2894 2580 2891 3786 3811 4940 4593 4236 4151 2603 3379 3617 4334 4110 3344 3849 2741 3670 2957 4298 3690 3324 4410 4686 3741 3406 3956 3582 4490 3998 3260 4995 2719 4968 3197 3685 3353 3612 3220 2500 3288 2574 3240 3170 3862 4870 2932 3200 4142 2700 3331 3215 4301 4726 4574 3040 3267 3328 4516 4445 3789 4387 2650 4771 3399 4007 2977 4177 3911 2908 4323 4849 4938 4480 4348 3500 2852 3861 4461 3731 4187 3786 4981 4525 3209 4387 4076 4769 2666 3164 4509 3658 4505 4861 4588 3060 4089 3210 2576 3826 4686 4716 4591 2998 4629 3312 3346 2544 4532 2794 4266 3416 2844 4966 4227 2824 4638 2627
9 20 36 37 27 22 12 2 18 34 24 22 25 2 12 19 35 4 28 2 32 24 16 13 37 17 11 37 19 16 32 20 33 12 24 8 38 1 10 39 25 11 26 27 22 31 3 3 16 16 8 25 3 30 9 21 28 4 2 11 23 11 27 34 23 14 14 20 22 28 18 3 23 24 2 22 22 28 30 35 13 19 30 25 23 24 7 26 27 23 20 29 3 14 20 23 31 8 37 31 16 19 11 17 31 31 31 29 28 16 8 20 2 13 29 35 11 27 27 3 23 8 39 12 9 9 22 20 8 15 15 1 20 29 19 4 31 27 30 28 35 18 16 30 26 32 12 31 26 13 38 35 29 37 14 17 5 27 37 29 8 29 6 39 14 11 39 32 34 21 20 29 20 6 28 29 24 35 28 27 33 14 32 19 25 27 13 6 34 11 5 12 31 28 31 0 37 1 28 21 22 2 36 31 4 33 14 7 16 21 9 15 2504 3326 4852 4159 3809 3670 2629 2686 2709 2565 4166 3848 3611 4331 4471 2594 4952 4592 3647 2815 3795 3038 3788 4140 3616 3201 4678 3849 2731 3074 3410 4605 4704 3746 3146 4175 3511 3392 4788 2509 2997 3731 3626 3990 4000 2936 3675 3105 3826 4841 3842 4105 4858 2829 2729 4028 7 3288 3998 4630 3836 3396 3103 3239 3946 4639 4300 3058 4056 3751 3204 4150 4321 4644 2659 3161 4293 3790 4853 2725 2612 4934 3585 4037 4009 2919 4545 4130 2651 4200 4018 2778 2814 2872 2674 3857 4282 4165 4794 4081 4158 3724 3248 4791 3469 4739 2850 3159 4379 4051 2702 4551 4100 4867 4298 2578 3126 4185 4406 2627 3683 4853 2812 4100 4625 3855 3057 4399 3360 2808 3618 4003 3558 4761 4120 4545 2618 2969 3876 3089 3820 3903 4446 3922 3292 3143 4223 3684 3890 3776 3434 2736 3220 4244 4040 4435 4093 4624 3072 4628 4105 3810 4481 3571 2590 3411 4014 4617 3743 3140 4597 4645 4099 3181 4296 2667 2845 3386 2753 3044 4898 4596 3400 4489 3359 4005 2748 3714 2631 4913 3745 3416 4980 3597 4231 3858 2704 2633 3557 4737 4305 3272 3593 2561 4934 2846 4358 3440 3672 3478 4294 3377 3353
27 7 6 26 7 10 1 14 33 35 6 5 2 25 12 21 35 24 1 34 15 15 37 26 13 9 21 16 8 1 36 31 11 8 15 33 25 14 35 30 1 32 22 20 22 16 21 26 13 38 19 31 15 18 21 4 10 3 33 37 5 23 24 28 29 9 4 4 17 15 20 7 5 6 1 8 19 14 25 13 35 2 1 39 32 28 1 5 39 26 23 39 34 2 33 1 4 16 9 31 16 29 11 21 30 38 24 37 23 20 1 20 3 13 25 14 4 17 17 33 4 4 35 12 6 37 20 19 30 9 27 28 22 11 36 10 18 29 19 2 20 15 6 17 11 17 33 37 18 32 21 26 23 35 29 16 30 17 38 33 30 34 2 33 39 25 34 15 1 13 39 28 26 2 28 21 37 37 26 37 26 2 11 32 23 2 10 27 5 17 19 33 33 15 23 15 0 28 15 13 24 21 9 6 34 7 1 30 13 31 1 26 4421 4230 3473 2536 4106 4140 4338 2892 3400 3987 2832 4863 2984 3838 2896 4473 4621 3922 2810 2853 3385 4914 2863 4794 4349 4217 4006 3809 4541 4204 4742 4296 2520 2909 4327 4107 3781 4312 2992 2652 3016 4865 3612 3409 3081 3625 3756 4607 2781 2978 3656 3665 4818 3223 3968 3631 2964 3477 4778 4916 3281 3322 4357 3467 3611 3426 4157 4788 2698 4394 3942 2746 3260 4330 3091 4638 2598 3751 4376 3459 4429 3101 3866 15 4293 3804 3875 4265 3627 3478 4510 3912 4174 4246 4061 4321 3423 4846 4404 3122 2758 2960 4758 4854 2813 4107 3739 3164 3770 2940 2897 3473 2700 2579 3070 4186 3261 2925 4432 3344 4658 4153 2529 2803 3374 4890 4590 4323 4170 3213 2823 3521 4842 3022 4923 4003 3592 3988 4831 4868 4005 3579 3934 3985 2653 3061 3326 3270 4053 4478 4666 2617 4421 4408 4292 4251 3055 4415 4002 2675 4745 4170 3234 3548 4390 2611 4214 3226 2542 3130 2640 4842 4782 3344 3549 4266 4795 3958 2825 4580 3941 3625 3345 3434 2632 4169 3958 19 3567 2933 2852 4684 4238 3821 2987 2735 2769 4256 4733 4457 4134 4659 4185 3805 4863 3781 4434 3387 2545 4466 2827 3909 3599
5 23 4 28 16 26 33 36 7 13 16 31 17 28 4 6 36 18 38 11 8 25 8 35 2 33 38 29 35 38 3 19 19 10 13 20 15 34 17 18 34 24 32 21 31 32 9 30 37 20 35 22 26 32 32 33 31 31 11 18 36 14 6 25 7 5 3 26 30 9 22 9 1 15 18 21 37 29 27 30 14 15 34 17 24 12 34 15 13 28 29 10 36 6 1 27 26 38 26 13 22 11 13 13 34 8 3 6 11 14 34 12 18 35 20 15 37 23 4 34 30 25 16 6 9 34 3 7 27 29 36 10 35 31 23 1 35 19 21 8 4 28 16 9 12 2 10 5 23 27 39 9 10 29 34 30 8 26 6 7 17 9 37 16 25 19 19 10 25 28 18 8 28 2 26 29 23 38 12 4 8 12 6 28 35 32 15 11 39 24 17 38 4 7 12 26 16 0 30 9 36 21 23 15 5 20 12 26 17 25 23 35 4055 2999 4632 2967 3918 3347 3479 4403 4224 4367 3419 3783 2795 2721 4143 2973 3948 2932 4364 3020 3342 2970 4806 2780 4411 4303 4793 4294 4827 3169 3781 4490 4238 3379 2531 4212 3759 2535 3602 3105 2742 3933 4994 4251 4248 4115 3714 4701 2521 3055 3851 2910 4706 4167 3284 4974 3310 4757 3324 4025 4899 4112 4002 3010 4220 3926 2644 2755 4927 4527 4381 2845 3899 3323 3609 4090 2803 4915 3390 4004 3892 2640 4845 3319 2528 3683 4011 4138 3351 2748 2559 3171 2816 3301 4607 2741 4448 4157 4304 4662 4875 3901 3535 2543 2775 2569 3297 4558 2735 3941 3313 2833 3590 4642 3731 2914 3728 3623 4965 4099 4286 3334 4146 4807 3684 3087 2669 3695 2881 4843 2594 3268 4279 2541 2950 4813 2730 3142 3816 4693 3583 3004 4694 2829 2988 3431 3640 4293 2933 3764 3452 2578 3785 4251 4698 3113 4278 2803 4145 2823 3646 4532 2887 4247 4287 3115 3148 4612 2979 4281 2581 4389 3926 4605 3652 3040 4683 3360 3014 2887 3587 2965 2634 4271 4467 3948 3556 4169 4014 2773 4679 3009 2505 3669 4256 4167 4125 3502 3268 4908 4931 4951 3029 4574 2824 2843 2964 3628 4428 3913 2549 3227 3816
6 36 28 31 3 11 1 11 39 29 28 29 20 18 9 13 31 39 31 28 31 29 35 16 9 37 18 18 29 12 3 29 10 17 32 3 31 4 39 34 6 14 13 29 1 5 19 33 38 28 3 33 13 11 22 8 34 17 38 28 39 10 34 14 3 18 33 16 9 38 36 36 2 9 9 30 14 3 3 17 23 23 4 25 5 7 24 33 33 38 30 13 3 38 37 29 34 3 17 38 32 4 18 10 25 28 12 19 17 38 22 3 10 16 28 1 27 13 14 14 2 1 20 16 30 5 12 1 26 24 38 17 36 2 35 36 25 17 13 7 18 27 22 16 27 25 31 23 32 16 14 4 8 34 28 5 30 15 6 38 20 23 37 28 36 15 22 31 6 16 20 36 34 5 7 35 39 32 29 6 22 15 32 36 28 22 22 28 16 36 6 18 16 33 19 27 23 9 0 2 36 23 7 32 14 26 32 36 19 17 39 25 3099 3499 3952 3308 2721 4653 4757 3706 2830 4807 3118 4769 4562 3626 4386 2790 2964 4385 3535 3778 3011 2867 3172 4729 3242 4987 4012 2634 3051 4915 4500 4206 4188 3399 3479 3133 3297 4781 4325 4442 4817 2553 4985 4547 4789 3796 3947 4650 2873 4791 2703 3040 3844 4948 4581 3171 4309 3944 3407 4141 3467 4512 4356 3678 4981 3654 2933 3294 4293 4856 3028 2532 4295 3127 4394 2787 4390 3088 4455 3388 4391 4782 3572 3299 3033 3972 4908 4255 4761 2895 3360 3310 3626 4018 2543 3471 3693 2712 4472 3336 2698 2907 4988 4744 2808 3721 4199 2616 2649 4858 3877 2908 4621 4542 4240 3184 4940 3137 3357 3802 2895 3286 3103 4962 2651 4629 4422 2896 2574 2810 4355 4852 4604 3519 4414 4054 3503 3765 4547 2553 4372 2949 3387 3679 2809 3478 3658 3017 3644 4951 4413 3507 4361 3619 4544 4572 3778 4119 2804 2628 2673 3287 3154 3521 3423 4377 4996 2890 4660 2785 2867 4935 4560 4972 3893 3789 2883 2658 2831 3397 4044 4462 2829 4658 2558 4688 3533 3151 3587 2923 3131 2760 4298 2667 3856 4016 3908 3580 3459 4788 2950 4631 3172 3816 2581 3621 4372 4773 3794 3837 4871 4147 4371
19 5 39 5 22 35 27 21 1 2 25 38 20 23 27 19 35 12 17 2 27 8 39 24 13 33 20 2 26 13 8 39 10 7 6 27 30 17 19 31 26 29 9 13 4 29 32 3 30 12 24 16 8 34 34 8 9 3 22 38 4 23 25 14 38 12 29 22 9 16 13 29 31 7 32 15 7 35 14 11 29 25 39 30 37 7 9 29 29 7 18 37 9 3 10 16 28 12 3 14 38 37 32 2 2 37 27 20 10 9 33 30 6 9 2 26 38 12 4 31 27 29 36 20 26 36 17 18 28 24 13 5 25 30 17 11 37 16 8 4 37 37 15 25 27 27 9 1 13 26 24 22 33 33 15 18 31 10 29 2 4 36 4 14 30 2 1 25 18 11 26 19 34 10 39 21 28 23 22 26 22 6 4 19 18 13 38 38 15 12 35 21 3 24 7 12 35 9 13 0 16 35 17 27 2 3 7 37 11 27 6 11 3140 4468 3728 3685 4311 3017 4002 2644 2592 4979 3160 2519 2862 4519 4192 3041 3663 4096 3910 4193 3736 3169 4056 2985 3786 4369 4595 4532 3977 3419 4937 3739 4927 2599 2694 3824 3050 4608 4736 8 4550 3576 3929 3038 2823 3718 3663 3222 3400 2506 3988 4333 4458 4893 3683 4947 4212 3210 2801 3204 2954 4092 3913 4121 3288 4806 4330 4572 2708 3334 4018 2839 4267 4825 3677 3769 2760 2937 4341 2775 3445 4027 4891 3134 4069 4023 4695 4830 4552 3991 4765 3301 4761 3587 4105 3381 4560 4787 3091 4564 3237 3671 4733 4636 4910 4933 3708 3590 2728 2897 3054 3217 2704 4937 3270 4123 2641 3687 4239 3507 4167 4441 3985 3471 4748 3437 3770 4071 4474 3485 4730 3930 2711 3547 4622 2918 2976 3543 2831 2923 3335 3178 3515 4521 3535 3672 2903 4218 3069 4162 3404 3424 2652 3192 3579 3908 4963 3903 3940 3437 4392 4379 3191 3592 2965 3329 3634 4447 2855 2687 4033 3289 3587 4133 3048 4977 2964 4573 3002 4582 4961 3830 3339 3849 3431 4789 4682 3866 3067 4989 4548 4595 4754 2889 2967 4972 2614 3543 3808 4058 3029 2606 3148 4901 3842 3501 2541 4663 2924 4655 4277 3673 3932
5 39 8 28 35 23 9 2 34 28 29 13 25 25 27 1 17 29 7 32 25 5 5 5 27 9 14 14 5 29 33 13 26 15 36 4 2 13 1 30 38 11 10 16 10 11 31 1 2 12 14 24 30 12 27 10 32 23 12 29 29 9 32 28 27 1 26 1 16 15 28 37 22 16 11 4 3 24 10 22 12 39 5 36 28 24 6 39 21 11 13 23 10 30 28 36 9 29 20 12 38 28 11 13 14 27 9 1 13 15 32 36 11 3 6 39 12 9 16 36 16 17 16 31 10 16 29 34 27 30 2 33 12 24 4 14 15 12 6 5 16 9 32 4 7 35 19 17 22 18 16 12 39 13 8 32 22 14 39 25 27 5 23 11 28 29 35 37 30 19 33 30 29 35 27 16 39 12 17 3 1 38 33 14 22 21 13 19 36 27 29 22 28 12 2 11 26 38 22 15 0 37 34 5 33 29 13 33 26 12 14 28 4595 4122 3576 3333 3858 3740 4258 3424 3130 3292 3034 3433 4861 4920 3822 4222 3858 3777 2718 4868 4552 4709 3668 3716 2606 3041 3083 3505 3420 4838 2587 4834 3283 4181 3192 4577 3793 4488 4323 4632 4484 4177 2690 3070 4001 2542 3614 3088 4697 4325 3618 3676 2667 3045 3389 3943 3754 3314 4069 4879 4562 3544 4414 3856 4337 3940 3776 3564 4321 3983 3080 2818 3248 2883 4967 4626 3689 3982 4475 3246 2664 4743 3220 3236 14 3829 3688 3651 3670 3471 3988 4353 3237 4229 4659 2511 2815 2926 4730 3854 3031 4869 4843 3921 3066 4292 3656 4112 3944 2675 4353 2520 4309 4471 4630 2647 4101 4003 2952 4933 3717 3845 4276 2602 4158 3114 2716 2539 3192 3187 4534 3855 3597 4510 4349 4173 3828 4176 4194 4294 4709 2508 4828 4397 4069 3899 3999 2761 3779 4647 2730 4302 2658 4871 3102 3383 4414 3468 4622 3404 3921 3758 2843 2653 4447 3881 2818 3987 4346 3298 4641 2519 4516 3530 4714 4112 3509 3422 3635 4654 3872 3690 3932 3347 4358 3227 2884 3721 3557 2573 4776 4887 3240 4189 4265 3514 4126 2559 4964 4791 3636 3606 2703 2637 3593 4629 4756 3548 4951 3362 2887 3454 3647
31 8 30 27 12 22 20 39 4 28 22 32 26 27 31 37 16 39 22 29 28 24 37 3 8 34 27 25 18 33 19 10 5 14 33 18 18 36 29 13 10 14 29 2 14 12 16 20 6 33 27 20 28 5 22 33 36 29 38 14 33 26 13 18 38 18 7 22 37 29 19 18 11 32 31 31 30 14 37 35 36 25 21 31 30 12 7 34 37 2 35 39 7 7 32 12 35 39 34 21 37 6 30 9 19 12 24 28 2 5 27 1 24 8 30 8 30 20 8 25 33 35 7 17 36 26 29 4 21 8 3 23 8 16 19 7 37 1 29 27 25 28 15 29 38 3 4 21 15 9 17 11 19 28 6 4 39 35 33 25 27 26 36 9 22 9 34 33 8 29 16 32 21 17 2 30 11 32 16 3 8 21 17 39 19 18 13 36 21 35 3 31 12 12 17 9 23 10 19 30 2 0 28 5 39 2 10 20 39 8 32 33 4672 4742 4656 3604 3483 4020 4375 3665 2853 3734 4567 3953 4034 4857 4400 4045 3308 3248 4292 3800 4955 2946 3378 4899 4595 2587 3757 4217 3012 2789 3806 3212 4198 2923 3641 4288 4139 4191 3453 3663 3929 2787 2790 4500 3396 3151 3443 3337 3648 3253 3257 4443 4044 2998 3400 2699 4425 3231 3278 2878 4124 4011 4249 4565 4941 4370 3027 4745 4565 4156 4963 4805 18 4823 3344 4729 2967 3064 2718 4857 2928 4707 3981 3386 4935 4374 3146 2512 3706 3792 4951 4682 4680 4364 4405 2760 3659 2707 3514 4874 3866 4320 3899 3940 4324 4244 4604 3435 4897 2759 3914 3619 3181 4197 2962 3948 3039 4613 2948 3350 3900 4989 3314 3448 3943 4651 4878 4672 3954 4420 3127 2784 3401 2891 2825 3156 3374 2984 3437 4439 4974 4526 3703 3303 3101 4612 2704 3030 3885 4262 2892 3020 2789 3705 4506 4844 4482 4550 2605 3191 4761 4354 2966 3514 3260 3608 2736 4784 4045 2580 4191 2659 3954 4201 3373 3053 4984 4842 3738 2924 4743 3694 4238 4519 4094 3821 3441 3238 3343 4202 4887 4990 3143 3664 4016 2797 4989 3832 4163 4267 6 3269 3598 2657 4377 3332 3289 3310 4893 3786 4704 4249 4527
36 4 27 1 38 14 35 3 28 17 22 39 10 26 26 24 37 33 2 34 7 4 18 38 30 12 17 22 5 32 9 7 32 22 26 23 15 28 30 9 27 17 39 1 25 38 3 33 39 7 4 24 1 25 13 7 35 29 8 16 2 28 8 35 15 11 15 34 9 17 22 22 2 26 38 25 14 19 34 31 6 36 30 21 13 9 18 11 28 25 5 6 3 34 2 22 25 28 25 18 15 1 22 25 23 26 31 11 27 18 34 10 3 11 36 39 21 36 32 37 30 16 6 21 27 13 3 32 30 1 4 16 15 30 23 26 11 28 33 2 31 4 19 10 32 28 27 13 35 37 9 6 32 10 10 38 14 6 13 21 13 1 18 25 17 24 14 1 3 5 35 39 22 19 11 32 33 15 6 30 37 26 7 3 18 27 38 6 6 17 25 35 16 36 23 12 28 12 1 14 32 13 0 3 17 3 14 11 8 23 28 15 3032 4605 3410 3151 4064 3573 3679 3451 3764 3696 3575 3429 3616 3452 4003 4126 4873 3737 4242 2882 4743 2728 2929 4526 4562 4454 3911 4991 2646 2603 3199 3663 3170 2841 4255 4857 3254 4656 2805 4533 2612 4455 4438 4730 4358 2522 3521 4204 4021 3089 2976 3681 3077 4439 3568 4795 3453 2633 3796 2637 4710 4373 3162 3801 4522 4027 3986 3628 4805 4173 2542 2991 4801 4932 3875 2822 2557 2630 4073 2534 2756 3021 3181 4997 19 2748 2948 3196 4352 3566 4746 4087 2692 2717 2771 3891 3512 2903 4109 4301 3435 4974 2720 4748 3570 4294 2898 3254 3732 4481 3698 3089 4992 7 3115 3479 3056 4531 4038 2775 2753 3041 2633 3447 2695 3041 3278 4376 3589 3252 3844 4898 3975 3071 2812 4829 4081 3597 3112 2818 3498 3108 4217 2931 2951 4411 4974 2639 3570 3348 8 4175 2934 4256 4780 4664 4377 4165 3192 4964 4818 4157 3216 4849 4265 4488 4312 3969 3180 3647 4492 2748 2874 3390 2681 4868 4654 4270 3433 2613 3737 4084 3068 4928 3981 3357 4065 3204 3319 2828 3513 4020 4482 3210 3071 3254 4756 4747 2776 2929 2853 2889 2963 3994 2679 3733 2556 2584 3446 3855 4261 2720 3792
33 16 15 1 2 18 3 13 23 10 5 26 11 30 28 20 18 33 25 2 25 19 16 39 21 10 15 37 5 2 13 1 1 36 19 5 19 28 26 17 30 3 3 1 32 4 31 26 36 37 12 9 14 33 39 22 35 35 23 39 34 6 23 11 2 26 1 5 2 19 14 37 15 38 29 15 13 16 14 30 22 33 3 12 37 30 26 39 4 20 4 22 7 30 29 14 3 35 14 2 22 18 30 18 18 18 23 38 36 39 4 20 34 33 39 26 39 7 24 37 9 38 28 6 3 9 16 27 9 29 27 11 28 27 7 18 33 9 39 17 6 37 22 27 14 2 16 33 6 17 10 9 27 28 27 13 4 33 35 22 8 39 17 31 38 12 14 2 35 38 21 7 18 31 8 29 17 1 11 6 31 13 7 31 2 35 38 1 22 5 38 17 7 28 38 27 35 26 12 17 27 19 30 0 17 3 39 24 6 20 8 22 3135 3017 3270 2815 3872 2824 3792 4251 4601 3248 2736 3064 3135 4409 2934 3547 2786 4450 4261 4389 3411 4874 2980 4884 3243 3900 3623 4675 3117 4199 4013 3104 3758 2505 4304 3802 4099 2638 4705 3814 3057 3472 3946 4586 3538 2642 4864 3732 4444 4898 2732 3357 3362 2745 4051 4539 3865 2741 4273 3022 4542 2970 2845 3028 3718 4868 3867 3775 3579 4480 4342 2684 3979 3440 4646 3344 3563 4579 2652 4880 3352 2865 4692 4146 3918 3768 3673 4600 3932 3974 4196 2965 2756 2746 4072 2681 4139 3241 2925 4849 3824 4694 4923 4847 3325 2920 3263 3034 4138 3998 3237 4984 3634 4698 2979 3334 2547 2599 2954 4881 4303 3006 3843 2988 4130 2602 4952 3227 3582 3009 4230 2884 2556 3848 4720 3849 2640 3143 4037 4541 4535 3084 3066 4880 3629 4257 4678 3701 2585 2730 3528 3268 4579 3756 3961 4085 3233 3567 4150 2721 4387 4522 4173 4054 4708 3023 3897 3081 3906 4536 2894 4524 4856 2548 4078 4973 3003 3372 3021 4922 2668 3796 4770 3277 4541 4502 3072 3566 2560 2508 2933 3507 4127 4511 3836 4960 3802 3622 2721 4170 4876 4949 3992 4657 4624 3505 3153 4526 4634 4189 3488 4558 2841
6 36 34 32 23 27 25 12 5 6 1 15 11 34 1 13 11 19 24 31 19 6 28 38 4 4 20 32 37 33 35 29 1 4 24 30 9 37 4 19 17 38 30 24 31 13 30 16 30 8 3 18 30 22 3 21 4 10 31 19 1 37 2 6 15 19 13 13 1 8 19 5 34 2 30 19 17 10 21 3 3 15 11 7 10 33 39 4 23 37 24 29 11 9 28 32 15 33 37 4 31 1 28 5 28 25 28 4 12 34 35 19 3 19 27 35 19 8 18 6 21 25 6 27 25 36 23 28 22 5 23 14 8 12 36 20 20 16 38 20 16 12 5 28 13 13 4 13 18 16 20 3 12 20 20 31 29 33 27 5 11 6 29 17 13 20 20 13 6 35 12 33 17 3 29 34 8 5 2 29 34 8 15 37 20 23 13 35 15 3 23 38 20 36 14 16 30 29 32 37 21 13 11 29 0 10 12 31 19 5 37 39 3499 4987 3901 3706 2913 4924 3221 2536 2881 2809 3311 4731 2674 4304 4836 3291 3905 3607 4514 2807 3641 4681 4150 4350 4965 3301 3416 4840 4326 2882 4386 3178 3106 4323 4188 4289 3173 2685 4337 2954 4423 2980 3440 2555 3961 3589 3637 3274 4923 2939 3854 3856 3914 3802 3259 3431 2706 4546 3218 4525 3641 2783 3899 3208 4481 4882 2962 3349 2927 3594 3585 3806 3065 3491 2679 3267 3805 3358 3248 2970 3252 3833 4492 3465 4971 2723 4348 2538 3902 3708 3574 2913 3202 4226 3029 4264 4940 4453 3331 3468 2751 2506 4227 3087 2821 3059 3983 2940 2962 3458 3173 4778 4321 4229 3600 3749 2517 4834 4674 2794 3900 2667 3309 2957 3949 3584 2715 4190 4670 4235 2956 4572 4113 2805 3161 4742 3017 4335 4437 3819 3504 4761 3733 4830 3681 3710 4480 3213 4310 3889 4200 4217 4894 4914 3853 3603 2903 4771 4857 4730 4552 3166 4460 3772 2636 3261 3114 2507 4329 2731 3850 3316 3450 3770 3839 4680 3615 2725 4677 4771 4273 4565 2787 4103 3229 2575 4052 2552 4740 4835 3204 4505 4087 4659 4119 3559 2845 4286 2970 3964 2789 4803 4455 3109 3996 2545 2562 3605 3877 4798 4894 2609 4049
22 5 33 27 2 30 37 37 5 33 31 16 34 12 17 10 33 34 18 26 23 12 29 31 27 27 22 38 37 12 18 21 27 8 11 36 14 23 13 34 13 7 2 34 19 11 6 29 35 21 4 29 13 39 16 39 18 13 10 12 3 21 5 1 34 25 25 19 36 31 14 10 11 12 31 39 33 3 12 11 38 18 22 3 2 17 5 26 17 31 32 10 17 3 19 20 22 36 32 29 4 6 8 11 11 22 5 37 15 20 31 4 23 24 3 7 30 20 29 2 16 15 10 15 25 3 35 3 32 16 29 38 22 7 18 27 30 34 18 15 14 22 2 15 30 22 4 18 21 33 4 6 22 29 21 18 16 26 4 2 36 16 27 3 16 33 14 11 8 24 24 11 3 28 10 14 29 38 17 24 17 14 2 5 27 37 19 27 29 7 35 39 4 25 25 10 20 33 4 39 36 7 31 17 26 0 11 9 16 22 20 35 3697 2517 4700 3611 2827 3058 3853 3129 4068 4390 3076 3323 3653 4032 4238 3603 2992 3322 4460 4543 3926 3640 2574 2748 4538 4480 2777 2649 2905 4333 4260 2977 3154 2685 3442 2659 4590 3502 3121 3238 3227 4266 2605 2817 3815 4355 4966 3445 4538 3200 4323 4592 4627 2596 4619 3843 2830 3098 3494 3072 3123 2787 4399 2794 4576 3675 2633 3635 2600 4528 3290 3452 4242 4988 4075 4186 3159 3664 3831 3695 4444 2727 4727 3637 2797 3349 3850 3935 2894 3571 3073 3628 4977 3885 2738 3072 3350 4825 4952 4071 4701 2772 4377 3355 3995 3415 4600 4815 3912 4423 4248 3519 3068 4514 2892 2764 4042 4462 3437 2897 4659 3635 2767 4638 2504 2865 3922 4053 3040 2617 4960 3966 2887 4102 4485 3107 4112 3198 3898 3795 2944 2845 3233 3575 4880 4140 3776 4215 3361 3928 3910 2640 3503 3781 3303 4357 3684 2690 3814 4470 3692 3923 2892 3659 3560 4068 4129 3535 3870 4393 3182 3947 2668 3278 4626 2669 3004 2728 3644 3325 3952 3601 4264 3471 2992 4809 3540 3885 3010 4468 3723 3531 3748 3831 3019 3250 4325 18 4908 2556 3196 4965 2998 4500 2999 3325 3677 4255 2894 4442 3781 3884 3683
8 14 15 5 21 10 27 26 9 36 5 21 28 17 18 2 14 31 19 10 38 18 17 3 4 13 7 5 32 1 4 10 11 8 24 35 34 14 17 29 24 17 14 3 35 22 39 14 15 6 30 24 32 29 18 12 7 4 35 39 6 18 12 16 14 37 15 30 11 2 7 31 39 24 30 17 30 4 26 26 30 6 20 28 38 5 30 23 2 10 7 20 18 26 38 34 23 1 26 10 21 7 18 36 36 26 27 37 7 36 1 11 15 4 16 25 6 31 6 1 10 39 4 13 15 11 33 11 13 15 38 19 10 36 12 10 18 9 36 14 20 29 37 25 5 5 11 23 36 7 26 15 22 14 36 3 16 30 31 29 19 26 23 9 19 11 1 38 16 37 25 33 11 30 25 16 36 32 12 3 10 33 2 7 29 24 16 39 5 6 12 17 12 4 33 18 9 39 17 26 20 30 9 28 4 7 0 22 12 4 6 7 2506 3699 3355 3250 2885 3788 4933 3454 3742 4714 4670 4558 3823 3634 3307 3911 4303 2969 4464 2576 4712 4974 4151 3251 4123 4994 4740 2564 3621 4367 3139 3719 4232 2918 15 2586 3223 3770 4545 2541 4052 3004 3522 4624 3154 2754 3828 3128 4030 3272 3051 2675 3710 3445 3503 3956 3382 2681 2790 3060 4073 4954 4717 3168 3109 4743 3719 3288 4855 2976 2685 4565 4450 4882 3100 4377 4692 3539 3925 3194 3753 4234 4542 4425 4986 3152 3028 4168 3123 3590 2885 3153 4109 4720 2723 3951 3709 3237 2735 2920 2517 4820 3380 3751 2835 11 3651 3116 2879 2999 3133 2662 3931 4376 3012 2752 2516 4428 3249 4807 2571 2791 4793 4786 3141 3746 4331 3594 4458 3486 4315 3473 3585 3048 4876 17 3551 2713 3954 2610 3123 3896 2970 2619 3325 3253 4129 4142 2893 3145 3737 3640 3934 3361 2838 4667 3936 4632 4826 2592 4950 3484 3831 2816 3835 4137 4616 2654 2917 2812 2676 2944 3168 3280 3337 3459 4715 2624 4184 3198 3666 3077 3295 4366 4371 3990 3460 3213 4517 4971 4168 2643 4631 4864 3073 19 3773 4965 4173 4399 4474 3139 2602 4934 3699 4344 4736 3452 4709 4188 2838 4884 3528
16 10 1 13 10 10 18 6 31 7 21 21 27 1 31 1 38 29 32 31 39 25 3 14 21 22 34 4 34 22 16 5 5 37 22 22 20 16 2 1 28 28 25 18 14 15 24 8 30 6 39 31 19 4 27 3 1 31 19 37 16 25 10 24 32 4 30 27 7 2 1 31 29 18 9 23 22 10 10 8 5 14 19 32 11 8 10 15 13 20 3 31 15 30 33 12 26 19 3 6 28 2 8 14 29 1 10 31 37 26 14 12 33 37 6 31 13 1 11 11 18 30 23 27 9 35 21 25 26 35 15 32 4 7 18 7 20 12 22 32 22 35 3 35 35 34 18 7 10 24 17 2 34 20 10 37 31 19 2 26 14 18 20 32 16 7 39 5 7 19 39 33 32 13 12 14 31 5 28 21 8 12 28 20 36 26 8 39 23 25 24 22 9 30 17 17 34 34 33 23 35 34 15 3 2 20 30 0 19 20 14 6 3022 4156 3885 2643 3105 2671 3314 3952 3093 4628 3435 2594 4120 3002 4469 4253 2882 5 3478 4127 2740 3422 3431 4383 3319 2611 3116 3001 4309 4053 4932 3229 2529 4669 3834 2876 4832 3851 3981 4072 3525 3864 4143 4004 3163 3123 3893 2737 3859 4454 4813 3318 3835 2934 4227 2872 2885 3085 2821 3273 4696 4232 4208 3563 4448 3373 4650 3231 2609 3080 3633 3551 4233 2793 4599 4597 4373 4627 3728 3387 4105 3270 3241 2854 3518 4860 4309 4904 2709 4372 4473 2917 4880 2765 4395 3016 3559 4369 3918 3072 3031 4175 3631 4144 3300 3589 3547 2628 3745 3237 4300 3898 4564 4104 2506 4243 3738 2882 3363 2589 4494 4048 3068 3462 3358 2510 4180 4795 3155 3868 3319 3235 4668 4194 4223 4404 3141 3659 4954 4900 3297 4250 3844 2642 4606 2656 2575 3721 4395 4816 3149 4590 2737 4367 3155 3516 3339 3754 4017 4721 3000 2907 4074 4096 3726 4583 4586 4487 3895 4855 4775 4947 3784 2579 2636 3041 3831 4273 3617 3262 3017 3017 3214 3401 4263 3835 3182 4243 4226 3247 3288 4199 4609 3330 2858 2719 2547 3624 4372 3944 4640 3733 3644 4688 2764 2891 4999 3708 4679 4756 3763 2652 2583
20 13 22 39 11 7 6 14 7 2 18 5 38 8 30 38 33 12 8 38 23 9 18 36 39 34 23 8 23 29 10 38 12 25 9 10 24 25 17 11 31 20 24 5 5 13 35 37 29 39 35 3 4 1 15 9 37 2 25 30 13 19 3 7 19 16 2 1 18 38 13 9 18 37 4 29 14 14 25 12 34 13 33 13 20 2 8 10 29 19 22 6 1 20 29 12 26 32 30 23 32 1 26 37 33 4 7 10 13 1 30 10 4 26 5 32 9 24 36 9 11 11 35 25 37 1 13 6 33 28 7 15 28 3 5 2 37 20 17 22 18 35 17 2 34 11 1 39 4 38 35 33 37 38 31 34 11 38 30 37 6 14 10 33 35 27 30 39 16 35 35 16 17 23 6 36 3 10 30 35 28 15 27 36 11 8 29 15 12 37 5 34 10 38 7 23 34 2 33 26 16 32 15 20 21 13 39 10 0 1 14 11 4306 4297 2596 3527 2565 3049 3778 4144 2926 4383 4345 3553 2923 2848 3988 4002 3141 3085 2535 3849 4909 4066 2773 4079 3804 2847 3342 3210 4789 4263 2643 4051 2581 3265 3684 3005 3154 4911 3983 3623 4715 3467 4973 3622 2725 3556 4882 3425 2550 2540 3739 4334 3507 3123 2630 3972 4461 3545 2624 4686 2575 3676 2713 4701 3507 3567 3256 3676 3824 4332 4569 3283 3622 3988 3831 4609 4977 4732 4478 3107 4886 2620 4304 4293 3913 4335 4441 4201 4899 3996 4544 4599 2880 2963 2725 2720 2710 4725 2825 3425 3824 3788 3383 4881 4331 3897 3933 4785 4903 3487 3639 3094 4208 3797 4026 3035 4673 3204 4892 4536 4416 3963 4148 2871 4425 4337 4057 3954 4324 3892 3756 4576 3704 2641 3255 3107 4849 3910 3953 3334 3159 3514 3873 4625 4537 3844 4333 3282 2658 4692 2748 4571 3146 3070 2792 4993 4133 3013 2697 2536 2690 4334 2943 4229 4706 3536 2527 3371 3415 3480 2867 4446 3835 4516 3778 4680 3271 3512 4258 3544 4173 4697 2890 4958 4174 2550 4076 2719 4658 2564 3351 4834 4665 3438 2695 4770 3464 4527 3155 4825 4358 2741 3453 3577 3203 4473 3047 4970 4731 2985 3284 4412 3770
34 20 14 13 8 38 37 4 10 11 24 29 25 31 23 24 17 18 16 23 25 14 21 2 14 16 32 20 4 32 39 33 33 19 4 20 34 27 26 25 23 23 3 39 15 21 16 12 4 25 21 14 7 3 4 38 34 14 31 6 37 29 15 10 30 5 14 5 3 24 3 39 20 14 9 20 13 12 34 31 3 15 5 19 3 31 4 12 29 5 8 5 19 14 10 28 28 7 25 14 19 29 22 21 19 22 15 13 8 6 39 24 11 21 31 13 2 19 22 11 27 5 29 2 18 1 21 28 36 23 39 19 10 14 13 21 17 10 13 10 26 13 11 32 3 24 4 16 5 22 16 9 20 25 28 19 35 39 36 33 36 7 26 32 9 9 13 36 32 9 25 3 25 32 17 38 16 21 23 18 29 2 2 17 28 22 27 7 1 7 2 24 26 14 24 36 22 35 7 5 29 33 20 9 4 26 19 18 36 0 39 33 2840 3764 3009 4159 4351 3551 3042 2949 3840 2875 4022 3914 4216 4533 4271 2986 3663 2741 2781 3624 4573 4755 4218 4444 4986 2889 3740 3348 4505 3195 3128 2749 2532 3881 4608 4212 3265 4182 4327 3732 3069 4191 3986 4382 2930 4035 4442 2895 4282 4971 3030 2604 4363 4762 4780 4571 3348 4390 4251 3753 2679 2891 3673 2569 2745 4322 3626 4544 3100 3808 4106 4851 3397 4950 3967 2697 4348 2958 2997 4500 4672 3000 4779 3674 3545 3356 4247 4614 3765 3121 4856 3887 2668 4665 4767 4069 2679 4266 3984 2928 4862 3500 4470 3236 4382 4999 2914 3072 4631 3377 3315 3575 4961 4179 4403 4134 3229 4089 4857 2667 2953 2985 3080 2905 4890 4391 2604 2950 3927 3718 4980 3047 3845 2535 3298 4076 2724 3534 4557 4474 4936 3015 3058 4102 4078 4496 4114 4813 3663 3193 3325 4903 3061 4372 3382 3358 2623 4356 2680 3607 4235 3065 2942 4757 3543 3819 3440 4914 4814 2577 4207 2868 3184 4279 4526 3104 4355 2858 3673 3513 3443 3074 2891 4749 3215 4606 3908 4968 2854 4465 4863 3135 4263 2810 4933 2507 4047 4692 4772 4324 4888 3875 3945 3079 3451 3252 4386 3345 4696 3708 2562 2895 4168
18 33 27 11 18 17 20 39 20 31 31 24 17 14 4 4 34 37 1 38 23 18 9 9 26 23 17 15 12 36 7 7 30 22 1 19 37 14 26 13 36 36 34 36 1 17 20 13 20 22 16 5 15 2 27 34 1 37 21 22 25 26 5 9 35 33 26 26 26 19 36 13 35 20 20 30 6 39 35 15 11 37 12 35 35 15 34 25 13 23 27 3 8 1 31 30 1 25 20 11 6 31 6 10 14 38 7 34 19 37 26 19 29 2 10 16 26 12 29 18 16 11 10 14 3 8 9 17 20 24 10 13 23 16 31 35 6 7 21 36 9 34 23 12 18 38 15 2 4 7 19 7 26 4 10 11 38 27 38 4 34 28 5 27 35 11 38 10 17 29 9 23 17 31 4 24 17 4 37 17 27 23 6 26 17 16 3 38 10 37 20 20 37 19 37 6 1 22 7 25 17 30 33 21 33 38 6 20 31 7 0 31 3001 3466 3543 3283 3238 2525 4243 4573 2500 3543 4888 2729 4080 4465 3896 2601 3659 2723 2677 4063 4812 3888 3946 2842 2719 3609 3642 4897 4981 4299 4161 2745 3576 2927 3366 3420 3769 4931 4239 2686 2786 3120 4521 3678 4721 3903 3567 2596 4312 4086 4340 3189 2828 3153 4379 2764 3467 4289 4905 4527 3233 2694 2921 4129 4234 4074 3853 4931 3167 3140 4655 2930 2662 4264 3442 3122 3879 4128 3070 3384 4741 3996 3226 3382 2883 4103 4444 4401 4901 3064 4782 2975 2595 2956 3319 4870 3819 3867 4960 3661 2650 2654 4802 2588 3336 4153 4445 3200 4966 4792 3624 3376 2528 3898 4719 2551 2810 3653 3339 4689 3781 3649 3599 3067 4919 3814 2669 3315 2886 3046 3839 3393 3587 4444 4847 3550 3283 2717 4301 4411 4152 4605 4558 4926 3006 4597 4359 2973 4150 4465 4641 4476 3550 4086 3847 4646 4013 4286 3842 3589 3699 3255 3127 3264 3030 3872 4124 4332 3974 3645 3410 4892 3197 3465 4383 3942 4721 3351 4444 4604 4715 4556 3327 3778 3363 4607 4718 4787 4084 4294 4861 4879 4747 4186 3904 4227 4549 3012 3182 3029 4725 2570 4159 4502 2738 3455 2984 4348 4484 4009 3086 3811 2998
26 18 28 13 8 8 23 4 26 8 16 31 18 21 23 28 22 18 31 12 5 7 13 21 38 13 6 32 12 7 17 25 21 39 16 1 35 27 13 31 6 31 29 9 25 6 36 37 37 11 12 36 26 28 2 7 38 26 31 24 13 26 24 35 31 3 12 21 1 18 3 17 39 30 6 10 12 5 36 7 25 4 20 3 35 2 9 20 10 6 38 29 32 18 10 8 4 25 26 30 5 29 1 22 27 20 11 30 5 39 30 39 9 20 2 8 35 33 31 25 34 25 9 34 18 30 12 17 25 15 24 19 15 30 5 14 26 9 7 13 2 8 2 7 13 17 6 23 32 34 28 31 23 12 22 11 27 34 22 17 23 23 19 19 1 28 26 18 7 25 37 7 10 24 6 10 21 1 9 19 33 24 28 7 4 35 24 7 37 9 29 15 20 9 39 19 10 25 26 10 3 17 29 25 21 1 17 28 33 33 30 0 2946 3676 2760 3620 3467 4440 2894 2942 4606 3380 4704 2770 2973 3565 2702 3703 3058 3433 3466 3499 2752 3171 3507 2532 3453 2972 3425 4630 3800 3882 4845 3969 2835 2657 2877 2510 4136 2852 3942 3867 4130 3093 2926 3763 3024 3661 3218 3713 3137 2884 2969 4185 3295 4911 4233 3033 3088 4757 3099 3422 4192 4599 2972 2672 3202 3371 3692 3499 3077 2682 2891 3453 2717 4516 2667 4888 3720 2631 3417 3333 3344 3747 4015 3086 4927 4734 4481 4901 2882 3342 3605 4463 3970 3127 4975 4770 2556 3917 4063 3097 3301 3066 2603 2592 3994 3495 2951 3400 3014 3826 4299 4371 3114 2630 4568 3231 4365 3942 4736 3639 3813 3548 4616 3220 3192 2559 2663 3440 4882 4583 3731 4961 4543 2767 3389 3952 4944 4397 3662 3898 3889 2568 3660 4217 4739 2738 3125 4598 4640 2996 3263 3869 2737 2934 4901 2696 3524 4445 4521 3981 4162 3145 2638 2873 4151 3814 3729 2917 3884 4098 2501 3776 3491 4639 2899 2920 3495 2542 3868 3233 4748 4630 3147 2605 3653 3112 3113 4260 3457 4964 4923 4666 4994 4398 3988 4372 3502 4108 3624 3345 2510 2786 3184 4768 2696 2777 4690 2972 4405 4957 2595 4795 4860
3712 4316 3674 4455 2513 4868 2993 3435 3864 2736 3299 4181 2604 3229 3286 3029 4104 4924 4646 3694 3987 3614 3178 4533 3032 3547 3115 4370 4609 4155 4650 3135 3348 2616 3833 2606 4161 4406 2977 4275 4932 4682 3003 2871 2810 4669 2852 3389 4932 2534 2665 3787 2584 3287 4415 2788 2681 3427 3057 3150 4943 3613 4304 3474 2826 2523 2916 2574 3959 2811 3656 4758 3619 4594 3141 4323 4730 2742 3008 3055 4793 2733 2943 2819 4481 3817 3734 2821 3254 3715 3990 4836 4795 4758 3592 3699 2826 3728 3952 3426 3644 16 2549 4074 2909 3759 3222 2539 4960 4049 4174 3657 3627 3555 3319 3370 3181 4131 4918 4524 3248 4482 4498 4070 4788 2655 3371 19 4282 4557 3873 4962 3780 4402 4039 3887 3246 3780 2575 2505 2678 10 2598 4129 2865 3549 4163 2843 3743 3368 4232 4497 3380 3818 4400 2974 4299 4470 2529 2710 2568 4551 3245 4884 3938 2546 3447 3497 4955 3291 3198 4764 3346 4049 4343 2904 3774 3170 2814 4893 4709 4028 3121 4050 2611 2910 3448 4274 4126 4511 4741 4635 9 3236 2959 2504 4421 4055 3099 3140 4595 4672 3032 3135 3499 3697 2506 3022 4306 2840 3001 2946 0 26 2 30 13 31 39 21 29 16 36 25 12 12 21 16 2 32 36 15 9 35 11 6 23 30 28 1 28 2 30 30 35 29 18 14 36 3 20 34 10 28 34 39 6 33 39 11 7 12 37 14 16 7 35 33 5 3 6 5 6 2 10 34 30 6 14 32 24 28 12 3 20 22 6 2 1 18 32 26 13 13 22 18 33 36 14 26 6 23 37 4 17 10 19 9 1 19 1 34 34 12 22 27 3 36 4 25 34 12 14 38 12 17 33 11 31 34 4 33 9 13 13 31 2 4 37 32 6 17 7 18 25 21 26 30 13 12 38 38 5 8 1 34 22 21 32 12 16 23 23 26 4 38 12 18 29 35 12 11 7 10 35 28 2 4 25 34 13 2 33 1 13 2 12 12 1 39 37 1 16 7 14 30 34 34 14 5 27 24 8 9 36 39 23 38 31 1 11 3 14 18 5 36 2 35 23 32 22 17 35 2 34
3176 3308 4408 2977 4610 2734 2715 4396 2740 4665 3058 3073 3898 4005 3450 3061 3469 3161 4066 3976 4935 2887 2541 2839 4957 4306 3005 4921 3599 4906 2666 4210 4750 3379 4774 2750 3050 2777 4653 3706 4401 4388 19 4877 4895 3065 4634 3399 3075 4396 3784 3723 4574 4954 3068 2950 2802 4872 3806 2512 3812 4703 3431 3064 2811 2512 4013 2623 2593 4251 4489 4117 4433 4017 3768 2670 4536 2662 4591 3182 2892 4688 2764 4778 3502 2699 2502 4104 3034 3824 3595 4094 3965 3766 4574 4348 3156 2839 2583 4528 4501 2774 3466 3406 4669 4695 3229 2767 3701 2594 3756 3399 2909 3038 4142 3213 3689 4310 4550 2801 4074 4620 3272 2861 2855 4258 2649 3644 4108 3678 2788 4756 3922 3646 2997 4723 2788 4464 3023 4092 3255 2785 3596 3049 3793 2702 3721 3331 3297 4950 3207 4174 2843 3770 3418 3122 4856 3517 3351 3096 3941 4079 4483 4947 3734 3440 2518 3185 3671 4509 3086 2673 4491 4208 3263 2942 2971 2793 4669 4669 10 4815 4998 4220 4154 4607 4349 3290 4659 4344 4921 4868 2789 4266 3921 3326 4230 2999 3499 4468 4122 4742 4605 3017 4987 2517 3699 4156 4297 3764 3466 3676 2 0 1 28 27 5 20 3 15 11 16 17 28 29 25 34 11 1 11 31 22 38 35 39 34 1 39 27 30 6 29 19 18 27 17 22 17 28 15 3 29 30 29 39 19 23 8 6 9 5 33 21 14 28 32 28 2 14 20 6 39 29 1 33 29 18 16 1 34 35 17 5 25 18 27 3 33 13 11 14 1 12 3 11 34 18 18 31 27 37 14 18 30 38 3 7 30 30 7 22 1 29 24 22 25 39 24 26 23 23 34 37 15 2 5 15 9 13 32 25 13 28 36 4 20 29 39 21 30 25 2 7 14 20 3 6 19 23 27 34 4 26 37 14 18 24 31 30 39 16 3 24 20 6 11 4 13 24 16 5 3 3 29 14 6 4 18 28 28 10 17 26 35 17 13 18 29 11 39 30 31 26 17 37 6 36 17 33 26 29 28 23 27 31 13 28 2 4 26 19 36 3 33 21 8 10 36 33 26 19 34 11 9
4256 4417 2653 4192 2750 2900 3582 3333 3461 3925 4943 2994 4932 3559 3426 3522 3741 4053 4836 4455 3692 3075 3357 3100 2598 2804 4247 2763 4420 4769 3258 4785 2758 4818 3319 4155 4811 4460 2985 4045 3254 3149 3496 3046 4019 4126 3945 3965 3952 4298 3628 4834 3111 2767 2573 4883 3325 2533 3676 4941 4348 3449 4436 4484 4160 3055 3919 4768 2780 3464 3312 3268 4053 3234 3344 2690 2968 3003 4555 3334 3389 2647 2816 4333 4924 3463 3471 3476 3989 3066 3945 3061 3562 3786 4565 3913 4004 2546 3569 4013 3296 4587 4376 3091 2670 2760 4172 3269 4600 4286 2757 4807 3671 4370 2917 4287 3317 3763 4936 2615 3937 4570 3372 4446 4862 3110 4458 2740 2635 3440 3099 4389 2585 2605 3850 3125 4360 4421 3529 4294 3750 4570 3193 4076 3853 3789 3943 4863 4299 4002 3839 4005 3603 3269 4099 2796 4585 2642 2981 3731 3304 2696 3282 3374 3164 3414 4492 2571 2563 3517 2559 3211 2768 4316 3565 2923 3456 2622 3496 3955 3879 14 2684 4331 4054 4656 2995 3474 3106 2897 4019 4322 4730 4748 4582 4852 3473 4632 3952 3728 3576 4656 3410 3270 3901 4700 3355 3885 2596 3009 3543 2760 3 8 0 29 23 36 35 9 11 37 6 8 15 22 30 15 26 13 39 18 9 8 2 37 6 28 16 3 25 32 26 35 25 27 28 3 38 29 12 12 35 20 36 3 15 29 7 13 34 13 28 29 23 11 22 39 32 24 21 36 33 24 31 8 27 24 39 34 12 27 28 7 27 27 17 2 20 21 3 18 18 36 20 21 15 34 2 3 33 22 39 26 4 28 10 35 21 38 14 4 11 11 38 24 13 24 16 10 28 3 8 39 31 33 7 16 30 35 19 16 1 29 29 31 7 34 9 33 20 28 5 34 14 10 11 3 6 8 16 27 2 17 22 34 36 36 25 37 20 14 33 39 7 37 34 39 29 14 10 38 20 6 8 30 16 7 27 3 17 5 7 33 10 31 18 29 18 31 32 5 4 5 28 15 5 7 30 39 19 38 38 31 22 15 20 23 9 32 26 32 6 31 38 11 15 33 5 30 4 8 4 23 32
3504 3436 4114 4865 2980 4182 4504 4935 3267 3314 4726 4281 2624 2864 3748 3267 3350 4168 3635 4869 3454 3512 4538 4755 4986 3612 4550 4742 3061 4314 2582 3290 2523 3159 2805 4339 4261 3040 3709 3092 4724 2754 4330 3151 3732 4552 4639 3259 2725 3676 19 3704 3391 2783 4377 3597 3712 3743 3761 3943 3963 4251 4089 4879 4418 3361 3052 4187 4729 2643 2820 4606 2662 3904 4203 4997 3263 4489 3028 4296 4157 3908 4128 2939 4268 4058 3476 2886 2557 4452 4039 4359 3650 4126 2587 4572 4777 4107 4531 3349 2694 10 2815 2821 4000 3225 2597 4061 2695 4084 2731 4548 2899 4155 2620 3438 4491 4485 3564 2699 4588 2662 2827 3453 3970 3723 2579 4493 3231 3207 4209 3591 4972 3068 3884 4705 4643 3600 4273 3172 3890 3710 4256 3480 4951 3109 4776 3104 3873 3055 4507 2743 3168 2740 4104 4210 4763 3663 3695 4350 4307 3611 4525 4754 4945 4311 3498 4932 4717 4145 2856 3737 3344 3841 4207 3239 2597 2700 3287 3406 3271 4542 2732 3340 4671 3487 4229 4449 3679 4542 2767 4427 4134 2523 3582 4159 2536 2967 3308 3685 3333 3604 3151 2815 3706 3611 3250 2643 3527 4159 3283 3620 7 6 1 0 21 37 5 39 26 36 15 25 32 13 20 15 37 1 24 1 32 1 20 13 8 21 32 2 17 24 20 17 4 26 9 32 16 29 23 24 21 6 10 25 1 33 36 18 31 4 9 15 32 19 39 19 32 34 39 6 11 19 15 24 22 22 26 38 25 39 34 4 19 14 39 35 21 16 30 32 27 19 14 25 24 17 39 37 33 18 19 22 39 15 19 4 27 16 36 5 1 8 27 36 3 36 11 7 27 13 22 32 15 23 36 31 14 9 19 33 11 32 34 20 32 18 8 10 13 21 24 36 37 28 20 26 24 30 39 16 34 36 7 35 18 18 16 35 2 33 18 27 7 8 13 8 36 22 20 31 27 4 14 22 31 20 21 17 22 16 10 15 11 33 31 21 17 31 37 28 39 3 32 10 6 3 34 28 24 31 8 18 33 1 20 39 37 12 9 24 12 31 14 33 10 34 34 37 34 9 12 28 15
3171 4399 4681 4079 2512 4287 3984 3386 4605 4845 3883 2930 3077 4388 3043 3937 4221 3917 4649 4201 4436 2527 2846 4462 2774 4246 3566 3932 4769 2520 3001 2746 3479 4467 2982 3111 4872 4431 3073 4636 3588 3595 3329 3212 3884 2758 4592 3990 4493 4523 3088 3579 3232 4065 4660 4034 3436 4409 2515 3847 4905 2568 4131 3090 4918 4577 3064 4752 4247 3784 3231 2772 3263 2523 3690 3687 3534 2993 4475 2718 4358 4874 3103 4302 3593 2903 4913 4775 4939 4075 2695 4595 4745 3277 3284 4838 2966 3431 3583 2564 4376 3494 2937 3334 4702 4973 3604 2865 3325 3267 4864 3381 4085 4643 3640 3996 4666 3336 4976 2622 3298 3366 3604 4506 4290 3572 3573 4646 3458 16 4006 5 3740 3072 4030 4379 3982 2861 3338 4024 4172 2987 2929 3685 3152 3875 4365 3909 4090 4784 3940 3915 3163 4990 4746 12 3357 3679 4186 4184 3266 3525 2655 2789 4728 2941 4869 4062 2521 4081 4114 2597 2753 4085 4586 4943 2931 2621 4635 2544 2672 3525 4622 4539 3519 2674 4218 2656 3571 3234 3765 2628 3261 3491 3112 3809 4106 3918 2721 4311 3858 3483 4064 3872 2913 2827 2885 3105 2565 4351 3238 3467 39 30 26 33 0 34 30 15 35 2 29 12 37 32 18 5 39 5 11 21 30 1 25 33 14 36 1 21 16 18 34 35 17 4 9 39 5 34 37 9 11 25 16 33 23 12 37 2 38 29 32 9 31 11 22 27 37 1 34 28 19 23 23 9 13 3 15 20 5 5 37 22 19 14 9 6 32 26 30 24 7 39 5 22 16 32 33 16 22 27 16 39 3 5 21 7 37 5 23 3 20 26 24 22 23 15 18 33 23 29 5 18 14 25 12 2 17 22 21 19 37 11 36 10 6 2 34 32 4 13 16 38 3 33 15 10 5 16 25 23 30 12 15 14 23 25 32 4 18 24 26 39 12 34 15 12 5 12 7 25 16 13 15 8 14 11 32 14 33 16 15 33 3 3 37 2 1 12 19 38 14 2 25 37 15 27 25 2 10 29 32 28 18 39 13 10 34 20 31 3 4 35 37 29 18 6 21 2 12 21 5 33 30
4220 4578 4492 3230 4241 3735 2751 3612 3705 2716 3587 3038 3221 4457 3578 3558 4251 2800 4743 2744 3920 4336 3486 4733 4200 2945 2763 3760 3647 3596 3783 4310 3508 3358 3585 2628 4396 4056 4004 4985 4571 4374 4069 2960 3650 2782 4227 3771 3004 4252 4856 2844 3135 3800 2957 4148 4799 3276 3549 4814 3291 3516 4792 2968 2944 2585 4108 3932 2682 4894 2518 2735 3303 3619 2725 4917 4497 3262 2976 4906 2942 2723 2676 3820 4277 3617 3945 3563 4414 2528 3037 2798 2636 2796 3037 4052 3165 2696 2618 4468 3458 4676 3133 2581 2779 4746 3261 3483 2504 3818 3311 3549 4149 3929 3070 4303 4050 3645 4281 3852 3360 4777 3820 2839 3606 2944 3275 4320 2887 3398 3926 4439 4893 4026 4323 3944 3138 2875 3033 3802 2544 4805 3286 3618 4731 3912 3035 2934 3373 3463 2518 3689 3885 4132 4154 3367 2897 3945 4047 3964 3298 4524 3140 4631 4390 4026 2666 3395 4379 3017 2526 4927 4519 4503 3259 2504 2567 3221 4516 4959 3697 4816 4371 4392 3156 3478 4729 3628 4771 4748 4430 3441 2972 2855 2851 3670 4140 3347 4653 3017 3740 4020 3573 2824 4924 3058 3788 2671 3049 3551 2525 4440 17 36 27 34 17 0 16 24 6 35 22 29 20 24 24 37 39 15 27 33 34 3 20 9 27 7 16 9 13 15 39 34 29 17 33 36 3 16 30 26 29 21 33 5 28 38 23 36 12 10 16 22 9 24 7 18 33 33 21 22 8 9 9 21 1 30 13 31 27 11 1 6 27 22 23 12 24 38 35 30 36 29 1 39 23 21 21 9 14 31 16 13 30 21 25 37 32 25 8 24 30 29 21 32 8 5 26 28 28 22 11 26 3 19 14 21 15 39 28 2 13 4 25 18 5 4 24 30 11 8 17 31 16 5 17 7 23 7 24 24 31 38 7 25 24 24 12 31 26 25 22 26 3 19 38 35 34 23 21 33 22 22 5 35 15 2 2 27 26 19 12 28 36 30 29 9 2 28 19 35 19 3 33 11 33 36 4 34 30 6 33 25 1 30 30 20 34 39 25 36 36 14 27 7 2 13 8 30 29 38 27 37 5
2768 4004 2719 4624 4088 3906 4154 4197 4230 4970 2892 3683 2992 2881 4368 4225 3500 3662 4443 4867 4328 3811 3569 3439 4327 3427 3995 4833 4828 3033 4199 3205 4881 3671 3968 3099 3141 3316 3217 2994 4523 4130 3575 2587 4535 4987 4312 3731 3456 4650 3611 3781 4130 3829 4097 2886 4276 4243 3323 2795 4007 3705 2831 4494 4653 4879 3109 3842 3639 2773 2938 4491 3257 3481 3073 4625 4296 3478 3554 2692 3530 2909 2942 3498 4404 4821 3607 3305 2528 3341 2902 3899 3889 4830 4339 3340 4176 2701 4765 4786 2682 4955 2761 4023 3849 2980 3264 4485 4133 4154 4846 4428 2516 3224 4734 3359 3901 3396 2657 3691 4789 4198 3544 3767 2699 3318 2775 3204 3333 4220 4832 3494 3988 3660 3649 2533 4603 4787 2841 3193 3846 2844 3209 4011 4848 3790 3298 4271 2709 2641 4493 4404 4935 3068 3309 3969 4551 4059 3544 2839 3323 2881 3758 3454 3830 4114 4363 3970 4576 4647 3739 4932 3826 3865 3704 3309 4625 3797 3641 2723 3353 4095 3012 4712 3611 3365 3992 3861 3736 2969 3426 3271 3521 3136 4659 2629 4338 3479 4757 4002 4258 4375 3679 3792 3221 3853 4933 3314 3778 3042 4243 2894 8 20 28 39 23 17 0 3 39 6 13 21 23 25 32 23 26 15 16 21 1 28 38 25 21 14 32 11 24 4 17 34 13 4 13 26 11 25 28 4 17 6 15 39 13 13 9 34 34 15 24 13 23 24 28 11 21 30 13 4 22 20 24 29 8 1 35 35 7 39 12 23 21 38 10 10 30 14 17 27 38 22 8 1 6 22 7 19 28 21 1 16 6 22 24 7 31 34 38 29 26 17 8 7 12 29 22 32 25 6 26 25 18 9 1 3 20 14 39 11 35 15 13 39 31 28 21 15 7 24 4 19 27 19 35 14 21 19 2 8 6 9 7 21 29 26 25 25 21 8 29 32 17 5 20 12 39 29 39 29 31 28 11 37 17 10 32 24 37 38 25 17 35 6 28 25 36 23 8 36 8 31 11 26 7 34 34 27 1 35 22 32 11 25 17 34 29 18 4 7 7 22 33 33 15 26 23 13 29 39 34 3 28
4332 3752 3802 4203 3461 3744 4023 4367 3315 4776 4646 2882 3976 4215 4041 2764 3575 4123 4475 3450 4521 2834 3364 3450 3991 2574 4268 2923 4411 3711 3992 3594 3764 3639 3421 2846 4712 2700 4153 4377 2520 3910 4329 4899 2756 3722 4679 2795 4298 4172 3812 4352 3066 3110 4806 4184 3326 2627 2710 3323 4678 3336 4946 4820 3335 2970 2779 3425 4269 4050 3865 2552 3188 3217 4897 2817 2904 4945 3065 3676 2941 3138 3580 4607 4371 3216 4148 3449 3010 3831 4003 4147 4333 4719 3328 4448 4484 4389 4182 3123 3569 2973 3503 2938 3196 4926 3687 4006 4583 4657 2570 4873 3009 2519 4937 2675 3334 3485 3698 4687 3509 4025 4310 4978 3617 3123 3551 3521 3690 2630 3377 3596 2663 3397 3911 4319 2612 4903 4930 2957 4855 3145 4305 4006 2646 4165 3165 3627 4017 3778 2958 2938 2565 4295 3425 4592 3898 4719 2567 4846 4778 4811 4894 3572 3353 2729 4750 4527 4155 3164 3765 2772 3134 3225 2694 4172 3754 2930 2770 3377 4377 3725 2701 3364 3793 3823 4283 3304 3921 3716 3996 3780 3991 2727 3754 2686 2892 4403 3706 2644 3424 3665 3451 4251 2536 3129 3454 3952 4144 2949 4573 2942 15 36 38 3 37 30 10 0 20 37 14 27 30 3 2 9 29 37 1 6 3 22 3 24 2 34 36 3 26 18 18 22 23 1 2 3 28 33 12 7 23 29 14 35 17 14 2 28 39 5 39 13 25 27 17 33 9 26 20 28 20 35 11 1 25 19 31 13 4 4 4 30 28 8 28 39 37 4 21 25 2 13 24 5 8 3 19 16 5 35 23 10 5 11 30 39 5 26 24 19 16 21 8 21 29 9 6 4 18 16 16 2 10 8 35 17 7 17 8 13 33 6 3 37 18 2 24 4 25 23 30 12 38 31 36 37 11 12 5 8 17 18 21 4 5 37 34 18 1 9 20 14 23 14 24 26 27 39 25 15 2 14 27 15 18 30 21 29 29 32 24 3 25 14 33 1 31 39 15 6 1 3 17 4 14 26 7 16 3 36 13 2 23 12 3 34 33 31 37 2 19 13 16 2 19 13 36 34 19 12 16 19 10
3445 3040 3037 3384 2622 3187 4115 3572 3785 3258 3579 3214 2863 4326 2890 3146 4579 2830 2982 4046 4442 4536 2792 4929 4275 3183 4064 3620 4152 3846 2622 4866 3111 2538 3602 2654 10 3022 4321 4228 4485 2859 2969 3961 2637 3503 4283 4145 2555 2796 4629 3623 3818 4484 4918 4772 3456 4180 2599 4507 3985 4051 4979 2792 3210 2547 2855 2772 4987 3301 3222 3298 3191 3028 2523 3567 4181 3017 4879 3210 4627 3038 3378 4828 4732 4958 2578 3612 3156 3219 2571 2628 3274 3260 3121 4857 2664 4272 3042 4367 4661 4709 4129 4759 3628 3360 4181 2709 3361 4735 3153 4746 3487 4067 3047 2794 3596 2703 4151 2860 4076 3050 4409 4667 3841 4511 3158 2900 2987 3635 3370 3675 3648 3820 3602 4308 11 2874 2658 4586 4039 3522 3346 4718 3401 4256 2787 3832 4932 4996 2546 4523 2772 2918 3348 3551 3398 4194 4058 4211 4069 2833 3400 4948 4746 3842 2669 4174 4608 4879 3820 19 4906 4970 3870 4008 3277 3461 3647 4595 3365 2949 4671 3859 2824 2756 4798 2676 3379 3522 4715 4045 4238 3932 2955 2709 3400 4224 2830 2592 3130 2853 3764 4601 2881 4068 3742 3093 2926 3840 2500 4606 39 37 9 14 4 20 11 28 0 20 29 26 8 12 11 24 27 31 34 16 1 7 29 20 31 21 21 23 30 4 19 3 33 36 25 15 39 8 29 4 23 6 30 16 10 21 38 9 33 18 30 33 7 32 2 26 1 11 17 22 30 39 18 17 4 15 23 31 31 29 26 15 20 25 28 3 37 36 36 35 10 3 38 4 8 16 34 6 28 39 16 12 15 6 21 18 24 26 5 4 32 3 28 30 9 7 19 36 11 12 24 7 15 34 24 10 31 11 35 27 23 30 21 37 34 35 11 23 31 37 13 6 11 36 37 6 23 12 26 31 26 33 31 35 4 19 28 33 2 25 6 28 10 10 17 33 21 22 3 2 32 6 31 36 14 1 37 9 3 5 37 3 16 18 33 36 17 1 33 38 31 8 20 25 13 14 12 18 19 28 37 1 4 28 29 38 33 20 11 25 37 37 12 9 17 33 24 1 26 16 35 20 23
4730 3950 3262 3322 3263 4584 3398 2680 4158 4500 4173 2852 3174 4792 4488 3187 2681 3220 4487 4535 2663 3794 3964 3790 4814 2689 4121 4341 4382 3344 4543 2563 2530 4911 2751 2749 3186 4887 4469 4202 2593 3171 3233 4810 2528 3612 4821 3068 4218 2840 3963 2981 4413 3195 2830 4103 3190 3452 4113 4978 2577 4411 2892 3548 3267 3691 4836 3745 4059 4519 4813 4639 4536 4296 4449 4727 4281 4776 4722 2791 4164 2542 4238 3174 4940 2882 2558 3152 3498 3130 2515 4974 4442 3551 3612 4343 3700 2955 3171 3089 4502 3997 4490 3649 4384 4265 2938 4073 3627 4696 16 3778 2874 4740 2796 4431 2855 3986 4125 2774 3830 2702 3910 4177 3292 3119 4926 4790 3229 3013 4906 4655 2968 2937 4163 2504 4614 4138 4438 3204 3481 3375 3316 4098 4296 3561 4944 4388 4222 4281 4131 2796 3139 4569 4054 3422 3953 4650 4970 2635 4313 4099 4315 4526 3000 2869 2718 4615 4529 3090 4028 4288 2754 2800 4163 4598 4590 3353 3795 4318 2855 3382 4919 4549 3901 3183 4562 2579 4622 3360 3770 2691 3580 3400 3048 2565 3987 4367 4807 4979 3292 3734 3696 3248 2809 4390 4714 4628 4383 2875 3543 3380 1 19 25 34 39 32 23 16 16 0 3 36 15 26 11 10 1 39 3 27 35 26 18 18 38 37 10 32 20 7 16 18 6 21 27 24 25 23 35 14 21 28 3 9 7 8 33 28 8 16 21 30 30 10 13 33 10 16 7 10 26 35 5 23 5 31 14 8 18 5 24 39 26 15 35 23 16 7 33 33 14 11 19 34 11 34 32 17 27 39 13 11 13 28 9 36 8 22 8 28 36 14 13 11 22 24 23 28 5 9 28 30 7 8 1 36 30 32 2 11 13 1 7 30 28 20 32 3 37 12 32 30 3 20 31 1 23 37 5 33 32 22 30 3 2 25 37 4 37 26 6 15 18 18 6 39 32 27 5 6 6 10 33 8 31 9 27 33 29 35 23 35 29 16 22 23 33 35 28 14 29 24 10 2 19 36 14 23 11 30 26 1 24 35 29 22 20 3 21 24 38 37 22 18 34 8 21 27 16 32 31 28 39
4076 2903 3607 4292 3901 3567 2877 2628 4038 4211 3972 3833 4712 4945 4945 4718 2503 2712 3461 3929 4545 3544 4825 4829 3525 3515 2535 3038 2858 3389 3212 3287 3250 2752 3405 3431 3875 3408 3969 4928 3478 2814 2954 3199 4633 3841 3346 3174 4790 2899 3035 3005 4838 2657 3296 3955 2567 2861 3176 4126 4462 4015 4776 3241 3202 3107 4321 4726 4752 3656 4729 2857 2564 4332 3339 4676 3205 3297 3094 4561 3971 2738 3494 2916 2638 4940 3448 3195 3228 3299 4485 2842 3223 4551 4910 2510 4091 2541 4349 4840 4122 3622 4302 3168 2707 2714 3851 3367 3568 3696 4158 2592 2808 3162 2827 3840 3735 3831 4959 2635 4571 2617 4275 2854 3963 2685 3856 4432 2874 3534 14 3792 2626 4780 3567 2603 3357 3037 4215 3046 2552 3940 3432 3841 3520 4966 4109 2979 3713 2812 4345 4056 4094 2969 4236 4732 3984 4219 2838 3961 4553 3588 4967 3857 3287 3996 4040 4794 4281 3130 3652 3032 3323 4511 2518 4935 3334 3939 3152 3799 4764 3491 4899 3104 4535 4103 3018 3837 4693 2712 4469 3102 3126 2738 4294 4166 2832 3419 3118 3160 3034 4567 3575 2736 3311 3076 4670 3435 4345 4022 4888 4704 36 3 11 21 10 6 16 23 7 28 0 10 11 24 12 20 29 32 20 37 26 5 7 1 20 22 10 4 6 19 4 30 38 17 15 32 22 30 5 5 12 4 39 28 7 13 23 18 35 38 16 25 6 31 14 24 37 6 34 32 27 17 24 11 38 7 38 3 20 11 20 20 7 27 6 1 22 10 38 34 21 13 16 39 19 32 10 28 3 36 21 29 18 10 14 26 38 26 20 14 5 22 25 19 11 34 15 19 13 3 17 7 29 9 30 2 24 37 23 1 10 29 11 19 33 19 10 36 19 35 28 25 27 7 18 35 32 22 10 6 8 20 5 9 11 21 26 28 4 1 13 29 10 25 19 24 30 1 36 26 34 3 2 24 36 11 30 18 39 39 31 13 39 11 38 30 27 2 15 22 20 12 22 19 3 29 18 9 36 15 19 12 17 3 10 23 12 10 27 18 21 26 7 14 4 23 15 38 37 6 39 23 12
2558 3100 3477 3333 3942 3585 4369 3051 4241 2634 4480 4499 4302 4370 3090 3931 3999 3846 3141 3494 3421 3365 4696 2564 2862 4270 4187 3764 3899 11 18 3142 3667 3309 4161 2834 4205 3108 2886 4091 4834 3217 4945 3857 3928 4454 3882 4974 3902 4354 4540 4111 4030 4890 2793 3104 3462 2522 3774 3240 4759 3312 4341 2926 4164 4793 4540 4866 3788 4001 4948 4972 4271 3502 4523 4682 4989 4850 4512 3509 2946 3114 3912 3042 2665 3872 3680 3809 4687 4381 4226 4715 2768 3099 4946 3909 4857 3316 4858 4442 4030 3607 3502 4280 3677 3347 3914 4816 2608 4807 4052 2761 4809 4147 4120 4971 3756 3488 3497 2605 3713 4089 4511 2930 3275 4197 2591 4825 3187 4642 4360 3157 4200 4630 2954 3526 3396 3274 2883 3400 4925 4874 2520 2887 2961 2642 3750 2683 4083 2717 4522 3471 3297 2928 3582 4044 4955 4950 3529 4875 3637 3132 4743 3879 2676 3147 3849 4260 4649 3111 2709 2745 4163 2696 4380 3673 3248 4871 3083 3839 2986 3152 4774 2669 2710 3848 3349 4745 4552 3904 3327 4932 3803 4775 3992 3848 4863 3783 4769 2519 3433 3953 3429 3064 4731 3323 4558 2594 3553 3914 2729 2770 39 9 6 25 20 23 35 14 39 5 17 0 20 27 10 15 28 28 18 25 20 26 16 31 19 13 36 6 5 11 27 1 21 28 3 10 33 15 9 36 13 11 14 15 21 5 15 27 9 18 12 12 13 29 2 11 23 35 26 13 16 39 21 1 31 4 3 2 37 36 33 13 30 7 39 2 4 10 22 11 22 16 27 23 24 28 33 20 19 26 21 23 17 18 15 25 22 7 32 36 34 35 15 23 25 1 25 28 21 30 25 18 8 16 11 12 29 23 33 6 39 3 36 4 39 17 10 38 19 10 15 36 21 10 2 3 24 31 1 36 8 36 14 31 35 17 11 11 37 11 28 23 23 35 39 28 5 19 37 2 27 8 39 31 19 9 20 34 5 12 32 31 20 18 14 22 39 25 24 1 5 7 18 11 35 23 20 25 24 13 3 26 35 36 8 1 4 37 35 21 36 33 12 4 3 24 27 37 18 19 30 30 26
4491 4566 2631 3438 2529 3488 3397 4391 4023 2526 2724 3318 2883 3360 4306 4653 3667 3283 3413 4121 4280 4455 4156 3506 4307 4701 4590 3648 4191 4031 2757 4531 3577 3413 3811 3411 3297 4785 4534 3877 2550 3043 3178 2814 4757 3179 4361 4602 2516 3604 4446 2754 3133 3109 2860 2639 4449 3162 3707 4236 3077 2930 4104 4733 3583 4239 4384 4400 3368 2708 2722 2990 4883 3190 3057 3003 3464 3036 3499 3617 4825 2664 3802 4826 4573 3241 3598 2796 3905 3517 4078 2504 4181 2827 3597 4113 3475 2530 4241 3542 2640 4717 3860 2578 2919 2942 3699 2527 2783 4793 3270 2863 3792 3066 3079 4997 4837 2550 4272 2638 4279 3778 2875 3375 4806 4891 4863 4987 4628 2702 3474 3895 3538 3556 3014 2959 4406 2990 4366 3717 4588 3325 3770 4873 4949 2527 2779 4758 2641 4595 3863 2699 4698 3002 3747 3322 4636 3371 2632 3194 3644 4180 3617 4642 3200 3687 4887 2517 2593 4496 3866 4190 2712 3052 3023 3028 4531 4940 3802 4011 3500 4255 4412 4013 4622 4190 2582 3126 4058 4235 4645 4466 3117 4523 3075 3611 2984 2795 4562 2862 4861 4034 3616 3135 2674 3653 3823 4120 2923 4216 4080 2973 17 29 13 23 34 21 31 17 19 8 34 3 0 7 25 26 5 33 37 34 13 38 27 38 25 27 30 9 31 32 26 27 10 24 27 30 22 24 18 25 26 21 3 25 31 26 35 36 20 33 4 33 7 25 14 38 14 9 39 22 32 11 26 10 25 11 29 5 27 11 4 20 13 36 26 14 8 24 23 20 39 2 35 24 10 34 18 35 19 10 7 24 10 10 33 9 1 19 28 30 27 3 35 2 7 3 7 20 34 31 30 3 20 10 18 25 39 25 22 25 27 13 4 20 1 39 2 34 37 25 34 18 13 37 15 16 12 1 32 9 31 31 8 35 30 34 29 24 24 38 6 36 21 19 2 18 26 37 14 20 8 2 20 1 14 32 10 28 10 31 23 28 24 8 2 24 23 16 14 8 33 30 26 8 8 27 21 2 25 25 28 24 1 6 11 25 26 11 29 11 10 28 11 34 1 29 34 2 39 6 4 8 7
3159 2670 3112 4534 4130 4572 4293 3938 4890 2889 3170 3672 2740 3554 2570 3190 3963 2668 3263 4874 4720 3014 2992 4534 4940 3566 2983 2906 4554 4435 3743 3893 3307 3475 3772 3603 3396 4812 4491 2936 4832 4233 4550 3896 3115 2862 4800 2941 2819 2602 4580 4338 2810 4289 4696 3836 3844 3703 3343 4688 2944 3623 4087 4335 3482 4612 3584 4555 4428 4460 3906 2683 4580 3444 4470 4418 4272 3830 2950 4086 3392 4897 4850 3853 3346 3798 4059 4575 3245 2602 3936 3249 2707 2513 3659 3119 2547 3757 3247 4313 4350 3043 2811 2528 4812 3772 3010 3703 3315 3246 4111 4445 2998 4588 4637 2532 4454 4358 4943 2677 4176 4489 3666 3411 4453 3633 4784 3380 3518 3305 2923 3187 3335 3959 3059 3828 3659 4149 4039 3817 4403 3810 4347 4575 2612 3114 3120 4781 3826 3221 3444 3387 4811 3473 2666 3443 4044 4593 3965 2595 4807 2838 4464 4618 4328 3706 4996 3295 2526 4477 3583 3056 3687 3359 4116 3364 3286 3686 4007 3128 3968 4854 3090 3309 3788 3837 4338 4891 4893 4118 3560 4774 4304 2523 3822 4331 3838 2721 3626 4519 4920 4857 3452 4409 4304 4032 3634 3002 2848 4533 4465 3565 5 1 28 18 13 20 19 19 5 38 25 17 5 0 31 34 16 25 35 17 21 17 30 11 3 35 23 5 15 1 32 6 1 27 28 9 39 9 4 27 15 12 27 12 5 2 38 9 21 3 36 9 29 33 28 13 2 7 10 7 30 11 5 13 10 7 2 29 34 39 35 26 28 3 23 20 6 1 35 11 9 4 12 19 21 30 2 9 19 33 38 11 23 1 6 6 29 28 6 13 8 3 32 10 33 13 27 1 5 20 18 5 39 8 5 2 24 27 15 16 10 39 16 35 10 25 4 13 2 3 8 27 3 24 24 19 30 38 26 3 16 26 6 30 31 30 18 15 19 16 37 36 19 37 2 18 24 23 5 30 28 21 30 28 9 31 37 7 30 1 36 33 14 32 34 38 32 25 8 27 32 19 19 12 27 20 37 7 18 22 21 33 9 19 30 34 21 32 33 9 3 37 23 6 18 29 35 32 5 28 38 36 7
4665 9 3542 2952 3154 4317 2737 4244 3453 3650 2940 3279 4819 2607 2520 2550 3352 3781 3328 2831 4946 2923 4632 3478 3314 4101 3203 2983 3027 3468 4719 4075 3979 4829 4755 4729 3641 3679 2502 4679 3515 4501 3945 3108 4958 4153 2946 4480 4043 4689 2889 2948 3581 4475 3076 3226 3088 4534 4976 3004 3178 3557 3915 2531 4966 3764 3345 2546 4468 2899 2989 2712 3106 3978 4602 3313 3168 3343 3219 3525 3210 3072 4479 4504 3462 4012 3404 4088 2770 4224 4193 2896 4897 4074 4590 3133 4660 2791 3590 2550 2566 2938 4829 3720 4603 2934 3241 3086 2760 4808 3592 3908 4696 4707 4801 4055 4656 2940 3489 4580 4794 3504 3912 2545 4017 3000 4817 4487 4616 3276 4909 2567 4606 4164 3778 4578 4394 3778 2803 3371 4453 2532 2661 3313 2982 3442 3317 4850 3250 3498 3474 3090 3290 3395 3827 3708 3145 4409 3763 2643 4049 3052 3269 4106 3206 2775 3103 4037 4876 4886 2704 4736 4000 4623 4637 4828 4977 4086 4571 2694 4095 2639 4398 2554 2876 3083 2944 4294 3792 3617 4026 2519 3714 4968 2885 4471 2896 4143 4386 4192 3822 4400 4003 2934 4836 4238 3307 4469 3988 4271 3896 2702 26 2 5 28 30 22 36 2 36 21 36 9 13 9 0 26 33 24 35 9 2 1 28 32 31 26 20 26 24 5 38 25 35 28 7 14 5 32 17 21 1 3 8 29 1 11 12 38 2 8 8 15 33 13 22 18 37 20 31 8 4 11 16 17 39 3 3 23 24 39 28 3 21 27 32 30 19 36 1 6 24 3 9 15 14 22 33 14 24 37 29 38 12 39 19 2 23 11 17 32 38 11 29 33 28 28 33 8 4 32 5 2 31 14 11 6 38 5 11 36 37 23 17 13 39 4 22 18 31 14 5 19 25 5 18 23 31 18 21 13 5 15 29 5 26 24 9 15 5 5 31 1 3 21 26 32 35 18 39 9 6 23 18 1 1 11 33 32 1 7 32 30 29 24 34 4 25 10 26 20 17 7 22 28 17 7 12 11 7 23 39 25 6 36 24 28 13 13 17 6 15 5 15 19 34 23 1 30 11 22 7 30 14
3557 2720 4833 4399 3068 3320 4951 3946 3263 3042 2771 2640 3155 2625 3629 3664 2780 3422 4052 3194 4050 4821 4930 3051 4104 4759 2768 3996 2777 4561 4723 4606 3922 4117 3409 3825 4676 4902 3933 4442 2541 2885 2989 2583 2792 3568 4418 3800 3615 2656 4086 3500 2658 4083 3208 4001 3774 4502 3415 4654 4969 3905 4373 4071 2865 4146 2951 3926 4316 4721 2583 3482 3890 3971 3725 3330 4453 3955 2893 2967 4001 4074 3876 4174 2594 4345 4196 3239 2980 4127 2744 3532 4496 4914 2594 4100 3601 4650 2501 2733 2522 4689 4743 2519 4930 4762 2977 2631 4529 2604 3528 4103 3420 4886 3489 3637 4342 4800 2663 4702 4176 4855 3589 2936 3436 4311 4617 3845 3750 3238 3774 4017 3811 4202 4092 4770 4916 2546 3296 4486 4993 4695 4388 3438 2995 4854 2760 3275 2907 3164 3015 4955 3970 3364 2703 3346 3979 4690 3120 2664 4772 3125 4176 2508 3357 4496 4393 3231 3782 3828 3882 3178 2925 2876 4081 3616 4740 2551 4114 3898 3757 3909 3873 4022 2844 3177 3841 2597 4605 3737 4876 3606 2681 4403 4733 2594 4473 2973 2790 3041 4222 4045 4126 3547 3291 3603 3911 4253 4002 2986 2601 3703 31 22 10 24 6 31 19 25 12 6 9 37 18 14 4 0 11 30 15 15 35 20 38 8 13 16 15 27 16 10 3 35 22 17 3 21 25 21 39 17 14 26 10 3 20 31 39 29 24 18 29 10 32 35 24 38 6 30 15 3 20 10 9 15 27 37 32 6 9 10 11 15 11 7 32 30 19 5 36 29 26 16 4 3 36 38 30 14 24 6 39 18 37 5 24 32 12 9 12 17 39 35 10 2 39 29 39 29 11 24 15 16 9 32 6 21 13 33 39 11 29 17 10 9 3 29 16 28 16 24 6 33 14 26 21 3 20 36 24 13 20 19 4 11 31 38 30 10 14 24 30 25 35 4 7 20 22 16 3 7 20 25 4 38 25 16 10 29 13 33 23 29 30 24 31 19 33 4 1 37 23 16 24 15 18 11 9 11 15 32 24 25 34 38 10 8 32 39 25 21 37 38 30 1 15 32 38 11 14 26 12 23 1
2726 3502 2630 3482 4048 4093 4890 3618 2901 2537 4826 3450 13 4498 2818 3034 3567 3926 4023 3639 4501 4488 4561 4372 3006 4591 4545 4856 2600 4231 4680 2784 2995 4080 4838 3048 2837 4244 4125 4764 2904 4177 3240 2923 2553 3281 4132 4182 4466 4049 4421 4086 3328 2940 3977 4899 4112 4091 4713 3509 4427 3778 4586 3393 4143 4407 2581 4656 3889 3621 4992 3350 4386 3641 2619 3033 4938 4627 3414 4794 3476 4385 2629 2574 2757 4406 4047 4231 4413 4181 4135 4899 3521 4762 4858 4251 4502 2544 3325 4963 4658 3221 4329 4623 2887 4585 4927 4465 4295 3747 3698 4982 2794 3807 3104 4247 4140 2525 2607 3506 3252 4134 4305 3198 2527 3228 3844 3970 3676 2720 3820 3839 4310 3132 3003 3110 2609 3149 4738 3470 4300 3352 2709 3298 2792 4050 4821 3992 2917 4203 3779 4661 2699 2844 3785 3938 4279 3951 3016 4525 3432 3658 2812 3210 2636 2674 3696 4604 3119 3437 3230 4736 4069 4969 3732 2597 4115 4067 2938 3462 2997 4067 3853 3433 3321 2849 2644 4218 3024 3727 4909 3315 4426 3560 2860 4952 4621 3948 2964 3663 3858 3308 4873 2786 3905 2992 4303 2882 3141 3663 3659 3058 32 5 9 13 21 5 36 27 12 28 18 11 2 20 25 9 0 6 12 30 10 34 25 29 5 3 1 39 7 15 35 17 8 28 6 18 10 14 32 30 39 33 36 38 5 35 18 24 22 10 1 16 6 17 21 4 3 11 36 3 22 11 32 26 11 38 20 31 27 18 36 23 19 5 16 13 39 35 1 38 25 18 5 20 29 26 29 28 23 39 19 3 9 8 36 16 24 28 32 5 22 6 23 8 12 30 3 30 1 32 19 32 5 5 38 12 32 39 5 39 20 13 9 13 4 19 32 8 21 23 16 9 10 24 14 23 22 7 9 23 6 23 4 31 2 11 33 28 14 33 27 11 14 37 17 37 14 38 19 33 22 30 27 13 1 5 31 20 39 25 25 8 31 34 17 11 32 16 14 35 2 19 6 11 39 32 29 25 35 25 28 39 10 13 5 25 6 32 20 33 25 13 16 20 19 23 28 24 17 25 2 34 24
3865 4714 3969 4769 3581 4983 3193 4891 2880 2703 2944 3988 4188 3516 2847 3425 4165 3244 2846 3325 4589 3187 2811 2637 4978 4561 3881 2689 3952 4538 2795 3051 4898 2965 3092 4304 4718 4374 4176 4018 4986 3771 2646 4919 3745 3503 4315 2588 2764 3075 3258 2604 4978 3437 4348 3922 4304 4477 3400 3031 3623 2858 2728 3484 4764 4674 3432 4460 3288 2712 4729 4470 3492 4964 3000 4709 2835 4382 3219 3356 4531 4879 4452 2617 4303 3367 3802 3575 2818 4299 3004 3803 4972 3196 4748 3627 2664 2912 4324 4659 3303 3394 3603 3336 4812 4431 3060 3606 2933 4781 2647 3852 2506 4630 4523 3463 2954 2811 4542 3857 4975 3424 4537 3558 3628 4388 2573 3075 3269 4047 2557 4040 3538 4619 2694 4245 3439 3638 3556 2994 4924 4197 4627 3780 4103 3841 4064 2981 3221 4056 2864 4837 4845 3867 4463 3203 3315 2893 3828 3671 4242 4022 4134 3762 3904 4437 3958 4944 4777 4963 4092 3327 4426 4932 4795 4822 3736 4419 3934 2524 3155 4815 3782 4216 3364 3182 3857 3569 2777 2523 4908 4952 3816 3794 2560 4592 3922 2932 4385 4096 3777 3248 3737 4450 3607 3322 2969 5 3085 2741 2723 3433 11 8 18 36 2 19 38 1 16 30 1 18 27 33 15 27 18 0 5 24 12 7 36 29 4 36 21 8 11 19 29 25 6 4 31 13 27 38 11 7 2 36 1 8 29 19 30 20 23 3 9 3 5 28 39 26 21 35 22 32 33 32 34 8 34 20 6 25 39 14 25 4 35 34 25 31 9 4 36 17 23 15 33 20 4 33 22 11 5 35 33 33 19 6 15 2 27 33 26 27 29 9 12 12 27 8 9 33 27 12 37 24 37 24 34 1 8 17 39 7 32 2 30 3 6 8 18 14 3 39 9 9 33 9 27 7 13 4 16 6 37 32 31 29 19 24 30 6 31 34 21 8 7 39 4 39 20 20 4 9 27 5 8 29 36 16 37 31 39 32 1 30 9 2 32 10 30 10 1 8 33 36 34 2 3 9 28 10 19 39 21 14 39 25 19 14 16 33 20 36 11 4 13 30 10 12 20 2 15 25 30 11 2
3311 4958 3785 3452 4619 3574 4681 3661 2548 4789 3424 3168 4329 3871 3022 3841 4765 4747 3972 4711 2853 2694 4050 4940 3499 3246 3500 3052 4954 2920 3112 4534 4291 2933 4391 2515 4905 3378 2769 2530 4996 4550 2812 4431 2883 3059 4811 4044 3249 4377 4915 3769 3126 4949 3775 3417 4233 2599 4613 3562 4608 2753 3899 4842 3775 4484 3289 3381 2698 3456 3899 3304 2695 2705 3939 3799 3584 4019 4707 3231 4442 3538 2973 2570 2999 4161 3872 3818 2689 4033 4405 2513 3299 4941 4701 2672 3759 3117 3502 3416 3048 2733 2931 2558 4605 3606 2621 3074 3195 2981 4310 4535 3813 4579 3452 3849 4107 2980 3920 3112 3426 3398 3634 4687 2540 3906 2948 3507 2955 3636 4043 4204 3572 2894 3918 4041 4909 3601 3107 3761 4167 4182 3677 3240 4951 4807 4165 3703 3656 3163 2709 3984 3103 2942 3986 2693 2574 3813 4500 3582 4585 3185 3097 3795 4358 4630 3961 2682 4993 3951 3776 3797 2628 3720 3976 3628 3305 3525 2929 2842 4632 3163 4040 3766 4508 4231 3138 3937 3348 2832 4059 2729 4814 4764 4091 3647 2810 4364 3535 3910 2718 4292 4242 4261 4514 4460 4464 3478 2535 2781 2677 3466 28 4 21 22 8 14 21 36 14 5 23 36 26 6 16 39 37 13 0 29 15 21 34 33 7 14 14 31 32 11 29 29 16 34 36 35 13 29 8 8 24 39 6 23 13 23 25 18 1 2 14 30 17 6 33 21 27 37 12 38 10 24 2 39 6 19 25 38 18 13 36 1 6 36 32 11 21 36 16 27 11 14 35 35 35 14 8 6 10 25 7 9 29 14 30 37 31 15 34 35 3 19 39 7 24 36 20 19 33 37 30 23 8 38 8 31 4 38 8 5 4 34 22 37 17 1 24 10 31 9 37 34 33 21 29 30 2 19 32 39 3 11 35 11 9 19 24 15 10 12 19 36 30 36 13 36 10 19 10 24 8 27 13 25 25 35 9 30 12 9 33 11 38 28 18 12 16 22 5 28 15 3 14 37 15 4 20 6 19 6 13 16 7 19 8 20 9 1 8 10 32 26 36 36 28 20 38 29 25 18 4 19 30
4989 3208 2906 3901 4754 2621 2797 3453 4546 3132 3049 3027 4948 4948 2963 3796 3881 2728 3930 3265 4475 3959 2790 4221 3353 3290 3053 2664 2828 4941 2573 4245 2795 2955 4104 4907 4762 4222 3159 4843 3438 4943 2765 2681 4428 2703 3247 3003 4870 2778 4925 3748 3443 3734 3385 3019 3530 2715 4195 3273 3572 3088 3961 2694 3271 3214 3495 2597 2760 3304 4695 3177 3043 4104 3051 3526 2975 3419 2955 2691 4274 3803 3496 3169 3917 4789 4553 4456 3365 2812 3124 3718 4391 3515 4462 3768 3003 4975 4449 4755 3034 3962 3641 4228 4708 4567 3580 3167 3234 4347 4795 2572 4281 3010 4502 2829 4014 3318 4269 2895 3694 3197 3219 4056 4079 3232 4810 3855 3565 2879 3446 3438 4123 3899 4231 3522 3753 4776 3591 3970 3911 3578 3856 3091 4099 4015 3722 3501 4517 3592 3623 4077 3652 4210 4202 2858 2533 3920 4559 4688 2812 4151 4911 3768 3432 3612 3419 3769 3781 4391 2988 3867 3267 4051 4480 4936 4883 4985 4522 2712 3198 4908 3862 2828 4831 2634 4720 2743 4031 2949 4422 4726 3966 3509 3011 2815 2853 3020 3778 4193 4868 3800 2882 4389 2807 4543 2576 4127 3849 3624 4063 3499 7 30 3 39 7 4 9 13 22 4 21 6 27 33 14 16 8 35 19 0 22 22 7 31 17 25 28 3 6 24 9 25 28 30 16 3 34 3 23 12 24 23 17 1 6 18 31 25 21 10 3 22 5 25 3 22 10 11 36 38 9 19 3 20 25 27 1 17 18 33 9 17 1 16 2 32 2 20 15 28 3 25 22 22 21 39 13 18 22 23 29 37 39 22 8 11 19 22 21 35 8 38 27 19 38 37 2 9 36 2 2 15 29 15 11 32 8 1 6 23 35 10 7 10 32 24 36 5 15 19 31 35 32 18 11 39 32 26 30 30 5 35 35 26 10 34 39 18 16 37 34 11 37 28 9 10 30 14 7 19 8 1 35 39 30 17 3 23 4 35 23 21 32 4 15 27 29 4 19 19 22 32 31 16 9 14 6 21 1 17 5 30 1 30 36 21 2 25 31 9 31 2 27 15 19 7 39 19 35 13 3 8 26
2673 3863 4377 4883 4966 3609 3026 3211 4296 3123 4359 4946 4530 4149 4057 4456 4576 3921 2980 3027 3083 2669 3441 4198 4985 4361 2889 2791 3494 4179 4999 3421 3271 2602 2759 3922 2569 4202 2637 2588 4194 4872 3690 2717 3349 4598 3501 3546 4280 4389 4997 4138 2840 3119 2580 3206 4365 3553 3998 3403 3569 2942 2870 3254 4516 3296 2804 4587 3220 4067 3686 2595 2958 4352 3556 4749 3936 4965 3249 2534 2642 4609 3460 3672 3189 3555 3686 4389 3563 4806 3396 3755 3196 3076 3650 4603 3182 3435 3371 3412 3323 4274 4698 4635 3972 4245 3637 3191 2841 3071 4052 4621 3102 3681 4589 3632 3184 2567 3268 3298 4742 3778 4245 4526 3172 4734 3039 2948 3891 3373 2586 12 4107 4571 4780 3302 3288 3560 3846 3998 4464 4442 4406 4389 3123 4502 3828 4736 4221 3548 3529 3400 4546 2870 3677 4993 4330 4848 3582 4434 3585 4023 2978 4048 3815 4354 3984 4985 2817 4890 3541 4688 2948 4751 3940 3086 3363 4185 4308 4532 4292 2837 2549 3234 3430 3993 4022 4237 2847 4120 3808 4076 4459 4819 2575 3795 3385 3342 3011 3736 4552 4955 4743 3411 3641 3926 4712 2740 4909 4573 4812 2752 8 20 12 5 22 30 20 14 11 34 37 6 6 25 26 2 29 8 29 36 0 29 29 10 14 6 16 28 24 18 15 26 28 31 35 4 2 23 8 21 33 8 13 23 24 6 19 6 1 15 13 25 35 16 36 2 33 36 4 38 11 11 33 35 23 14 34 19 12 29 33 24 24 9 1 1 8 2 28 32 16 8 33 10 38 1 38 24 2 29 28 20 35 16 28 17 37 19 30 3 21 32 13 10 22 10 15 32 6 1 8 20 20 37 2 37 19 4 4 26 32 18 14 25 31 33 26 33 14 10 2 21 7 20 2 3 39 35 30 9 37 15 6 33 16 3 27 19 1 31 33 38 3 6 6 7 38 36 19 26 23 38 21 29 25 37 33 39 6 11 32 5 12 20 38 16 9 2 34 11 3 27 18 3 9 3 10 13 8 9 26 32 12 32 34 6 33 39 17 39 31 18 17 6 23 20 7 39 28 35 8 14 16
4357 3599 4203 2518 3399 3162 2634 3668 4030 3975 3444 3428 3063 4380 2587 3149 3452 2665 2596 3639 4351 4189 4301 4409 3751 3508 3683 3110 4511 3712 3483 2799 4734 4980 2960 3534 2760 3555 4854 2963 4917 4812 3549 4525 4377 2905 4863 3653 4805 4613 2503 3228 4704 4959 3416 4318 4506 4563 4507 3507 3288 4350 3126 4776 2505 4439 4310 4784 3116 3517 3863 3423 3587 3916 3039 4213 3325 3778 3187 2893 3589 4274 2514 2744 3964 4129 3216 2706 4939 4231 4689 3364 3135 3029 3768 2712 3297 4015 3704 4350 3701 3462 4044 3576 4571 4729 4319 3150 3313 3803 2644 4908 4929 4056 2672 3407 3448 2652 4588 4358 2585 3875 3441 4231 3531 4112 3924 2742 3786 2755 3133 2738 3632 4939 3579 3672 3657 3314 3263 3694 4346 4360 4522 4106 3636 4536 4651 3572 4817 3729 4835 4325 3650 3398 3762 3895 4570 3874 4887 3944 4784 4244 4749 3589 3219 4188 4441 3846 2874 4287 4645 3119 4694 3932 3880 3550 3891 4050 4584 3426 3192 4514 2857 3372 4859 3725 3721 3606 3442 2940 2653 3740 4527 3349 3914 3038 4914 2970 2867 3169 4709 2946 2728 4874 4681 3640 4974 3422 4066 4755 3888 3171 14 27 11 35 30 8 10 8 9 25 36 27 35 26 23 21 25 20 13 13 17 0 4 7 30 15 33 33 5 21 18 20 6 5 13 26 9 12 19 35 18 31 15 32 22 2 1 1 28 3 32 12 27 20 9 22 38 17 29 2 15 29 5 10 4 9 27 35 7 21 24 18 22 39 13 14 9 23 26 8 14 1 33 38 37 1 26 15 30 29 4 24 13 35 4 32 34 26 14 18 26 29 30 7 4 4 22 38 11 37 10 18 22 27 1 19 35 14 36 25 39 27 33 17 30 9 30 18 38 7 3 12 36 18 39 7 29 25 27 37 17 9 9 1 34 11 37 6 10 1 14 10 38 16 10 29 32 2 27 24 18 23 36 5 1 12 17 15 9 18 14 6 7 15 5 36 7 12 34 24 21 29 27 17 12 22 11 3 14 14 5 26 35 13 32 16 36 16 17 29 11 10 26 26 33 8 11 14 27 5 8 28 34
4797 4898 2715 4281 3399 2575 3679 2772 3593 2527 3904 3623 4824 4296 2834 3477 3080 4039 4880 2675 3706 4826 2644 4455 2659 3165 4840 2926 3586 3385 4678 3921 3952 4966 3627 4071 2926 4111 3515 2906 3814 4833 3717 2926 2931 4334 4846 3585 3354 2805 3538 4773 2638 3876 3966 2515 3682 2652 4913 3992 3325 4838 4664 4372 4826 3085 4201 4345 3586 4861 3594 4513 4223 2648 4551 2947 3065 4892 3932 3979 4342 2965 4899 3337 2754 3168 3188 4017 4051 2895 2724 4442 2916 3766 4936 4415 3845 3592 4362 4274 3389 3733 4789 3729 3343 4856 4140 3036 3379 2585 4729 3900 4048 4235 4081 3466 3519 3457 4163 3112 3856 3430 3234 4412 3503 3067 3012 4599 4975 3556 4935 4075 2852 3433 4807 3054 4220 4243 2643 2910 3956 4093 3479 4793 3259 4929 4630 3561 2977 3177 2900 2903 4953 2517 4224 4058 4864 4104 3408 3700 4105 4413 2566 4486 3523 3465 4081 2508 3093 2976 4906 4797 3947 3194 3879 4126 4856 4981 3953 3095 3538 3668 4189 3306 4322 3268 4127 4052 2616 3954 4320 4995 3187 4981 3398 3788 2863 4806 3172 4056 3668 3378 2929 2980 4150 2574 4151 3431 2773 4218 3946 3507 32 11 19 4 23 17 23 34 4 34 7 28 16 38 30 10 8 31 10 36 37 39 0 22 19 6 18 3 9 30 17 38 25 14 22 27 25 15 14 27 37 7 1 34 34 2 1 16 10 16 9 24 38 1 16 27 16 6 9 6 21 22 24 24 31 9 39 28 19 18 8 27 39 20 8 17 15 17 22 18 38 9 6 31 3 29 19 4 19 31 34 27 31 15 31 6 31 4 4 32 11 23 16 5 15 7 31 5 11 7 37 14 5 36 27 12 33 11 12 28 25 25 14 27 1 16 36 24 34 38 10 10 33 34 16 33 22 15 8 26 4 17 24 18 19 26 10 30 16 11 1 2 17 9 13 12 3 14 18 7 39 2 4 1 25 27 28 4 18 39 27 31 25 2 19 37 27 20 19 26 34 12 23 9 37 18 5 16 20 18 11 17 23 12 35 12 20 10 36 27 11 12 38 7 8 37 25 18 30 12 4 29 6
4998 4261 2595 3134 3263 4679 2530 4249 3725 2923 4084 3519 4220 4626 4481 4985 3588 2945 4693 2602 3032 3213 3710 2970 4425 4465 4526 4742 4357 3654 3617 3192 4681 2504 3508 2824 2798 3562 4498 3779 4688 4977 4346 3364 3733 3515 4991 2936 2639 3836 3442 3132 4121 4181 4878 4057 4388 3930 3060 3042 2802 4361 4096 3942 4596 3876 4559 4782 3770 3065 2751 4119 3552 2696 3542 4900 3401 4605 3915 3197 3498 4956 4042 4309 4424 3191 3419 2591 3683 3370 3803 2800 4876 3628 4282 3104 4158 3405 3235 2848 2732 2618 4884 4488 2819 4676 2885 3338 3263 3053 4183 3796 3501 3215 4393 2569 4795 3870 3379 3036 4390 4716 2701 4940 4700 4628 2525 3832 3253 3079 2961 3738 3145 4224 4770 3268 3906 3084 3807 3618 4278 3325 3197 4595 2616 3533 3340 4391 3013 4887 4608 4228 2813 3117 3863 4751 2830 4428 4805 4040 2860 2868 4645 3047 3275 4552 2762 3307 3624 3605 4055 3508 4015 4325 3237 3393 3709 3167 2913 2928 4022 4242 4866 4367 4089 4735 3729 2776 2776 3823 3798 4105 2983 3916 4697 4140 4794 2780 4729 2985 3716 4899 4526 4884 4350 2748 3251 4383 4079 4444 2842 2532 5 2 29 38 36 30 2 2 34 25 28 33 35 3 23 9 18 7 20 10 10 38 22 0 36 22 17 22 39 6 3 5 29 21 20 29 26 1 22 3 19 8 16 8 19 34 33 10 19 4 39 9 3 6 32 13 11 29 5 39 9 3 34 30 32 20 18 34 37 38 27 7 10 39 2 39 32 30 9 34 13 9 11 22 1 23 3 11 2 39 15 7 19 3 2 10 27 36 20 1 30 8 32 18 11 27 38 23 29 11 6 3 11 13 22 7 11 29 21 39 22 30 34 30 24 29 24 37 12 14 19 11 36 24 36 26 29 10 16 21 24 10 1 12 7 23 31 1 19 36 25 10 21 34 7 32 29 7 13 7 32 1 13 8 23 30 29 5 16 35 39 28 38 16 14 34 4 7 20 10 30 2 10 32 1 12 7 14 16 7 4 39 33 37 28 17 18 10 13 39 34 24 18 17 35 28 2 34 6 20 2 27 26
4302 4419 3875 4287 4705 2736 4156 3494 3525 4389 4417 4689 2713 3502 4102 4364 3071 4750 3633 4610 4965 2835 4493 3651 3507 3309 3967 2990 4927 2923 4668 3640 4821 3594 3458 4695 3476 2986 4568 10 4790 4933 2906 2854 3805 3228 3000 3837 3467 4573 4633 3567 4408 4693 4551 3344 2758 3633 3143 3883 2765 3395 3448 2520 3006 3918 4463 4161 3024 4429 4281 4110 4913 4281 3352 3568 3467 4291 4341 4789 4782 3690 3617 2707 2902 3352 3937 4361 3560 4653 3103 4141 3958 4170 2638 3479 2593 3477 4146 4846 3320 4172 2671 3285 4244 3360 3561 2513 3871 2705 2509 4807 2886 3290 3715 3456 3346 3022 2828 3395 3316 2546 3875 4381 2941 2521 3277 3155 4778 4471 4983 3112 2754 4557 3059 4540 4186 4277 3187 3634 4980 4934 2875 3362 3058 2638 3160 4175 3482 2580 4681 2593 2560 2994 3170 3577 13 3107 4159 4197 2702 4029 4340 4942 3987 3776 2649 3048 3717 4514 4107 4279 3798 3124 3625 3555 3342 2991 2793 2694 4911 3203 2619 3159 3770 3289 4152 3993 2979 3509 4288 4160 4078 4962 3880 3616 4349 4411 3242 3786 2606 4595 4562 3243 4965 4538 4123 3319 3804 4986 2719 3453 30 26 21 35 12 31 3 32 12 29 36 18 35 39 17 3 39 29 23 37 11 24 6 4 0 15 32 14 26 35 16 28 37 29 1 14 11 38 5 26 10 38 24 18 28 4 38 17 4 15 24 32 20 17 34 12 34 29 26 13 35 18 20 32 8 14 31 9 19 12 39 22 10 39 36 1 22 32 39 30 39 37 32 1 30 10 17 20 8 30 6 14 27 28 6 5 34 19 2 37 1 18 26 2 10 32 14 25 38 11 23 13 26 14 30 4 10 32 21 18 24 7 36 4 38 38 1 26 30 6 3 10 22 33 23 17 26 33 37 2 19 27 27 36 23 12 11 15 24 7 7 32 35 20 8 32 16 6 32 12 21 2 12 4 19 7 38 19 28 22 34 16 16 16 24 15 30 2 35 25 21 37 15 13 11 7 30 14 28 31 29 15 17 37 12 10 7 35 33 14 37 12 10 8 7 9 2 23 37 30 12 7 36
3911 4393 4913 3388 2632 3983 3604 3988 3583 2662 4479 2503 4363 3528 4458 3265 3833 3747 2954 4359 3611 19 4952 4615 2917 4810 3614 2725 3217 4676 2556 4473 4588 3588 3960 4843 2557 3782 2569 2616 3969 3482 3291 3369 3355 2855 4032 4972 4129 2649 3390 3738 3892 3140 4189 3895 2849 3770 3304 4140 3784 4971 3647 3934 3091 3420 3575 2831 4840 4983 3283 3889 4631 4786 2662 2518 2553 2982 3271 4365 4840 4027 3464 4430 4020 4986 3835 2559 4329 3629 4910 4112 3793 4538 3441 2767 4993 5 2547 4670 4008 4573 3366 3737 2864 3003 2970 4494 3690 4118 4167 4817 2579 3261 4661 3112 3736 3655 4577 2671 4283 3086 4272 3278 2725 4010 4237 4987 3400 4197 4492 3679 3259 4917 4473 4930 4181 2920 4293 4231 4200 4222 2638 3357 4045 3754 3557 4682 4857 2502 4363 4290 3550 4836 3203 3257 4521 2825 4042 4882 2603 3841 3760 3410 4858 4563 4288 2673 2964 4072 3825 3603 3897 2809 3552 4366 4272 4567 4719 3554 4676 4538 4764 4490 3329 3423 4496 3876 3577 2739 2851 4126 3177 2672 3087 3201 4217 4303 4987 4369 3041 2587 4454 3900 3301 4480 4994 2611 2847 2889 3609 2972 3 4 23 15 25 2 10 2 31 33 23 28 28 11 16 21 29 12 12 37 14 25 32 26 39 0 29 17 5 22 30 7 6 1 17 30 29 17 27 8 28 4 14 18 34 20 4 6 36 23 8 20 22 36 2 22 20 38 3 35 15 26 9 5 4 19 33 39 28 11 17 8 34 11 8 38 34 20 15 26 9 38 23 24 6 2 23 16 5 24 8 23 38 8 8 1 7 7 26 17 23 31 20 1 37 13 28 20 19 36 15 35 19 18 25 3 16 1 26 22 28 10 27 9 28 15 1 16 5 9 15 30 32 32 17 10 3 14 35 8 32 10 23 14 13 29 11 37 36 38 26 4 1 31 25 21 18 33 18 11 6 14 5 37 12 25 11 32 36 33 21 1 22 14 3 10 36 12 28 21 3 28 26 24 36 26 3 29 26 29 31 5 22 33 19 4 11 21 39 35 7 35 17 37 17 21 22 28 19 30 30 25 31
2643 3923 3729 3601 4770 3285 3852 3244 3853 4453 4437 4176 3747 2862 4249 3297 4286 3643 4479 3335 3337 3654 4967 4736 3335 4439 3396 3302 3691 3856 2905 4415 4578 3545 4814 2935 3423 4773 4332 3229 4357 3772 3618 4347 3399 3751 4916 3288 3690 4638 2680 3585 2929 2586 3726 2819 2836 2846 3389 4546 4670 4568 3614 2831 3399 2515 4396 3246 3192 4927 3376 3580 4000 2874 2789 4329 4487 4449 2844 2543 3291 3829 4886 4657 3555 2920 2762 4480 4907 3748 2572 3425 4290 3075 2865 4536 3770 3862 2723 4007 4730 4477 2804 4192 4822 4538 3386 3913 4822 3662 3218 3524 3980 2871 3020 4855 3022 3160 4451 3197 4158 4802 2892 4672 4216 3219 2573 2615 2762 4533 3168 3579 4835 2992 3103 4334 4524 3813 4436 4950 2694 4657 2789 2565 4525 2849 2841 2547 3905 2932 2999 2784 2541 3689 4811 3314 2503 3639 4563 2713 3894 3213 3543 4744 4084 4410 4605 4700 4415 3709 3414 4743 4303 2622 3937 3114 3769 4793 3321 3993 4902 4472 3190 3006 2752 4215 4584 4221 4580 2730 2686 4253 3866 2509 2956 4678 4006 4793 4012 4595 3083 3757 3911 3623 3416 2777 4740 3116 3342 3740 3642 3425 24 4 8 16 26 18 5 22 39 13 14 22 3 38 2 24 21 12 20 3 37 27 31 9 27 10 0 29 9 15 18 21 1 8 12 13 5 2 23 29 18 18 24 9 34 10 20 12 19 29 33 15 7 35 6 33 8 34 13 7 27 20 36 7 3 3 2 36 33 17 3 38 33 2 31 18 19 18 3 5 15 38 22 15 20 37 1 35 15 14 14 20 7 29 33 24 36 15 10 16 3 30 22 22 21 13 18 19 18 29 3 31 24 14 9 15 1 5 15 21 28 17 19 16 18 15 13 4 21 11 14 31 29 5 5 27 11 19 38 39 12 14 13 16 2 1 29 10 31 1 37 20 25 33 27 12 26 14 26 30 4 1 6 36 24 25 9 39 30 15 14 14 21 10 2 30 26 38 5 37 34 11 39 23 33 26 16 10 5 10 13 16 23 37 18 6 12 5 16 3 33 20 16 22 2 23 35 31 35 35 15 14 1
4889 3182 2717 4370 3291 2831 3076 4911 3014 2596 4584 3455 4361 2746 2683 3161 4482 4291 2919 2642 4687 4413 2597 3016 4311 3551 3477 2602 4758 2956 2789 3679 3987 3248 3698 3890 3326 3646 3010 3159 4239 3680 4418 4954 2508 4897 3229 4183 2706 3957 4351 2566 3341 2967 4574 3576 2735 4660 2673 2848 4804 3518 3384 4851 4648 4345 4799 4262 3077 4696 4263 4905 2610 2960 3793 4318 4427 2899 3290 4096 4349 4431 3831 4420 3428 4407 2815 4283 3393 3471 3058 4191 3017 3271 3987 4823 3809 4776 4803 3627 4097 4895 4712 3478 3057 3076 3891 4624 3655 2816 2575 4038 3666 3997 4831 4304 4944 3671 4846 2863 3071 4128 3997 2770 3659 3279 3076 2993 2860 3837 3638 4352 2749 3521 4279 3514 4537 4740 3645 4504 4777 3375 4160 2675 2715 4922 3781 4101 4635 2898 4784 3483 3384 3849 4050 3966 3549 3928 2635 2566 3501 2564 2713 3570 3547 4667 3464 2551 3445 3159 3384 3424 2732 3357 3212 4618 4001 4469 3710 3073 4465 3712 2702 3333 3297 2549 3015 3041 2670 4060 3228 3752 2591 3510 2813 3849 3809 4294 2634 4532 3505 4217 4991 4675 4840 2649 2564 3001 3210 3348 4897 4630 37 32 29 8 19 38 26 28 34 34 23 30 21 8 22 12 20 25 26 3 37 39 30 30 12 4 10 0 37 38 5 15 9 32 33 26 39 21 14 19 29 19 33 2 38 27 8 32 25 33 25 17 36 13 31 25 5 1 15 25 4 8 18 5 23 25 16 28 21 9 12 8 18 14 10 22 22 12 8 3 3 2 13 15 7 28 21 19 23 4 3 21 23 24 10 24 38 2 5 20 9 4 4 39 33 21 15 6 39 14 20 38 9 14 29 14 36 32 13 16 38 13 38 2 2 32 15 4 21 10 9 7 35 23 27 19 35 12 15 22 12 34 18 16 33 12 38 29 13 22 10 32 30 28 12 13 25 19 33 32 38 34 16 3 16 36 6 22 26 17 32 14 5 36 1 27 25 12 26 39 13 9 22 39 27 31 38 11 22 18 37 11 26 12 9 8 8 5 26 18 31 18 4 16 33 17 38 16 35 35 11 37 11
2830 2518 4574 4735 4750 3058 3081 4895 4265 3783 4316 3067 3164 4288 2818 3999 2826 3208 3452 4461 3313 4396 2607 3720 3656 2781 4086 4288 3265 3564 4552 4593 3107 3013 4140 4323 2882 4281 3145 4910 4840 3115 3950 3588 4272 2528 4194 2901 3977 3590 4983 2971 4858 3236 2926 4941 3475 4710 4142 2699 2606 3253 3771 4761 2757 4191 4795 4352 4228 4341 3805 3674 4766 2574 3731 4921 3589 3642 3732 3504 3380 4709 4697 4464 3456 4968 3064 2857 4561 3178 2725 3831 4814 2594 4030 3079 4336 3893 2551 2796 4422 4508 4332 4516 4381 4922 4385 4357 4383 4308 2750 3564 3032 3544 2965 4743 2617 3409 4774 4954 2951 3071 3187 3303 3969 2753 2697 4193 3391 3498 3197 4728 3819 3653 4980 4867 4315 2640 4045 4934 2732 4217 4863 2816 4328 3796 4648 4570 2725 4816 4911 2912 3270 4842 4186 2758 2874 4657 3568 4381 3275 4909 4328 3382 4921 3770 4723 4250 4113 4591 4008 3710 4436 4853 2650 2838 4801 2795 2724 4442 4814 2609 4800 3204 2684 2543 4553 3823 3094 4440 2655 4577 3050 4515 4976 2731 4541 4827 3051 3977 3420 3012 2646 3117 4326 2905 3621 4309 4789 4505 4981 3800 21 10 22 34 22 2 26 36 13 32 1 27 2 25 13 10 37 28 19 26 21 10 3 38 36 4 12 33 0 27 14 5 32 39 36 4 7 2 30 15 11 3 33 9 7 8 13 5 13 39 34 36 19 28 6 30 15 25 8 22 5 33 3 7 23 4 2 18 18 33 29 36 23 33 26 32 5 10 8 18 13 32 39 35 27 35 38 2 12 29 23 33 23 32 20 32 36 7 29 11 39 8 5 31 4 18 14 10 27 35 3 13 20 31 18 29 9 36 31 11 35 22 3 34 36 34 2 31 4 37 31 4 29 30 26 7 22 24 30 11 18 35 16 33 4 12 18 31 24 4 35 1 27 21 28 11 36 9 26 19 9 4 15 4 33 27 23 38 19 20 9 38 33 18 23 6 36 16 34 1 9 32 33 26 29 16 7 36 10 15 21 20 19 26 20 10 19 35 19 35 19 11 24 36 16 7 1 22 37 1 28 22 17
2944 2930 4496 4047 3693 3730 4629 3184 2544 2956 2881 4317 3955 4141 2788 3295 3463 3840 4308 3021 2866 2596 4517 19 2882 4595 3889 2905 2582 3791 3863 2604 2506 4162 2683 3251 4271 4968 4139 3387 2584 4804 4821 3984 4267 4656 4090 3938 4234 4647 3016 3362 2846 3057 4915 4565 3397 4897 2843 3767 4502 3971 2534 4874 2718 4230 4489 2582 4388 4664 3648 2882 2639 3028 2787 3544 3247 4695 2726 4925 3584 2792 3885 4619 4913 3122 3828 3810 3445 3852 2901 4289 4483 4266 3965 4771 2806 3326 4379 3464 2684 4743 3259 3115 3581 3762 3248 3176 3387 3903 3353 4234 4918 3778 4764 4130 3877 4045 3927 3437 4547 3495 3772 4980 3831 4095 2836 3318 4846 4771 4934 2644 2750 4970 4013 3332 4220 2787 4780 4477 4805 4528 4496 4705 4174 4871 4697 3992 4437 2709 4744 4454 4434 3718 2650 2838 4549 3430 4332 3924 2625 3156 4487 2925 4547 3305 3117 4108 3230 3931 3476 4528 3669 2808 4476 2856 2807 3448 4552 4581 4346 2792 4767 4383 4851 3168 3859 3248 4108 4031 4216 2827 2721 3721 3232 3074 4204 3169 4915 3419 4838 2789 2603 4199 2882 4333 4367 4053 4263 3195 4299 3882 7 32 21 18 28 32 9 3 2 29 32 19 7 23 13 29 26 3 13 21 37 15 5 26 1 11 13 26 29 0 17 28 9 24 8 3 27 30 29 1 24 11 20 23 31 14 34 14 13 25 22 29 14 32 33 29 20 31 17 39 38 8 16 1 23 3 18 29 39 5 8 20 19 18 15 34 38 13 14 38 19 1 25 12 31 14 14 1 29 8 15 29 38 34 27 15 18 29 13 6 7 6 33 18 35 8 32 20 35 38 26 26 23 5 8 37 14 5 4 16 31 7 37 14 22 12 4 4 10 36 33 21 24 6 13 9 14 20 29 36 25 2 22 12 34 38 33 10 26 34 20 31 31 34 24 8 11 10 13 37 21 22 8 19 19 8 9 20 12 37 2 10 28 2 22 5 10 17 12 12 32 8 8 8 16 38 29 17 2 20 37 4 35 2 3 25 17 33 19 15 2 4 24 33 39 16 10 37 4 12 10 11 31
4961 2581 3966 2521 2831 3508 4312 3306 2710 3747 3828 4032 4767 3766 2960 3432 2895 2695 2576 3919 2852 3889 4007 3376 4038 3603 3097 2954 3177 2767 3978 3707 3707 4320 2661 4195 4110 2530 4194 3150 2796 2914 4457 3126 2649 4972 3335 3965 4798 4316 3664 4643 3004 4442 3075 3479 4616 2862 2755 3660 2916 2532 3678 4552 4116 4491 3855 3616 3453 3017 3214 3538 2858 2869 3968 4752 4271 4468 2657 3358 4450 4764 2792 3085 4519 3478 2927 4775 4075 4070 2500 2940 2625 3832 3204 2714 3816 4337 3313 3196 4119 2801 3637 4906 4418 3595 4549 3269 3938 3786 4417 4889 4368 3137 2718 3542 2679 2684 3001 4528 2872 2724 4845 4344 3238 4149 3917 4746 4913 4445 3859 2699 4683 3019 2967 3823 4205 4422 2929 4037 3412 3631 4300 2893 2942 4946 3597 3332 3047 4210 4925 3037 3867 4408 3702 3246 2687 3947 2722 3521 2515 4188 3948 2773 4486 3716 3705 4711 3010 4386 4175 4411 3350 3358 17 3903 2846 4583 2959 2826 3865 2610 4802 4149 4119 4317 4585 4785 3676 4605 2683 4596 4651 3960 3536 3410 4742 3781 4500 4937 2587 3806 3199 4013 4386 4260 3139 4932 2643 3128 4161 4845 15 26 30 2 9 19 6 16 28 13 28 30 34 34 31 35 16 4 8 33 26 39 18 14 22 2 31 28 6 5 0 7 16 20 36 2 1 17 29 24 10 6 6 37 29 8 18 7 37 32 16 3 4 29 32 34 23 11 17 22 15 26 20 34 34 15 29 13 15 8 11 21 29 27 13 19 35 33 14 2 17 18 13 13 4 29 28 26 25 8 37 10 1 14 15 14 31 28 10 31 24 30 16 20 11 35 2 37 25 28 27 29 25 32 20 35 1 9 1 35 1 32 12 12 25 5 13 11 18 1 2 26 36 15 17 2 25 11 22 8 35 25 35 13 19 26 2 22 23 9 30 19 10 34 38 17 11 25 13 33 17 34 17 15 37 36 38 22 34 37 32 35 33 15 14 30 4 4 13 30 9 1 11 26 22 31 24 9 21 27 28 11 24 25 31 32 9 14 4 16 32 4 10 32 23 6 27 1 38 11 29 18 36
3688 4473 3688 4026 3960 3301 3213 3869 3483 3565 3247 2682 3033 2653 2723 4979 4059 4817 2883 2553 4358 3726 2723 4143 3493 2782 4067 4405 2933 3953 3386 2942 4413 4354 4018 3320 3139 4771 4318 2548 3073 4062 4766 4432 3901 2721 2679 4361 3682 4724 3222 4465 2733 3123 4957 4104 3195 4703 3847 4067 4169 3926 2847 4060 2724 4004 2535 3546 3869 4960 3127 3022 4060 2932 3499 2797 2733 4162 3428 2636 2567 3677 3991 3322 3338 3438 3772 2616 3311 4251 4890 4870 2903 3988 3970 4045 2709 4618 4870 7 3586 3049 4930 4226 3608 3566 4950 4297 4525 3527 2813 3159 4862 3770 4908 2688 4185 3342 4150 3863 4368 3531 3233 2963 4855 3597 3713 3430 3299 4538 4665 4153 2543 3555 2577 4146 3850 3211 3771 3746 4712 4993 3687 4299 3004 3642 4459 4058 3660 4791 4976 2805 4338 4143 3566 2731 3834 3394 4956 3727 4278 2966 2621 4694 4972 4456 4834 4381 4618 3779 3339 3539 4753 2873 2712 4692 17 5 4716 2685 4250 2730 3359 4596 3059 3559 4594 3811 3620 4442 2838 4302 4633 4264 3402 4605 4296 4490 4206 3739 4834 3212 3663 3104 3178 2977 3719 3229 4051 2749 2745 3969 27 7 7 18 36 29 6 16 32 2 15 21 11 12 27 14 23 2 31 38 29 5 29 24 21 23 9 32 17 24 5 0 4 39 37 25 28 39 24 11 36 17 18 32 27 14 33 8 30 30 21 10 22 16 16 33 23 31 29 31 19 33 39 24 33 18 32 13 39 16 21 35 6 5 39 27 11 39 14 21 11 8 39 25 26 10 24 4 27 30 34 35 5 24 12 30 14 21 16 25 16 16 24 7 16 33 35 13 30 9 20 18 5 37 2 29 4 32 20 29 25 15 3 23 21 38 9 28 5 16 30 16 6 6 37 38 22 36 16 34 15 12 32 25 5 24 30 16 9 28 22 21 10 6 2 14 39 27 20 2 19 1 2 14 5 9 11 12 3 17 2 25 38 15 8 14 2 31 3 36 3 15 12 13 11 30 36 13 2 22 1 39 35 6 12 38 36 6 19 35 12 6 5 7 29 33 23 36 34 11 31 21 38
4016 4597 4279 3874 3135 19 3752 3501 3208 2524 4557 4984 3408 3451 3546 3513 4281 4722 4947 3274 2551 4508 4063 3545 4929 3091 4335 4042 3484 3045 3634 4533 3062 4858 4781 3354 4114 4468 4215 2917 4250 3372 4134 2521 3977 4522 2794 3432 3027 4917 4165 3061 2816 4221 3131 2500 3503 3273 3056 3336 4394 3470 3884 3119 2816 4348 4270 2681 2606 3593 3293 3798 3510 3559 3658 4852 3405 4594 3593 4211 3290 4967 2539 2835 3522 3532 3218 3233 3746 4404 4771 2927 3811 12 3255 2898 4414 3699 3685 3785 4532 2537 4396 2855 4737 3679 3179 2666 4407 4226 4892 2591 4507 3781 2655 3016 4411 4985 4196 3412 4580 3118 3597 4804 4461 3864 3812 4931 2838 3662 3773 2643 4470 3907 3989 3820 4037 4437 3045 3186 4505 4505 3949 2684 4600 3698 3655 2637 2696 3711 4461 3044 3495 2513 2737 3615 3395 4195 4491 3402 3353 3641 4292 4637 4968 2933 4545 3823 4345 4526 3954 4326 3289 4337 2533 4405 3899 3762 3701 4756 2993 2588 3736 4893 4954 3106 4797 4080 4900 3612 4956 4425 4199 2584 3473 4704 2520 4238 4188 4927 3283 4198 3170 3758 3106 3154 4232 2529 2581 2532 3576 2835 8 38 5 21 1 25 17 2 11 33 12 19 14 12 30 20 35 24 31 24 12 33 26 28 25 36 11 24 39 19 15 33 0 6 39 12 3 34 9 19 12 24 33 36 18 25 36 12 33 3 7 2 36 37 11 33 37 17 11 11 23 9 23 8 7 21 1 24 28 8 4 6 17 34 30 1 11 13 17 10 39 22 31 37 8 35 1 19 8 30 22 24 33 29 30 7 11 8 29 18 12 14 4 36 32 21 31 18 37 36 10 39 23 21 23 39 36 4 29 13 8 5 10 11 11 29 25 7 1 23 13 3 37 22 30 7 17 38 39 4 24 20 10 18 10 16 3 7 37 1 24 12 21 6 12 3 16 5 12 30 6 13 19 15 4 28 32 11 20 33 7 23 28 36 5 3 9 30 14 4 15 18 12 3 19 33 3 34 30 10 36 38 9 39 26 12 27 17 29 37 32 19 10 11 6 22 10 2 18 6 17 2 35
3313 3361 3077 3262 2863 4445 4894 3132 4508 4785 4980 4120 2855 4818 4468 3809 3202 4520 4389 4939 4943 2688 3174 3648 3784 4756 2868 4380 3749 3181 4999 4570 3990 4658 2728 2892 4747 4298 3512 4080 2648 4729 4868 3232 3320 3361 3183 3219 3589 3189 2976 3437 3114 3279 3794 2811 3759 4097 2991 4445 3050 4098 13 4791 4749 3689 3845 3967 4566 3959 4574 4926 4271 4392 4433 3499 4576 3204 3222 4506 3799 3637 3340 2962 2748 3146 2600 3445 3876 3909 3276 4810 4573 2502 4331 4218 4437 4264 4103 4907 3954 4161 2762 3476 4024 4975 2575 4149 3573 2961 2911 3137 4375 4222 4268 2653 2681 2811 2709 3646 3154 3349 2795 3223 3423 3797 3383 3704 3658 4425 2963 2797 2771 3333 2659 4491 4392 3990 4402 3884 2580 4577 2629 4072 3878 4096 4399 3095 4467 4292 4251 3948 3778 2727 3791 4024 4222 4379 4063 4111 3473 2765 4233 3754 3902 3756 4013 2548 4670 4385 2584 3530 4291 3751 4828 2775 3116 4129 4093 4160 4711 4722 3954 3184 2739 4017 3413 4327 4684 3885 3396 4290 3993 2922 3789 3746 2909 3379 3399 2599 4181 2923 2841 2505 4323 2685 2918 4669 3265 3881 2927 2657 13 29 18 24 1 37 5 27 19 38 5 23 36 38 35 1 33 16 36 21 15 32 33 30 25 20 21 30 26 9 34 12 7 0 25 29 32 38 22 7 32 27 4 5 32 38 13 17 36 11 26 4 6 6 15 3 39 15 7 17 10 17 28 15 25 31 28 24 37 38 27 13 29 26 34 17 6 32 36 10 11 9 36 31 25 11 30 14 30 5 17 3 38 35 14 31 22 28 28 20 1 28 18 38 17 5 8 37 28 27 28 38 30 8 14 24 32 21 19 24 25 5 12 38 9 39 17 18 27 6 23 17 13 3 37 38 21 30 31 4 36 5 37 12 11 28 36 3 29 2 22 26 29 28 35 19 37 7 21 36 5 33 16 13 32 36 4 14 1 35 25 14 12 17 9 2 5 25 38 26 34 33 5 12 6 11 37 8 17 5 1 23 11 1 35 39 23 25 19 31 35 4 21 3 15 35 15 26 2 6 19 32 37
3814 5 3491 3679 4473 4505 3532 3024 4908 3452 3437 3456 3371 3203 3628 4358 3957 4443 4101 4931 2873 4622 3869 3924 3116 4795 4399 4786 3446 3219 4879 3584 4548 2965 3228 4210 4906 3723 4582 3296 4017 3411 2732 4570 2683 3396 4949 6 3778 3128 4249 4295 2806 4733 4423 3738 3484 2825 2645 3546 3507 4148 4251 4646 4393 3667 4695 2505 4176 4380 3664 2653 4895 3776 2920 3060 3010 3284 2732 2901 4053 4582 3887 2871 2901 3270 4946 3391 3899 4298 3591 4668 4113 2736 3272 2584 3992 4384 2570 4157 4358 4060 2599 3443 3410 4018 4028 4122 3716 2725 3753 3440 4337 3564 3036 2929 4336 3741 3071 2806 4206 3791 2597 3138 2928 4561 3892 2831 3515 2645 4785 2518 3442 2885 3036 2668 2872 4760 3323 2755 2896 3082 4582 4448 2745 2500 13 3742 3099 2793 4023 3665 4578 2691 4916 4466 3540 3060 2786 4092 2590 4568 3371 3006 4843 2613 2956 3387 2777 4114 2842 4182 4223 3253 3824 4462 3300 4052 4653 4596 3519 3434 4314 4916 4378 4448 2872 3179 3139 3838 4613 3228 4203 3481 4178 3146 4327 2531 3479 2694 3192 3641 4255 4304 4188 3442 15 3834 3684 4608 3366 2877 37 37 26 14 17 20 32 7 20 11 3 12 36 30 36 17 24 37 37 20 11 37 39 6 7 10 26 5 17 18 24 10 21 31 0 34 9 17 16 22 17 36 39 11 12 11 10 33 34 30 17 28 20 3 3 9 22 17 16 3 25 11 33 21 6 26 33 6 31 36 31 33 22 33 32 7 28 4 37 20 27 12 28 28 14 19 28 3 34 29 16 33 35 13 2 21 37 22 4 7 17 26 24 1 5 18 30 26 30 25 24 24 10 17 36 28 18 15 38 22 30 16 38 16 25 31 8 13 2 19 37 4 9 18 11 34 14 38 15 24 22 34 11 36 28 16 30 33 14 34 21 34 32 22 18 37 32 23 19 29 18 27 6 29 28 12 20 30 15 34 27 29 28 12 30 28 36 2 6 15 32 37 2 30 7 27 21 5 12 4 18 21 20 24 37 36 39 20 11 8 6 19 33 11 31 1 39 24 28 11 6 5 17
3652 4703 3594 2870 4913 3595 3977 4695 3764 4450 4953 2654 4714 15 4521 2798 3068 4151 3640 4155 2796 4641 3286 4176 3483 3574 4753 3257 3107 3901 4184 4195 2908 2958 3440 4774 4316 4755 4859 4321 3460 3465 4522 4120 2535 3265 4838 4322 4914 3420 4179 4206 3355 3975 3453 4779 4225 3731 4899 4773 3754 4177 3530 4744 3081 4561 3195 4528 3441 4337 2623 4063 4623 4334 3022 2568 2692 3256 4593 4935 2603 2683 4877 3613 3550 2869 2705 4462 3250 4283 4422 4672 4650 4958 3588 3771 3850 3844 2760 4976 2731 4853 3421 2917 3165 3326 4700 2644 4974 2710 4453 4891 4769 4085 4599 4478 2959 4649 2729 2886 2777 3307 3763 4359 3569 3103 4752 2785 3647 4094 3408 3589 3116 4970 3606 3782 4235 3857 4946 2992 4771 4221 4341 3772 4935 4365 4790 4513 4753 2586 4406 4183 2941 3225 4883 3804 3544 3724 4910 4694 3740 3927 4659 4372 4039 3558 2750 4325 2745 2933 2552 4709 4110 2530 3837 3793 3623 3742 3999 3437 4719 3574 2927 3315 2987 3903 4167 3339 3277 2618 3698 2518 3310 3824 3184 4175 4107 4212 3133 3824 4577 4288 4857 3802 4289 2659 2586 2876 3005 4212 3420 2510 2 4 37 20 4 2 28 18 5 10 1 28 31 5 23 23 25 22 8 28 39 5 30 13 17 38 33 39 32 20 3 27 15 18 34 0 19 27 7 35 26 20 28 26 29 23 21 22 4 6 15 12 35 13 34 16 29 7 36 32 33 16 28 10 5 9 12 29 30 18 38 34 37 1 27 6 27 12 30 27 29 23 5 32 5 29 12 1 11 18 29 7 10 28 32 37 38 8 18 3 38 34 19 16 35 35 6 21 20 13 2 18 31 3 15 25 7 29 29 30 12 17 33 18 32 1 28 4 7 12 18 20 35 13 37 29 15 17 25 18 30 26 34 2 22 14 12 18 11 5 24 21 18 11 4 22 34 36 1 27 31 16 39 28 31 30 29 5 29 17 38 24 25 11 35 15 10 12 9 1 7 8 17 38 7 9 19 30 38 37 14 28 39 4 30 15 8 19 27 29 8 28 24 32 38 2 20 17 31 30 34 39 15
2663 4746 4431 4615 4523 2509 3376 3841 3910 4662 3810 4373 3409 3317 3592 3283 2654 3290 3648 3950 4330 2863 2768 2985 3384 3378 4470 4225 2753 3793 2950 4795 4161 4391 3301 3312 4244 2849 4716 2739 3276 4199 2939 3490 3547 2741 4260 2959 4131 2577 2594 4769 2923 2753 4743 4622 2809 2587 4899 3632 2592 2938 4928 3907 4216 3095 4406 3877 4526 3296 3137 3541 2714 3724 3926 3364 4426 3497 2622 4976 3824 4830 4430 2664 3466 3790 4183 2983 2721 3454 4588 4770 3852 4055 3979 3254 4411 4615 2662 4703 3137 2769 3557 3784 4022 2882 4822 4142 3338 4023 3014 4588 4037 2559 4115 4018 2721 3523 4411 3563 4597 3563 3611 3761 4411 2804 2904 4833 4097 3330 2854 4892 4427 2649 4200 3237 3166 3161 3739 3159 3577 2999 4219 3530 4173 4254 3178 4520 4271 3415 2905 3340 3426 4624 3534 4751 4998 3791 4407 3823 4379 4638 3406 4507 3270 3183 3374 3055 2754 4628 4557 3364 4366 3331 2972 4720 4060 4905 2858 4561 3425 4292 2669 3312 4115 3601 3373 3493 4753 4849 3610 4402 2729 2859 2900 3511 3781 3759 3297 3050 3793 4139 3254 4099 3173 4590 3223 4832 3154 3265 3769 4136 7 34 32 33 24 36 16 37 34 29 26 10 23 16 7 19 22 27 32 12 2 5 35 37 6 19 7 6 33 11 33 34 38 39 31 17 0 29 33 37 13 25 4 22 17 3 25 21 8 32 27 14 26 1 8 39 14 33 33 5 14 19 28 11 2 21 11 2 13 12 18 13 21 17 6 10 1 31 36 7 37 32 28 24 8 15 10 6 27 31 16 14 19 33 32 32 2 10 38 12 27 27 15 24 9 10 17 26 19 7 33 31 29 14 25 22 38 23 24 24 13 27 12 14 22 27 1 32 24 28 38 24 26 31 23 34 9 22 26 23 5 3 31 30 33 26 29 29 7 5 14 3 35 21 6 32 7 8 30 19 23 5 4 28 32 10 28 21 12 4 4 6 11 16 10 33 33 39 12 5 7 7 12 24 9 6 32 6 37 31 22 20 5 32 23 28 29 23 26 11 34 7 13 27 28 27 4 2 39 38 30 26 4
3971 3628 3766 4612 4600 2634 4220 4497 2613 2546 4558 3290 3734 3419 4189 3117 4816 3891 4195 3621 4386 3253 4346 3111 3623 4999 3099 3161 3763 2823 4656 4663 4228 3261 3058 4466 3789 4021 4463 3367 3671 3810 3881 4116 4884 4222 4315 3558 2641 3898 2703 2972 2819 3968 4458 3129 3980 3376 4773 3799 4409 3509 3418 4953 4128 4879 4703 4191 4395 3759 2565 3679 3161 3983 4106 4974 2914 4860 3503 4335 3295 4650 3495 3550 3427 4800 4464 4251 3315 3426 3688 3659 4925 3729 4720 4704 3939 4928 4229 4023 3489 2562 4700 4337 4839 3884 4504 4735 4050 4079 3175 4863 3578 2547 2745 4185 4240 4953 4227 4310 3056 4786 4755 4252 4182 3413 4565 4162 2504 4863 4373 2970 3242 4124 2795 3401 2778 4460 3841 4194 3703 3415 3945 4169 4125 4959 4160 2508 3070 3062 3105 4359 3580 3671 4365 4063 4969 3442 2524 2958 3856 3216 4469 3667 3612 4596 3114 3078 3920 3047 4255 3410 4859 3839 4448 2835 2540 3751 4089 3318 4515 4433 3980 3982 4098 3278 3045 4302 3089 4718 4741 4770 4635 4229 4755 3392 4312 2535 4781 4608 4488 4191 4656 2638 2685 3502 3770 3851 4911 4182 4931 2852 4 8 35 14 35 20 4 12 23 14 30 32 1 21 12 25 34 39 34 6 18 28 37 30 27 32 34 33 10 7 8 9 31 16 29 11 29 0 26 30 23 38 39 25 39 13 8 34 27 21 34 17 8 24 19 26 22 33 7 28 13 37 11 15 30 7 8 1 35 5 17 12 21 8 22 20 14 11 31 28 28 13 2 31 15 34 18 33 34 34 28 30 24 33 23 16 11 32 23 39 19 21 8 31 36 36 13 30 10 3 4 24 12 19 8 18 27 3 27 9 1 31 24 14 9 33 17 5 27 5 22 31 4 1 19 29 11 13 16 5 32 16 22 38 31 13 24 21 19 35 31 7 11 2 14 30 22 24 22 27 39 32 28 12 15 11 18 8 30 25 34 7 8 30 13 15 39 26 11 22 35 39 38 30 17 15 37 8 21 5 3 4 36 39 2 27 6 20 1 37 4 8 30 22 20 13 34 15 37 26 37 28 33
3042 4407 3210 4702 4573 3674 2803 3842 4987 4975 2611 2624 3676 4604 3654 4553 3994 3951 4496 15 4245 4270 4485 4582 3921 4466 4992 3082 4965 3433 2690 3831 3914 2835 2933 3137 3561 3826 3575 2523 2942 4401 2764 3784 3315 2779 3627 4786 3420 2955 3413 4983 4704 3934 3820 3955 3600 2788 4751 3572 4917 4979 3810 2617 3754 2828 4376 3695 3468 3740 2961 3928 3485 3167 4260 3609 2593 3075 3785 3243 3405 2577 3913 4716 4181 3072 4599 3834 4448 4704 3327 2746 4469 3093 2834 3532 3996 3545 3985 3297 4285 3933 3387 4695 4684 4785 2689 2879 3999 4604 2686 2724 3559 2699 4501 3617 7 3011 4532 2956 4533 3791 3072 3642 2778 2864 4142 3269 3848 3826 4817 3322 2763 3370 3911 4177 3703 3614 3746 2819 4240 3024 4387 4434 4768 3337 4911 3406 2678 4915 4893 3757 3835 2724 3978 4850 4373 3632 3989 4506 3211 4128 4512 3712 3339 4594 3639 3268 4488 4380 3255 3073 3301 3514 3731 3436 3219 2798 4405 4050 4374 2532 4282 4388 2622 2808 3235 4227 3957 15 4051 3852 4734 4487 4412 4788 2992 3602 4325 4736 4323 3453 2805 4705 4337 3121 4545 3981 3983 4327 4239 3942 14 21 1 23 39 4 5 26 7 11 13 39 23 8 35 16 8 29 7 31 37 36 18 30 3 22 26 6 20 6 36 5 10 27 12 31 9 11 0 11 38 25 26 8 17 2 22 36 20 37 10 11 38 29 16 33 33 30 6 12 12 19 30 34 32 36 26 28 38 23 37 18 22 36 37 34 32 15 16 32 12 10 36 6 27 5 20 39 36 25 32 26 5 29 9 33 8 36 28 29 3 36 5 15 12 38 13 31 38 38 11 32 27 32 16 1 20 23 2 27 12 33 36 20 24 29 15 10 27 25 11 4 31 29 11 3 38 11 16 14 6 36 3 23 25 35 35 31 31 34 27 6 13 36 12 3 34 7 4 29 5 11 2 22 21 37 35 15 38 22 31 25 15 17 2 21 17 32 32 4 30 37 27 28 25 1 2 19 25 37 26 9 26 2 13 15 23 22 38 20 13 25 35 15 32 27 39 37 26 38 4 37 22
3172 3080 4308 4457 3040 4613 2779 3455 3696 3316 4077 2538 2628 2938 4905 4769 3204 3649 2534 3040 2856 4571 2505 3596 3430 2789 3761 3283 3008 4840 2787 4335 3647 2822 4428 3578 3096 3844 3334 4812 4847 4692 4094 2883 2511 2800 4674 3577 3179 4606 4657 4818 4620 2753 3092 2636 4262 4258 4172 4792 3112 4765 3971 4687 3311 2773 3285 4747 2627 2560 2780 3703 4684 4368 3118 3641 4054 3122 3585 4127 4333 3958 3655 4455 4319 2635 4194 4448 3399 3434 4143 3468 4563 2997 3519 4211 2736 4973 4938 2633 4731 4044 2679 3787 4214 4896 4253 3230 4858 4303 3877 4140 2793 3902 3733 4557 2963 4434 3879 4880 4153 2842 3838 3622 4995 2848 4542 2658 3740 4343 4799 3911 4190 3407 3815 2813 3818 3690 3548 3715 4412 2674 4456 4505 3193 4151 3984 4192 3663 3850 4427 3478 2962 3030 2766 3929 2571 4208 4440 2737 3017 4619 4171 3467 4898 3465 2816 3870 3284 3603 4225 4199 4938 3268 3974 4844 3428 3755 4348 2581 2760 2809 2797 2740 2624 4922 4491 3875 3607 3494 4709 4519 4815 4044 3856 2509 2652 3105 4442 8 4632 3663 4533 3814 2954 3238 2541 4072 3623 3732 2686 3867 16 24 38 7 9 18 12 21 19 34 12 6 33 2 23 36 9 24 22 38 38 17 17 1 27 21 8 23 14 2 27 8 25 27 32 26 8 24 16 0 5 18 17 38 6 19 22 29 11 15 36 10 14 38 13 10 32 7 20 16 6 30 38 4 12 9 18 38 15 37 17 29 17 6 29 30 18 36 11 27 21 30 17 6 37 24 32 23 12 26 35 27 4 13 1 29 15 35 26 17 10 16 33 36 35 1 1 38 1 14 11 12 29 9 37 10 19 26 29 21 13 11 35 32 3 11 2 4 9 35 4 15 5 18 4 14 25 29 29 24 36 3 25 9 7 13 8 29 23 13 21 30 2 3 1 34 33 35 16 28 31 34 31 17 13 23 28 6 18 12 34 7 10 11 29 35 30 21 37 31 27 3 34 25 1 34 19 11 29 17 8 32 39 37 2 3 10 24 28 5 34 8 17 23 16 5 39 12 24 15 23 19 16
3839 4503 4470 2834 3391 3444 3602 3213 4626 4463 4649 4205 4609 3402 3974 3135 4563 3816 4209 3083 2658 4950 2767 2534 3554 3825 2934 3119 3406 4669 3867 4960 3816 2580 2937 4288 3359 4910 4729 4608 4734 2835 2597 4186 3503 4534 3383 3069 3849 4593 4484 2672 3891 4381 2703 4218 3527 3871 4082 2789 3213 4069 4101 4081 2554 2951 3620 2542 4533 4126 3131 4484 3782 3290 2891 4360 4340 3292 4632 4756 3254 3122 4886 3897 4889 4590 4550 3080 3631 3495 3316 3305 4186 3434 3013 4624 4825 18 2942 4032 4504 4069 4024 3504 2659 4262 3324 4361 3488 2711 3182 3434 2891 4625 3611 2636 2784 2593 2976 3238 2722 3759 4304 2797 4129 4147 3204 4948 4947 4885 4275 2690 4011 2866 3113 4863 3185 2508 4906 2768 4597 4148 3734 2806 3219 4422 3928 2566 4479 4748 4704 2808 4642 2836 3008 3261 3151 4495 4519 4619 2685 2902 3408 3493 2939 4145 3018 2644 3363 4548 3855 4340 4087 3989 3099 4855 4401 4503 4569 3582 4852 4051 2669 2544 2898 4469 4578 4841 3628 4714 3597 3087 3886 4473 3971 2997 3016 2742 4817 4550 4484 3929 2612 3057 4423 3227 4052 3525 4715 3069 2786 4130 24 24 27 10 24 2 3 28 12 36 10 27 13 36 35 32 28 34 23 24 25 12 38 4 10 15 10 30 19 17 38 25 37 17 38 33 33 5 4 28 0 22 21 4 31 7 18 5 29 4 17 10 10 1 11 16 28 36 21 1 10 14 10 35 3 26 5 34 13 5 8 27 22 14 39 14 32 39 26 27 30 9 29 12 6 34 1 17 35 11 11 34 6 15 28 37 30 37 17 12 3 8 10 22 26 37 12 32 22 34 19 35 16 22 33 14 11 26 36 24 11 27 4 6 10 33 9 37 34 3 5 32 20 15 7 20 1 9 9 26 27 2 20 17 28 30 35 4 27 35 20 22 12 16 12 14 12 32 32 27 34 33 37 36 17 24 8 36 33 31 33 16 10 16 32 12 38 35 38 28 8 11 20 38 30 18 23 19 15 17 31 3 1 19 12 23 14 24 22 31 24 2 21 18 35 35 13 33 13 37 26 13 31
3135 2725 4841 4647 4968 4741 3447 2890 4919 4732 4677 2718 3553 2860 4708 4430 3222 2724 3154 3142 3047 4951 2859 4171 4748 3845 3254 2930 3961 3278 3217 2986 2661 4657 3353 2662 4283 2503 3242 3933 3415 3774 3607 3347 3888 3238 3961 4193 2790 3779 4213 4533 4961 3320 4210 2655 2989 3468 4365 3929 2979 3175 4437 4683 3345 4352 2559 4709 4329 2812 4430 3720 3053 3434 2508 3444 4231 3361 4949 4228 3926 3623 4214 2714 2765 4811 4402 3637 4734 3512 4034 4711 3208 4331 3729 3267 3086 4715 4138 3989 3737 2502 3107 3506 2690 3358 2923 4978 2970 4046 2646 3428 3196 3934 4941 3036 4507 4670 4882 3607 2948 3584 3659 4685 4393 2739 4531 4394 2968 3429 4323 3742 3098 3399 2879 4991 2890 3401 2836 4047 4585 2901 4632 2751 3407 4161 3937 3435 4123 3869 3261 2547 4990 4549 4888 4465 3738 3107 4709 4065 2960 2802 2671 3869 4414 3641 2510 3072 2981 2558 2713 2636 4655 3671 3160 3409 2618 3777 3896 3987 4890 3137 3402 4879 2938 3287 3997 3966 4054 2818 4641 4519 4138 3864 3619 3731 4865 3933 2553 3576 4177 2787 4455 3472 2980 4266 3004 3864 3467 4191 3120 3093 12 38 22 15 23 21 32 31 2 5 18 27 33 15 30 8 16 25 10 25 35 2 34 9 31 9 9 30 9 25 3 30 12 19 12 21 21 13 32 27 24 0 32 30 34 23 20 27 13 33 30 2 34 17 17 34 7 1 10 34 11 15 9 11 36 33 1 8 20 2 21 20 22 20 15 16 27 6 8 25 32 5 9 37 36 22 2 34 9 5 37 21 24 9 18 11 24 1 38 30 15 28 13 2 20 27 31 3 28 1 34 5 5 5 4 35 28 29 25 7 7 6 13 4 4 2 33 22 15 1 35 28 20 10 37 18 27 28 1 19 19 5 12 30 29 11 30 39 18 3 36 22 22 18 14 16 18 37 25 34 20 38 31 14 32 12 32 36 38 31 24 3 1 17 23 33 18 35 32 21 20 10 37 24 14 17 3 39 26 26 8 20 1 5 37 4 2 17 6 21 19 21 1 35 27 1 26 11 36 3 3 25 3
3977 4990 4534 4587 3653 4730 4021 3524 4075 4851 4174 2971 3991 3277 4156 3492 4744 4946 4824 3934 4147 2836 3963 3624 4644 4987 3914 4158 2670 3373 3823 4454 4303 4860 4983 4009 4086 3747 3484 4391 3016 3783 3023 2846 4308 3097 3841 3156 3957 4382 3765 4414 4361 3772 4620 3606 2715 3907 4861 4656 2846 2754 2969 2973 4389 4065 3380 3467 3368 2539 3312 3124 4459 2834 4035 3523 4772 3657 3433 4626 2655 2735 3363 2870 4969 4102 3765 3470 3788 4723 4308 3286 3407 4422 4653 4261 2757 2968 3060 3771 4574 3468 4615 3020 3404 3355 4407 4011 2595 2539 2607 3037 4112 3113 3135 3023 4215 4569 3279 3644 2658 2750 2742 3660 3706 3365 2844 4241 3037 3644 3130 3720 3290 4862 4545 2681 3401 3648 4011 3223 4469 4248 4567 2662 3621 4083 3869 3512 4458 4268 2902 2915 4311 3091 2986 3927 2654 3056 4670 3155 3768 3264 2837 2674 3487 2946 3008 4195 3913 4342 4262 4592 4068 4866 4467 3654 4854 2550 4475 4726 3548 3982 3827 4868 3085 4980 3762 2572 4669 3288 4212 3313 2686 4120 4120 3626 3612 4994 4985 3929 2690 2790 4438 3946 3440 2605 3522 4143 4973 3986 4521 2926 39 36 22 27 37 36 24 35 16 1 37 32 15 37 26 25 24 26 10 16 38 16 1 23 5 28 14 37 19 18 35 1 6 9 12 9 14 4 37 35 26 13 0 34 7 33 19 13 21 31 20 35 18 15 9 9 21 26 12 34 26 19 12 18 1 30 23 5 22 24 19 9 27 32 4 12 37 38 11 18 28 29 12 25 32 36 30 39 4 20 2 8 37 16 1 21 17 13 13 2 4 5 13 28 39 2 22 10 30 11 9 6 11 28 32 13 27 33 17 13 9 29 1 10 34 35 6 26 16 12 26 30 38 13 1 31 25 7 4 20 31 12 13 7 25 2 12 38 13 27 2 38 22 28 29 36 36 27 30 18 13 10 3 4 25 9 39 20 38 37 11 33 30 27 28 14 4 39 13 17 32 21 38 9 34 33 36 31 3 37 15 35 29 39 11 35 19 15 9 22 17 29 24 1 8 10 12 32 38 23 14 17 3
4136 4900 3100 4676 4220 3865 3216 4654 3574 3745 4088 2932 3732 2745 4193 3718 4729 3163 4985 4198 4667 2649 4339 2555 4171 4452 3007 3248 2744 4235 3901 3814 3637 3903 4785 4204 4090 3185 4209 2508 3717 4756 4947 4996 4370 3333 2850 3331 4491 3269 3591 2826 2896 2790 4955 4424 2935 4171 2904 4758 4632 3954 3460 3524 3145 4395 2643 3368 4025 3141 4054 3064 3225 4335 4529 4300 4249 3843 3669 2655 3037 4169 2660 4870 4773 3927 4118 4988 2688 3197 3829 3626 3828 2870 4426 3828 3943 2753 4238 3211 3681 4845 3743 2640 3784 4486 4378 2624 4173 2899 3233 3409 4314 2898 3176 2529 3636 2951 4612 3589 4653 4518 4229 2628 3004 3026 4237 4613 4209 2703 4082 4217 4344 3808 4882 3984 4620 3382 4715 3464 3797 4709 3947 2871 4618 3306 2741 3877 4463 4181 4525 4578 19 4443 3470 3955 3806 4644 4038 3774 2554 2669 4877 3829 3120 4357 2798 4003 3482 4245 3323 3035 4647 3304 2831 4903 3640 4659 3539 4691 3969 3091 4830 3518 2771 2952 3238 3452 3341 3463 3894 3590 4361 2717 3550 3990 3409 4251 4547 3038 3070 4500 4730 4586 2555 2817 4624 4004 3622 4382 3678 3763 38 31 26 36 39 1 33 36 36 5 4 25 38 37 21 14 10 7 25 25 26 1 20 19 36 5 9 15 2 29 34 30 38 5 33 33 12 3 36 7 35 4 39 0 19 1 1 34 11 22 29 23 8 21 7 11 25 18 9 27 23 12 9 31 30 33 22 35 32 7 9 12 15 30 17 17 27 10 35 10 19 23 32 21 31 9 4 12 1 36 10 18 15 19 37 6 33 2 8 34 29 39 9 26 20 29 19 5 20 8 14 28 10 13 31 24 26 7 21 21 24 30 37 39 39 8 1 29 29 29 30 4 28 21 18 33 27 20 32 23 29 22 4 19 31 25 36 33 9 7 26 17 39 37 11 23 25 2 18 35 12 7 21 17 32 12 35 29 25 26 25 34 32 25 3 37 29 27 37 13 34 33 39 23 23 20 16 21 5 28 34 8 9 24 22 8 28 9 9 34 34 15 1 13 13 4 21 26 31 21 5 1 17
4322 2704 3896 3002 3162 3243 3617 4710 3167 4975 4269 4325 4770 4155 4567 3732 4203 4478 4736 4661 2501 4112 4523 3711 2599 4063 4895 3941 4918 3505 4883 4574 3283 2903 4060 4367 4431 4855 3228 3482 3596 3426 4441 2767 3174 3083 2907 3405 3005 4996 4946 4813 4936 3009 4054 3865 3528 2584 4800 4829 2924 3355 2854 3323 4739 2919 3937 2927 2520 2760 3637 4795 3635 3249 3366 2571 3851 4834 4439 3562 2923 3228 4229 4100 2898 2820 2950 4411 4075 3239 4811 3182 2804 3267 2561 4406 4085 4510 4747 3676 2635 4378 2893 4877 3584 2643 3989 4128 4874 4206 4545 4145 4112 3186 3682 2850 3375 3625 4420 4725 4312 4497 3667 4635 2703 3955 4702 4741 4397 2533 3415 2674 2563 4668 3636 2662 4859 4549 3365 2720 4453 3975 3527 3640 4866 3705 3446 4341 3008 3206 3580 3848 2888 4127 3041 2983 3288 2960 4927 3474 4681 3385 3033 3303 4091 4211 3630 4834 4180 4146 3856 2650 4692 4153 3592 3699 4128 3824 4161 3517 4140 3008 2843 3409 4521 4463 4840 3990 4563 2821 4932 3806 4151 4831 4423 4000 3081 4248 4789 2823 4001 3396 4358 3538 3961 3815 3154 3163 2725 2930 4721 3024 15 36 18 31 38 12 10 11 3 13 15 35 24 31 17 18 11 29 28 5 18 26 32 33 36 6 27 30 8 38 39 27 3 34 39 1 7 27 9 2 33 9 36 31 0 3 6 35 31 13 31 34 19 33 34 39 26 39 29 9 2 14 30 3 5 37 37 16 31 19 5 17 24 16 14 6 23 21 8 38 30 24 3 26 14 4 25 30 2 29 4 21 11 35 5 29 38 31 37 26 37 13 12 8 16 16 5 34 35 15 30 32 16 25 14 21 8 39 36 38 10 22 23 35 25 9 28 1 34 6 26 32 13 30 27 18 12 31 12 13 33 24 10 21 39 33 32 13 18 36 20 16 37 25 23 18 19 4 20 10 39 15 30 29 38 19 39 32 38 17 7 28 14 29 34 22 32 5 7 10 35 24 35 4 11 38 16 39 7 34 28 31 33 37 38 32 37 13 11 25 12 30 36 38 21 35 10 4 10 38 20 25 36
4496 4511 4822 4281 2547 4581 2643 10 3938 3549 4206 3481 4896 4069 4104 3417 3151 3009 15 3028 4068 3751 4702 3421 4583 4418 4592 3954 4577 3327 4961 3914 3559 2934 4683 3346 3613 4933 4243 4003 2764 2707 2610 3416 4364 3405 4525 3606 2954 4943 3722 4636 3986 4921 3010 4635 3315 3997 4843 2864 3580 4338 3675 2925 2609 2560 4591 3412 2563 2642 3898 2745 3791 3443 2864 2526 4346 4827 4292 3560 3211 4114 2897 4996 4256 4019 3623 4015 3996 2593 2624 2719 3252 3264 4983 3851 2526 3302 2871 4150 4734 4821 3966 2885 4880 2691 3100 2604 2922 2833 4372 2751 3922 2690 4291 4626 4874 2795 3874 4413 3041 4965 4093 4192 3141 4663 4491 4413 3934 3966 4502 3041 3906 2860 3035 4479 3724 3201 3687 4376 4513 2970 4427 3610 4527 3511 3886 4592 4588 3196 3766 3355 3490 4447 2682 4734 4449 2909 3170 3799 4387 3480 2676 3719 3544 2796 4448 3384 4547 2551 3972 2752 3207 3259 3719 4864 4764 3556 3155 2858 4343 4163 3619 2984 3448 3674 2870 3112 4837 2902 2710 4667 3531 4348 3314 2936 3625 4115 3796 3718 2542 3151 2522 2642 3589 4355 2754 3123 3556 4035 3903 3661 31 36 21 35 25 19 5 9 30 1 39 18 39 13 27 10 22 7 39 25 36 31 29 11 23 9 10 28 11 17 33 21 14 27 13 12 10 3 23 5 3 9 31 14 39 0 36 36 23 36 21 17 9 32 24 4 10 13 15 8 5 17 33 4 39 27 25 30 10 16 30 21 33 4 26 36 30 33 3 15 22 23 4 14 28 8 25 9 28 19 20 22 7 4 32 32 29 27 6 16 38 3 31 8 24 25 25 21 33 6 3 31 14 15 3 12 22 1 38 30 4 2 37 34 7 13 12 12 36 36 35 32 6 12 35 33 24 37 16 16 16 3 33 19 32 7 22 21 31 14 22 37 10 24 26 9 1 35 25 39 19 23 29 22 17 2 15 16 28 34 2 21 38 12 15 13 25 3 3 5 28 28 31 2 2 30 22 14 16 15 26 14 4 34 3 23 32 7 20 8 17 32 39 9 8 26 16 12 23 3 4 8 13
3883 18 3257 3439 3003 2846 4494 2506 3218 2769 4968 3346 2578 4231 4410 3469 3805 4427 3103 2596 4126 2547 4273 2570 3608 4791 3341 4494 3956 2988 2788 2522 4879 3663 3464 4964 4484 2722 3038 3537 3946 2889 4046 3484 4887 3682 3094 4408 2689 4298 3420 2541 3966 19 3879 2896 2940 4374 4158 3160 3782 2799 2889 2687 3797 2934 3669 3108 4462 3734 2769 3293 4163 4690 4654 4827 4723 4581 4221 4003 3665 2777 4760 4467 3344 4281 4302 4168 4951 3367 4875 4241 4215 3605 4894 4699 3741 3974 3842 4624 4153 4975 4818 4355 2826 4258 3584 3540 3143 4759 4657 4258 4764 4904 3341 3013 3747 4414 3213 3400 4520 3744 4306 4956 3076 3406 3255 3086 3954 3934 3840 3466 4277 3769 2787 4397 3940 4926 3280 3277 3428 4470 3061 3895 4861 3014 2923 4678 2786 2970 16 4373 4492 4235 3184 2945 4502 2828 4410 4128 4325 3969 4000 3069 4352 3609 4902 3355 2914 2778 3475 3513 4142 3570 4935 3027 2561 4178 3259 4826 2589 2822 3965 4047 3102 2753 4938 3303 4139 4725 4119 2681 2523 2871 3940 3675 3756 3714 3947 3663 3614 3443 3521 4864 3637 4966 3828 3893 4882 4442 3567 3218 37 26 14 4 2 37 19 37 9 8 29 4 13 12 5 29 1 35 33 17 1 24 2 10 29 39 24 9 37 13 16 27 31 36 15 11 19 26 6 2 30 17 36 2 19 38 0 5 6 25 18 31 39 33 32 38 13 4 13 16 11 3 8 38 6 39 33 37 27 32 38 7 10 38 32 12 31 13 2 14 20 21 36 17 35 14 26 6 23 12 19 38 4 1 30 32 21 24 4 24 13 18 26 14 37 18 26 38 33 29 28 19 9 13 14 3 36 19 27 25 33 9 31 34 19 31 8 24 1 34 4 39 21 18 12 31 15 13 34 2 15 37 38 3 7 35 12 4 36 39 7 1 10 20 17 36 3 23 12 33 21 30 21 18 20 19 18 8 36 38 36 32 15 22 4 35 37 30 6 19 27 32 28 31 18 1 4 1 13 24 15 21 37 7 18 28 22 34 13 6 16 5 5 20 1 35 27 6 1 22 34 24 12
3672 3363 3249 3885 4840 2545 4574 2557 3028 3990 3142 4345 2545 4483 4247 4440 3790 3587 3134 3116 4788 3554 3459 2638 4676 2750 4707 3409 4313 3697 2714 3569 3856 4128 3712 4843 2831 3917 2537 2651 3161 2887 2780 2697 3014 2531 3375 3692 4155 4593 4739 3201 3915 3798 3677 3573 4145 3904 3696 3568 3256 3354 2789 4780 3744 3673 4362 4570 3385 2715 4784 4241 4956 2789 4491 3113 3887 4156 4116 4714 4766 4584 3669 4713 2559 3084 3785 3246 3866 4980 3152 2676 4984 4849 3036 4913 3500 3659 3120 4436 4766 3025 2893 4689 4140 2940 3426 4695 2776 2781 4665 3423 3248 2858 3086 4992 2593 4261 3571 4924 4437 4697 4179 3537 3021 4405 4058 3795 4986 3865 4989 4443 4808 3937 3813 3778 3644 3022 3879 2571 4998 3655 3791 3801 3033 3314 2509 2681 3132 4374 4515 4053 2977 3693 3558 2508 3686 4222 4870 3967 4228 4016 3676 4574 2634 4087 4411 3835 3871 4177 3414 2803 3075 3459 4048 3569 3506 2569 2782 3350 2640 3300 3124 3856 4688 4899 3714 4973 2770 2611 3569 2708 3062 4542 4273 3105 4607 4701 4650 3222 3088 3337 4204 3732 3274 3445 3128 2737 3425 2895 2596 3713 26 32 25 39 27 8 5 28 26 2 11 15 33 22 28 2 8 7 21 31 25 4 25 32 14 35 35 5 20 11 35 33 4 3 18 36 11 17 39 30 27 26 8 1 27 12 10 0 16 12 28 31 4 23 32 16 34 8 15 13 26 19 19 24 13 37 32 31 14 39 6 34 9 15 21 28 26 29 14 15 17 22 20 38 30 24 28 29 15 26 28 25 25 29 22 12 33 4 2 29 26 36 13 29 8 24 34 4 15 30 39 32 11 39 38 37 29 16 25 30 15 35 35 3 8 27 24 16 24 16 18 24 15 11 5 13 15 36 2 2 26 28 18 18 29 32 6 39 30 26 18 16 26 31 22 10 36 28 26 31 25 22 30 5 23 3 4 12 18 38 2 18 5 30 4 30 4 7 13 30 4 11 14 36 32 7 2 32 11 13 23 5 37 28 28 37 21 6 9 14 35 5 16 10 15 33 11 33 28 15 12 3 9
4826 4725 4556 4985 4427 2683 3465 5 3596 2672 3220 4605 4048 3938 3079 4576 2529 2501 3029 4581 2821 3288 4620 2873 4621 4937 2927 4123 3868 4956 2617 4183 4981 4125 3187 4679 3047 3346 4083 4032 4442 4909 3980 4807 3383 3284 3095 3588 3406 3407 4651 4072 3745 3561 2588 3336 4181 3517 3998 3350 12 4472 2793 4512 4778 4482 4982 4176 2506 3240 2943 4787 3963 4358 2952 3854 4847 4343 4425 4812 2580 4918 3604 4248 3793 4904 4037 3194 3559 4941 3399 3388 3393 2693 4137 4610 4783 2726 3371 3078 3567 4680 2938 3225 3711 3196 2517 3572 3068 4303 4378 3755 4784 3982 4225 3196 4713 2557 2591 2559 4334 2885 3627 2551 3925 4419 3632 3225 2985 3882 2536 3017 3003 3727 4054 4443 3820 3124 4404 4997 3158 3925 3888 3957 2797 2559 4085 3774 3364 4918 2652 3438 4731 3144 4212 4891 2857 4623 3315 4123 4494 3972 4976 4055 3535 3127 4210 4451 2760 2546 3953 2581 2705 4896 3771 3301 4120 4622 2544 3305 3984 3848 2813 3179 4978 3963 3322 4543 3427 3349 3298 3902 2981 2855 3986 3826 2781 2521 2873 3400 4697 3648 4021 4444 4923 4538 4030 3859 2550 4282 4312 3137 38 2 24 26 13 18 15 38 8 8 10 36 14 4 1 14 30 25 29 18 33 28 10 38 35 25 7 29 2 18 21 6 28 38 38 35 16 21 11 22 26 21 34 34 8 5 14 2 0 22 3 30 10 14 37 25 12 9 24 38 4 29 26 25 17 10 34 18 26 35 13 29 9 26 19 15 12 1 1 24 8 39 35 36 3 2 3 14 18 29 38 32 12 21 31 11 26 22 21 3 13 13 6 8 14 22 32 21 35 16 2 1 14 2 32 34 24 15 16 9 14 5 37 36 35 14 33 17 5 24 35 34 17 35 19 7 5 20 20 24 13 8 30 30 4 31 15 27 13 12 6 12 17 14 4 2 32 25 10 15 28 14 14 8 6 19 28 24 39 17 34 22 35 31 33 23 20 37 34 25 29 24 38 31 39 7 8 13 25 8 8 32 22 8 35 9 23 12 19 6 24 1 4 35 14 32 28 38 34 5 36 34 18
3425 3411 2512 4140 3024 3945 2672 4019 4765 3284 3208 2554 4900 3814 4251 4499 3199 4943 3979 3849 3389 3911 3775 2558 2726 2633 9 4324 4919 3754 4658 4302 3576 3020 4366 4826 4788 3325 3498 3887 4297 4750 4211 4764 4463 4218 3207 4535 4566 4174 3199 3431 3149 3476 2583 3995 4287 3129 4104 3652 3006 4652 4494 3152 4601 4241 2625 3173 4337 3184 3936 4373 4729 4828 2837 3174 2724 3184 2655 3980 4970 4579 4117 4608 3645 3715 3597 4626 2871 4558 3036 4997 3557 4970 3077 4287 3597 3446 4085 4938 3281 3602 2968 3408 3290 3385 4854 3082 4717 2583 4604 4501 4528 4567 3908 4863 3508 3607 4195 2960 4114 3619 4800 3980 4998 3352 4525 3398 3801 3236 4680 3520 2539 3375 2859 2942 3047 2578 4842 3008 4513 4281 4971 4263 3200 3257 2518 3735 3420 3336 4625 3196 4240 3305 3206 2689 3415 4045 3987 2693 4381 3330 3012 2673 3094 4775 2630 3969 3471 4831 3923 4056 4934 4471 3485 4823 3201 2605 3267 4962 3765 3927 2774 4223 3448 3887 4479 9 4382 2556 4782 4496 4162 3153 3713 4841 2978 3055 4791 2506 4325 3253 3089 4898 2939 3200 3272 4454 2540 4971 4086 2884 21 29 37 22 4 31 25 25 35 33 14 28 9 5 28 28 16 4 21 32 25 21 27 33 20 21 11 17 33 32 13 34 21 12 10 25 7 3 38 11 7 34 1 28 19 27 17 26 16 0 8 3 8 27 39 22 25 6 33 22 36 6 13 39 23 11 9 5 7 12 30 39 36 30 34 8 34 6 6 9 36 14 27 13 1 23 36 27 9 1 25 35 6 16 29 31 2 31 16 8 11 3 22 8 32 8 36 21 22 15 9 26 28 9 10 24 38 19 31 24 4 8 35 16 1 30 37 38 10 26 28 18 17 7 13 15 39 26 34 7 8 13 24 7 18 23 39 23 23 2 1 28 3 31 3 37 24 7 31 1 27 4 20 23 12 39 19 14 8 24 1 10 3 13 28 32 23 9 8 32 19 28 27 29 26 18 6 21 39 34 35 12 4 24 22 20 35 35 27 9 22 37 9 18 33 31 9 37 25 29 33 15 29
2725 4762 3079 3643 4261 4628 4241 3465 3485 2544 4321 2877 5 4173 4619 2634 3076 4635 2927 4052 4465 3471 3799 3500 3364 2962 2586 4996 4858 3711 4102 3969 2951 4997 4013 4587 2785 3408 3060 4638 4684 4991 3540 4257 4924 2959 4140 3004 4228 3930 3964 4805 3586 4929 3957 3252 4884 3513 2691 4245 2764 4221 4466 2803 2805 4158 4845 3738 3532 4279 4160 4571 4900 3550 3361 4690 4870 3366 4823 4786 3827 4780 4759 4136 3865 3723 4102 3727 3696 2862 3510 4064 2605 3584 2576 4835 4757 4604 2586 4411 2618 2845 3267 4162 3369 4260 2903 3787 4698 4373 3710 2919 2971 4729 4131 2789 4485 4698 4688 4954 4829 3403 3114 4641 4896 3097 3955 3671 4663 4436 3651 4665 4017 4634 3929 2988 3155 3809 3870 3337 4310 3621 3693 4707 3626 3349 4022 3014 4224 2730 4428 3701 4699 3466 4078 3849 2684 3038 3662 4661 4721 4770 3929 2654 4819 4768 3156 3086 4545 3446 4152 4253 3494 4779 2506 3652 3767 2527 3880 4189 3976 3910 2804 2935 3515 2963 2730 3882 2649 4645 3344 4490 3565 2708 4843 3842 3656 3851 2703 3988 3618 3257 2976 2732 3854 4323 3051 4813 3739 3030 4340 2969 32 21 30 21 17 14 38 26 19 7 14 34 27 15 4 34 26 10 37 18 20 24 32 34 19 19 21 20 12 15 34 29 32 13 1 26 2 11 10 10 21 5 18 16 3 15 32 25 19 9 0 39 12 23 35 21 30 4 31 6 19 11 34 28 6 5 13 25 35 38 10 18 27 9 32 9 36 24 21 36 28 30 21 36 26 16 21 24 31 36 25 7 10 25 12 30 31 9 21 5 25 2 23 27 19 37 20 17 21 37 9 39 5 39 27 1 29 27 9 6 29 31 32 25 29 11 15 11 2 38 29 29 7 7 9 13 34 20 28 26 39 22 10 24 34 23 6 4 34 1 39 7 11 20 10 37 34 1 3 2 19 19 25 35 24 25 31 10 36 9 8 7 30 2 32 3 24 34 5 20 16 24 36 26 38 27 13 38 5 21 25 19 8 31 11 33 26 13 23 24 30 22 23 29 37 23 34 4 18 19 20 8 4
4137 3944 2652 2617 2777 2723 3959 3787 2903 4146 2513 4615 3901 4643 3905 3411 4919 3044 4504 4413 4079 3368 3796 4325 2593 2645 4479 3249 3935 4257 4599 3514 4108 2971 4715 4974 4496 3026 4610 2887 3434 4614 6 2639 3909 4213 3123 4920 2957 4145 4744 4725 4203 2639 3155 4027 3144 4784 3165 3876 4270 4142 4902 2745 4885 4476 4152 3517 4195 4620 3927 3657 2951 4574 2752 3643 2997 4187 4483 3084 3175 4222 3943 3433 4771 3755 3248 2605 3510 4047 3927 4413 3293 2700 2821 3493 2602 4692 3885 3886 4996 4242 4738 4678 4763 4946 2514 4202 4353 4939 4665 3832 4703 2820 3553 4062 3570 3161 4896 3769 2863 3625 4836 3572 3013 3303 3483 2806 4865 4173 3416 3650 3490 8 2549 4192 4341 3272 4242 3097 3467 2599 3885 2875 2904 4263 4504 3386 2643 4717 4234 2587 3854 3976 4626 3484 3998 4242 3189 4841 2674 4131 2622 4151 4269 3070 3477 3231 4829 2611 2760 3129 4306 3575 2706 4027 2691 4407 3022 3853 4743 3514 4621 2756 4041 4394 2806 3351 4984 3556 4727 4237 4861 4063 4777 4105 3665 2910 3040 4333 3676 4443 3681 3357 3856 4592 2675 3318 4334 2604 3189 4185 3 9 13 27 38 24 37 16 39 6 33 28 2 27 5 21 6 21 14 4 39 13 28 8 18 1 29 20 27 4 18 23 13 33 37 22 32 16 19 4 28 21 23 33 9 23 27 36 12 11 11 0 4 36 39 6 11 39 19 18 16 39 1 37 19 9 3 14 38 15 15 2 33 35 39 33 16 38 3 10 9 1 10 17 8 11 16 10 36 6 33 28 4 4 6 33 3 39 37 17 18 24 13 23 37 36 10 3 2 17 18 5 21 10 12 25 21 21 5 7 27 5 13 27 12 23 31 22 31 11 11 39 38 29 11 7 20 30 21 14 14 13 35 3 22 32 9 16 24 7 26 15 29 5 14 17 19 16 12 34 4 6 37 30 14 24 11 6 1 27 24 24 17 38 8 26 19 33 14 37 24 18 28 16 15 13 13 39 9 29 32 29 10 19 11 12 4 32 20 36 35 36 38 29 13 13 24 3 5 22 17 2 17
4237 4478 2981 3471 2709 3199 3845 3917 3660 2506 4562 2508 3823 4849 2963 4405 4659 3107 3708 3661 3837 2962 4511 4651 4537 3271 3997 4728 4837 2819 3281 3794 3064 3378 4497 3462 2997 3614 4787 4926 2694 3896 2889 2761 4196 3639 3933 3349 4049 3958 4466 4481 2938 4695 2537 2511 4679 2913 2920 3036 4972 3867 4338 2840 4349 4562 3762 2945 2647 3156 3403 3120 3017 4196 4191 3065 2782 4242 3193 4925 4516 3495 3419 3227 4643 3556 12 2757 4734 3161 4426 4728 2982 4195 2605 4320 4745 4355 3891 3482 3152 4901 4849 2862 3472 3964 3976 2894 3126 2773 4798 3692 2855 4416 3814 3467 2654 3238 2708 2646 3993 2586 4286 3487 4355 4712 4710 4614 2612 3081 2846 4012 3737 4576 3313 4709 2752 3815 4362 2834 4382 3768 4855 3415 3717 4005 4159 2783 3646 4176 3184 4319 2731 3022 3419 4832 4183 4019 3578 2880 4785 3141 2517 4719 4490 3762 2667 3036 2719 3233 2611 3713 4046 2678 3287 3212 2714 4406 3047 3952 2862 4711 4161 4911 3817 2969 3468 3234 4516 3118 4173 2952 3027 4733 3149 4858 4818 4706 3844 4458 2667 4044 3077 3362 3914 4627 3710 3835 3507 4363 2828 3295 1 36 28 17 7 13 35 25 1 13 39 26 31 15 7 33 9 17 33 26 16 28 17 23 32 25 31 12 23 37 9 34 19 27 18 33 17 36 9 17 8 3 2 10 31 7 29 2 4 38 34 29 0 21 15 31 2 26 11 20 12 16 3 7 8 2 6 38 15 31 18 1 15 30 6 22 11 19 8 20 34 33 25 3 11 37 32 29 21 20 13 2 4 28 28 36 35 6 33 3 32 24 2 4 11 36 9 12 12 16 11 6 23 34 18 23 2 22 23 25 21 33 8 20 36 14 23 38 15 38 21 26 23 22 35 16 38 17 27 25 34 20 17 28 33 5 20 3 10 6 26 11 9 26 1 5 30 26 39 18 27 4 32 25 14 18 27 3 10 3 8 20 8 11 15 23 24 4 1 19 4 39 12 25 28 24 38 12 15 23 23 10 17 21 39 2 25 18 23 25 2 3 30 30 34 38 22 8 32 11 29 29 35
2650 4043 4734 3624 3752 3999 3128 3319 2819 4923 2533 3357 4027 2611 4090 4536 2808 4825 4414 2664 4811 2587 3218 3667 4401 4066 3650 4411 3581 4267 4613 2630 3853 4256 4740 4433 4458 3385 4416 3543 4794 4088 3951 4144 3810 4419 2663 4164 2722 2776 3262 4803 4079 4066 4005 3298 4880 4425 3823 3367 3516 2648 3042 2968 4057 4091 3904 4940 3034 4955 4814 3748 3597 4214 3536 4082 4637 2518 4155 4058 4391 4487 3721 3184 3313 4731 4469 2807 3665 4523 3529 2593 4305 2840 3176 2628 2771 3187 3977 2799 3833 4311 3820 4917 4640 3431 4907 4757 4437 4004 3775 3583 2675 3371 4829 2821 2727 2876 4438 4862 4642 2947 3638 3597 4966 4932 2967 2778 2775 2659 4048 4255 4072 3491 3177 2853 3822 3675 3976 4000 4978 3571 3718 4268 4920 3229 3825 3808 3533 3169 4116 4785 4296 3892 3695 2762 2734 3601 2691 2977 4777 4436 4838 3398 2605 4275 2648 2778 3167 4977 3864 4740 2555 4643 3344 2602 4796 13 2882 4350 3671 4094 4033 4810 4419 4971 3953 3029 2914 4504 3878 4076 3247 4257 4601 2829 3223 4167 4948 4893 3045 2998 4439 2745 3802 2596 3445 2934 3123 4762 3153 4911 2 13 8 28 33 29 3 32 17 10 19 14 16 2 33 4 20 24 6 24 2 29 14 4 7 30 34 7 4 21 35 12 37 24 20 31 14 38 23 15 11 34 34 18 9 18 7 35 5 10 33 8 39 0 36 34 22 25 31 20 14 24 33 28 1 33 33 17 38 5 18 35 23 32 35 29 23 11 6 36 2 38 30 18 19 18 9 32 9 11 14 9 24 21 5 39 13 30 25 31 10 38 34 19 5 14 31 35 1 2 28 28 27 14 9 30 31 31 16 39 27 27 29 7 35 16 2 10 20 2 35 22 6 9 3 7 22 30 6 10 36 20 39 7 3 1 39 5 21 39 12 37 14 13 27 21 5 27 33 28 31 16 34 36 24 37 33 39 30 4 6 34 30 3 6 15 21 31 37 34 11 32 25 33 15 20 32 38 18 25 25 19 2 4 17 2 15 20 5 24 31 21 18 20 29 30 14 34 16 9 6 14 5
4183 3059 4350 3636 3306 4097 3334 2774 3834 3169 4512 3870 2886 2671 4080 2774 4811 4860 4480 4896 3637 2926 3918 4756 4193 2941 3515 2843 3823 3688 3295 2985 3536 4571 4366 2823 3600 4495 4888 2857 3254 3410 4320 4635 4702 4743 2542 2688 3527 3145 2865 2954 4182 3264 3418 4343 2942 2861 3310 3674 4502 3426 2808 3132 2631 4157 4774 3733 4306 3781 3480 2571 4024 3408 2671 4926 3674 4426 3937 4360 3306 4745 4028 3725 2805 4677 4737 2698 3405 4390 2926 2858 3370 3261 3460 3152 4917 3898 4098 3437 2908 4340 2877 3361 4385 3827 4494 4001 4006 3391 3910 2518 2946 2780 4841 4806 3809 3248 4168 4305 2648 3722 3470 4699 3271 2810 3429 3282 4856 3089 4525 3534 4892 3494 4189 3449 2647 3092 4801 2812 3499 4065 2654 3977 3509 4442 3150 2758 4199 3324 3161 4073 4359 3931 4588 3038 4603 3836 3050 4631 4596 2844 2924 4959 2902 3494 4318 2564 4753 2999 3868 3593 3432 2801 2684 3599 4552 3283 4509 4577 2552 3599 3325 3504 4700 3510 4005 4744 3474 4263 3159 4260 3918 4993 4425 2729 3968 3284 4581 3683 3389 3400 3568 4051 3259 4619 3503 4227 2630 4780 4379 4233 34 11 11 28 5 8 7 35 33 38 15 13 5 17 18 18 19 19 31 26 2 18 17 20 6 29 15 16 38 22 15 38 7 5 24 36 35 10 15 21 9 29 18 37 3 2 12 21 20 31 6 3 11 32 0 37 7 17 38 37 24 14 37 20 30 7 34 1 31 1 29 38 22 39 23 31 21 35 32 15 16 14 19 5 9 2 13 34 37 10 5 2 31 19 33 12 29 32 4 24 13 21 20 10 20 10 3 39 4 10 34 31 4 25 20 20 37 1 26 6 33 19 22 28 15 25 34 17 39 15 11 3 14 19 6 15 26 1 14 24 13 28 1 34 37 9 3 26 7 28 19 28 14 7 14 16 29 4 9 33 2 10 20 8 6 25 25 34 9 5 35 36 23 36 2 5 11 29 15 21 1 4 36 7 4 14 11 10 34 33 35 34 12 10 2 4 16 4 23 3 16 4 20 25 23 39 30 33 37 3 14 34 36
3119 2885 3183 4162 4049 3785 3623 4356 3632 2724 3594 4625 4316 3868 3545 4968 3929 3012 4702 3307 4474 4259 3498 3046 4413 4809 4267 3905 3778 4433 4803 2969 4432 4000 3432 2659 4728 3464 4463 4281 3671 4034 3878 3296 2656 4080 3381 4991 3800 3088 3057 3818 3847 3057 4098 3374 2639 4267 2800 3403 4544 4071 4770 4427 4079 2804 4643 3374 4522 3527 3903 4440 2554 3148 4189 4511 2892 2912 4259 2545 2548 4449 3281 4408 2696 4446 2851 4844 3460 3394 3062 2958 3459 3706 3123 4114 3742 4265 3808 3191 3088 3394 4055 4879 3710 2858 3573 3019 3699 3382 4676 3925 4479 3915 2919 3234 4732 4305 3962 4434 3929 4190 2872 4169 4187 2949 3533 4000 3385 3303 2507 3247 3252 4819 4302 4263 3125 4004 3421 2685 3705 4835 4305 4961 4985 3951 2921 3530 4173 4930 4658 3449 2884 3525 4728 4570 3857 4011 2590 2877 3924 3718 3295 3584 2908 4073 3497 3670 3599 4179 3697 2887 2858 3430 2817 3716 4092 2818 4750 4115 4114 3094 4575 2743 3680 3349 3015 4210 4155 3658 3776 4998 2693 2524 2604 4028 3631 4974 3171 4947 3943 2699 4795 4539 3431 3843 3956 2872 3972 4571 2764 3033 16 13 13 6 6 3 16 36 28 10 20 32 13 2 18 30 12 3 1 37 6 36 3 2 35 6 33 21 27 23 34 31 28 1 17 36 25 15 32 2 6 36 3 23 33 18 14 38 16 7 19 15 7 34 31 0 14 7 24 29 34 37 18 5 23 29 30 39 13 2 23 12 5 27 24 16 32 25 16 35 7 18 35 26 32 12 30 6 24 7 14 6 4 39 4 2 7 6 39 35 5 17 34 18 14 6 9 2 29 1 14 15 28 10 17 34 7 28 36 28 6 3 20 30 8 13 16 1 19 3 36 19 31 31 33 10 5 11 13 4 4 36 14 11 17 3 12 33 1 9 24 38 26 32 31 24 26 14 39 36 27 34 27 14 4 25 22 38 31 37 31 19 29 16 24 20 10 18 27 20 27 18 14 37 12 19 10 19 22 31 21 11 2 1 14 20 27 24 3 7 36 10 13 18 38 2 25 13 14 28 33 17 6
4635 3125 4313 3069 3426 4026 3745 3657 4184 4054 4647 4936 3458 3624 3572 2945 2613 3074 4590 4592 4958 3077 3912 2935 4916 4764 3670 3198 4740 2519 3039 3106 4003 3252 4222 4971 4436 3100 3452 3921 3869 2900 3927 3338 2507 3725 4916 3066 3740 4460 3385 4270 3829 3032 3779 3848 3299 3346 2635 3539 4419 3604 3399 2579 4572 4139 3477 4872 2532 3064 3471 4543 4746 4508 2733 4206 3403 3429 3517 3291 4812 3853 4313 4821 3298 4416 3000 2937 4611 3562 2565 4062 4707 4782 3824 4035 2646 3475 4400 2785 4631 4919 4174 2974 3431 2682 3417 4815 4957 3358 3274 3490 4516 3297 2873 3977 2997 2894 4922 4450 2512 3355 2959 4843 3299 3373 3231 4216 2622 4382 2804 3370 3917 3086 4649 3208 3669 3624 2573 3690 4608 4198 3510 3838 4155 4263 3986 4061 4306 2667 4453 4180 4509 2731 2603 3241 4650 4371 3191 3195 3899 4213 3846 4986 3267 3986 4515 3968 3364 3470 3376 4303 4306 4100 2950 3166 4391 3346 3130 3604 3732 4907 4202 3399 4150 4059 3593 4279 4110 4545 4473 3250 4490 4066 4060 7 2964 3310 4309 4212 3754 4425 3453 3865 2706 2830 3382 2885 4461 3348 3467 3088 32 19 8 14 17 38 2 25 11 2 21 25 3 15 30 32 13 20 30 16 30 19 30 29 26 26 35 39 24 5 2 1 21 8 17 2 26 13 2 5 10 30 2 39 5 25 34 7 22 14 30 23 4 18 28 34 0 18 30 7 14 37 25 1 39 15 38 9 39 14 35 2 32 21 18 24 31 35 2 9 33 1 14 32 16 33 39 37 10 35 34 3 12 25 9 14 31 7 37 14 12 11 38 31 28 23 8 31 11 9 28 25 25 8 12 14 22 6 10 21 18 14 13 36 9 21 22 11 18 1 22 32 16 15 36 27 21 8 28 1 25 35 23 24 39 2 14 27 37 3 1 14 4 23 19 18 19 25 38 22 18 28 21 12 16 1 5 2 38 19 28 4 20 20 22 20 38 9 25 2 15 13 5 35 32 1 21 29 15 6 37 1 27 24 9 7 31 22 3 4 7 8 5 38 31 18 9 28 10 22 4 27 23
2749 4275 4480 4374 2666 3483 3123 4141 3480 4008 2888 4037 3590 3445 3429 2611 3307 2710 3314 2865 16 2511 4338 2656 2885 2836 3312 3318 3775 3966 3856 3909 2633 4294 4485 3525 4457 2797 4238 4004 4755 4018 3114 2639 4118 4823 4830 4146 4295 2972 4742 4714 4864 4347 3901 4307 3460 3181 4063 4423 4283 4138 4659 4760 3311 4439 3714 4163 4074 4635 4368 3343 3969 2862 4419 4085 4060 4117 3451 3161 3299 4495 4311 4878 3011 3693 4087 2783 3340 4191 4126 3043 2777 4716 4478 2798 3788 3628 3145 3331 2981 4289 3874 2527 2568 3495 4722 3516 3558 4428 4450 3962 3284 4181 4351 4963 3493 3304 4325 3843 4467 2972 4637 2768 4218 3455 2798 2507 4099 3260 2914 2516 2946 3188 2750 3669 2532 3215 4931 4459 3975 3552 3799 3802 3697 4514 3990 3763 4088 4429 3978 3110 3371 3857 4938 2609 3151 2954 4372 3662 3867 3755 3038 4717 4105 3063 2720 3713 2640 4951 4484 3323 3384 4515 3597 4025 3898 4999 3773 4676 4352 2976 2718 4985 2520 4544 2721 4802 4576 3447 3738 4103 4059 3127 2616 3288 3477 4757 3944 3210 3314 3231 2633 2741 4546 3098 2681 3085 3545 4390 4289 4757 37 28 19 11 26 18 4 39 8 7 17 17 30 23 10 24 35 9 16 24 25 38 13 17 17 22 8 22 39 15 19 5 2 34 29 28 15 26 13 36 32 28 17 35 29 14 19 7 1 4 16 10 34 1 25 37 29 0 24 18 7 24 16 8 24 1 22 5 31 22 35 25 5 10 35 13 27 16 32 29 16 21 34 9 5 36 4 33 32 28 32 26 4 26 20 15 29 34 27 32 38 35 3 11 4 39 5 29 37 25 2 29 3 21 21 26 5 32 18 37 32 26 34 36 38 13 5 34 28 30 29 2 1 22 8 1 18 23 4 3 2 12 6 5 28 20 29 9 15 19 18 14 10 34 8 3 10 37 2 17 27 26 5 9 38 36 5 27 20 2 13 28 29 32 24 23 39 16 14 4 28 22 28 3 8 32 18 26 28 25 38 29 37 15 2 26 24 27 10 32 10 23 10 24 27 33 7 1 38 38 20 18 20
2798 2943 4374 3428 3608 4167 4433 3704 2770 4871 2889 4652 4725 3331 3825 3392 4601 2956 4743 3873 4262 4407 3103 3053 4769 4106 4732 4149 3522 3813 3867 3746 4083 2869 4613 4442 4125 2935 2533 3435 3457 3073 4575 4116 2998 3336 4246 5 3592 3762 3764 3258 4294 3654 3433 3438 3809 4489 4182 3523 2804 4313 3559 2632 4769 4892 4767 2871 3564 4175 2515 4064 4317 2708 3767 3374 3209 2559 4400 4803 4429 4362 2804 3342 3048 3654 2582 3735 3821 4116 3425 3714 2676 3778 4259 2671 4926 4321 2867 4743 4879 4116 3400 4336 3527 4847 3759 2763 4313 4326 3733 2770 4621 3824 2958 4290 3855 4841 3650 4774 4010 2615 4735 4097 2842 4422 3415 3842 4135 4387 4074 4082 2577 3363 2686 4623 4844 3990 3601 3234 2617 4036 4255 4442 3992 3254 4454 4443 3378 4738 3679 3219 4114 4153 2680 2752 4028 4484 2807 3556 2731 3934 4466 4831 4851 2639 4408 3279 2856 4859 3943 4860 2682 3927 3568 2691 3299 3974 4873 2559 4432 4875 2716 4025 3649 3004 4836 2590 4611 3454 4361 3124 3452 2524 4923 3998 4778 3324 3407 2801 4069 3278 3796 4273 3218 3494 2790 2821 2624 4251 4905 3099 14 32 1 8 26 39 30 8 34 7 11 1 22 2 1 26 31 35 23 6 34 31 24 28 26 37 24 22 32 5 20 23 37 5 32 28 14 5 39 25 28 18 20 33 39 36 15 9 4 38 35 37 21 21 1 27 17 10 0 37 17 32 4 32 20 37 35 33 31 2 35 16 1 13 17 7 5 15 32 1 2 22 19 24 8 14 7 37 3 8 33 5 32 6 35 28 8 29 6 13 30 26 21 13 9 5 8 21 8 13 6 7 20 20 32 31 5 7 18 13 37 7 30 25 31 7 14 39 17 3 8 21 11 7 27 22 35 28 29 17 6 32 12 4 28 8 15 36 17 14 1 38 30 15 38 3 23 14 14 39 9 37 8 1 31 20 11 20 35 3 17 35 36 13 20 17 34 26 15 4 10 39 26 23 2 25 18 24 12 25 28 31 15 25 21 17 24 7 1 19 3 24 34 36 3 33 16 32 9 19 19 11 14
6 2566 2935 2790 3880 4008 4381 4238 3270 3285 2518 3998 4067 3083 4385 4131 3808 4216 4973 2644 3305 4362 4316 2596 4186 4464 3890 3519 3754 3786 2802 3612 4864 3179 4443 3265 2975 4515 2501 4391 4010 4925 2677 4043 3216 3948 2569 2834 2919 3406 2603 4167 4982 4048 4564 3328 3801 4171 4578 4460 4646 4170 3810 3538 4818 2562 2971 3306 4435 2639 3026 2564 2987 2921 3761 3244 4331 2624 4735 4885 3134 3562 4433 3409 3428 4134 3948 3016 2510 3921 3570 3064 3034 3492 4203 3635 2761 3944 3652 2974 3652 3432 3167 3866 3808 4227 4618 3621 2917 4677 2613 4269 4229 3271 2771 4145 3915 4363 4501 2917 2727 4075 3955 4540 2582 4374 4392 4026 3891 4427 3865 3685 4049 4625 2543 2827 3457 3787 4806 3555 2680 4780 3998 3608 3586 4833 3245 2642 4414 4338 3235 3706 4364 4671 3082 4053 3517 4615 2616 4450 3633 4809 2912 4342 2818 3641 4194 4676 4113 3045 3323 2734 4683 2664 3771 4460 3848 4665 4308 3739 4919 4022 3456 2508 3154 2957 3665 4780 2802 3890 3441 4817 3453 3612 3632 4630 4916 4025 4141 3204 4879 2878 2637 3022 4525 3072 3060 3273 4686 3753 4527 3422 5 39 38 17 34 13 23 29 2 31 19 23 35 37 8 11 10 6 37 31 13 37 35 36 39 25 36 4 32 7 3 35 37 38 14 31 35 22 22 31 17 16 7 29 11 9 16 29 25 14 2 39 27 11 36 35 8 22 11 0 24 4 33 22 18 10 36 28 36 29 9 17 13 7 10 26 35 17 1 14 33 33 36 34 3 32 35 6 1 8 20 33 17 9 5 8 15 24 6 9 36 18 5 39 7 32 38 23 15 12 16 31 31 32 14 20 14 19 23 29 7 12 1 34 23 15 37 29 17 28 25 31 16 14 3 5 17 20 33 9 36 26 24 27 6 24 14 7 36 30 17 12 5 29 24 36 27 18 33 38 26 20 14 18 26 11 8 37 17 38 1 38 11 19 36 24 13 14 20 29 30 27 23 18 34 31 11 39 3 5 5 14 25 24 22 23 18 32 2 29 9 38 34 33 21 24 39 26 20 14 34 28 29
2647 2531 2907 3561 2723 2751 4638 3444 3034 3167 3376 3369 3305 3647 3030 3946 4837 4768 3459 4491 3482 2636 3990 3894 4308 4092 4218 3983 4255 2692 4981 3692 3123 3445 3574 4807 4852 3374 4461 4408 4730 3671 2527 2541 4426 4588 2518 4811 4444 3073 4760 3845 4140 3698 3934 4831 4726 4541 3374 2840 4412 4645 2755 2579 4649 4851 2914 3693 4217 2619 4611 2511 3350 3746 3951 2894 3697 4879 4698 3604 2811 3490 4420 4708 2842 4157 3175 4672 4131 4395 3202 4007 4723 4318 2956 2538 2661 3663 4426 2959 4309 4873 3740 4577 3394 4968 4990 4693 4803 4374 3359 4206 4558 3459 2945 3485 2527 4427 4745 3065 3136 4293 4473 3317 4854 2920 4577 2947 3743 2926 4667 3195 2573 3166 3082 4395 4965 2552 3188 3588 4919 2596 2972 14 4568 3064 4616 2664 3286 4701 2968 4747 2697 3132 2570 3771 3487 3099 3988 3749 4471 4841 4430 4160 2541 4371 4038 4225 2552 4705 4512 4384 4149 3999 3659 4726 4714 4072 4010 4407 4911 3451 2978 4760 4221 4081 4276 2728 3377 2751 2819 3276 4910 2763 4118 3836 3281 4899 3467 2954 4562 4124 4710 4542 3641 3123 4073 4696 2575 2679 3233 4192 36 26 30 30 3 21 8 32 18 17 22 36 36 36 22 27 28 5 19 30 14 9 1 27 21 17 19 14 39 25 31 3 1 22 27 1 38 5 27 19 23 28 5 9 21 20 16 7 9 36 25 8 12 20 20 32 10 6 38 34 0 1 32 32 33 22 32 33 29 24 6 25 39 18 13 1 8 25 27 17 26 37 11 6 17 26 24 22 35 25 16 36 32 33 27 25 16 30 13 37 13 12 8 30 30 23 4 1 15 31 37 21 21 22 13 30 38 2 24 29 32 33 30 20 15 3 20 20 28 10 7 31 2 16 16 23 13 30 38 21 14 32 13 33 38 11 9 36 11 19 5 11 8 27 18 9 17 18 10 8 11 1 36 38 23 19 21 23 12 1 3 7 32 4 24 37 7 17 35 12 18 36 18 38 1 23 29 26 16 34 16 7 17 38 1 31 2 9 3 35 18 25 27 22 28 24 30 3 23 21 18 16 4
3389 3793 3012 4109 4926 2668 3822 3971 4391 2779 4386 3730 2868 4237 3561 4962 4998 2585 3865 3132 3900 4510 2646 2752 4100 2537 3516 3312 2569 3171 3398 2571 2735 4759 3898 4575 3333 2932 3993 3281 4393 3883 4748 4106 4886 2708 4771 4606 3835 4524 3922 2866 2597 3606 2813 3703 4869 3376 4971 4655 4419 3854 3708 4871 4871 4431 3842 4269 4421 3116 3604 4032 2646 3700 4235 3900 4168 4856 2602 3998 4252 4152 3360 4317 3152 4897 4297 4623 4256 2913 2562 3288 3874 4458 3715 3836 4445 3771 4047 2611 3606 3903 2603 2569 2746 3352 3226 2586 4601 4687 4415 2983 3336 4914 4959 3709 4457 4213 3278 2637 3105 2549 4381 2510 3873 3910 2526 3908 3668 4944 4750 3087 4060 3554 2932 2970 2521 4118 3273 4750 4496 3196 2794 4390 4811 3843 3905 4692 3643 2699 3926 4400 4597 4642 4891 4363 2868 2590 4672 3486 3886 4839 4662 3946 2649 3219 3590 3947 3763 3519 4087 2969 3952 3671 3236 3406 3163 3836 4621 4735 4489 2505 2705 4548 4059 4536 2870 3340 4405 4613 4042 4572 4110 4056 3570 3396 3322 4112 4512 4092 3544 4011 4373 2970 2783 2787 4954 4232 3676 2891 2694 4599 36 34 31 27 8 27 18 28 27 3 26 25 32 10 25 32 36 17 36 26 15 37 1 5 21 18 14 13 8 20 26 9 27 26 15 11 27 31 22 14 22 19 10 23 6 33 1 13 35 35 35 27 31 31 29 34 37 23 25 24 24 0 36 10 15 11 33 28 35 14 38 20 34 29 1 24 35 36 1 27 8 30 29 14 3 29 18 3 33 36 21 26 22 31 38 23 22 2 10 36 21 12 5 18 20 31 30 39 15 19 19 30 22 10 11 29 20 9 9 17 18 2 5 1 36 28 27 39 36 25 35 38 12 15 18 21 14 21 2 5 35 17 7 18 15 5 9 9 6 16 14 30 24 3 35 33 22 21 6 8 1 8 37 15 26 24 31 1 14 37 14 25 3 14 9 8 7 10 17 34 28 37 25 28 32 16 11 30 38 18 38 27 25 25 37 10 27 22 17 14 9 34 17 29 27 14 28 30 26 2 38 18 21
4951 3634 4654 4562 4147 3162 4131 4740 3356 4971 3730 3555 3793 4647 2564 2690 4272 3388 4872 3599 3994 4943 4993 2540 3293 4150 3616 3710 2914 3911 3959 4085 2880 4223 4048 4601 4082 4925 4479 4741 3672 3755 3450 4387 3434 3993 3048 3195 3656 2578 2675 4897 3600 3220 4841 2528 4451 4789 3426 2782 3553 4315 3277 4083 4213 4943 4486 3836 4647 2669 2857 3816 3516 2700 4752 3158 4460 2739 3059 4053 4868 3487 2663 4643 3330 4122 3393 4643 4467 4446 4066 4753 2807 3948 11 4147 4633 2642 2610 2576 4992 3311 4637 3794 3204 3462 3197 3748 3989 2866 4263 4095 4387 4156 3573 4903 3338 3414 4403 3564 3043 3234 2739 3364 3880 4124 3124 13 4785 4111 4922 4885 4739 2577 4967 4401 3547 4423 3969 2571 3184 3214 3604 3753 2625 2783 2966 4168 4992 3361 2647 4743 4259 4091 3712 4468 3032 3169 3586 4321 2690 3519 2653 4398 2989 3047 3821 3767 3422 2736 3903 2536 3213 3003 4664 4686 3397 4944 3853 3144 4452 4053 3387 3616 4034 2847 4441 3973 3457 3688 4004 2571 2935 2737 4878 3103 4357 4002 4356 3913 4414 4249 3162 2845 3899 4399 4717 4208 2713 3673 2921 2972 31 1 5 27 17 30 26 25 14 24 4 13 31 38 4 4 36 18 35 35 2 13 7 28 27 17 18 17 38 35 38 30 34 12 25 26 26 5 15 1 9 39 21 22 16 9 10 3 33 36 29 32 35 3 7 34 27 32 37 32 19 15 0 22 20 3 4 34 35 24 22 5 24 36 13 30 29 31 36 32 25 12 18 9 7 4 6 30 18 1 38 12 9 22 27 20 32 35 31 30 1 5 7 35 28 35 12 33 10 13 22 11 33 36 26 13 1 38 7 35 14 25 8 11 28 7 10 8 18 27 38 21 27 12 19 38 13 26 28 31 1 1 1 9 12 21 30 14 15 15 32 25 37 38 30 31 16 38 32 15 37 19 14 4 31 33 32 18 3 16 31 32 2 29 33 31 10 7 8 37 1 21 12 3 22 34 35 23 18 39 34 1 24 33 11 20 25 28 4 11 11 9 8 13 10 32 19 5 6 33 2 37 10
3608 3646 3147 3353 4114 3209 4444 3482 3085 2679 3858 2981 3085 2805 3637 2800 3009 3700 4667 2953 3531 2741 4014 3686 3161 3098 2548 2642 4141 3212 4496 4604 3842 3843 3874 3885 3001 4294 3065 3861 4300 3497 4733 2888 4093 4658 4465 4700 3226 3858 4587 2558 4540 4864 4289 4976 3312 3817 3689 4625 3333 3755 3973 2714 3900 3090 3936 3681 4437 2793 2540 3880 4157 3327 3530 4431 3904 3319 4854 3469 2666 4294 4748 4688 3525 2749 2582 2817 4171 3604 3294 4665 4330 2755 3166 4497 2700 4253 2725 4159 3959 4903 4129 3291 3396 3152 3569 4074 4700 4019 3635 2749 4755 3051 3267 3297 4341 4926 4081 3776 4539 2813 3813 4888 3591 3675 3930 3764 2535 3128 3615 3720 3962 4370 2642 2996 3514 3511 3013 4582 3679 2847 3974 4428 4944 4853 3557 4973 4501 4387 2642 3475 3209 3829 4512 3237 4513 3524 4897 3093 2718 3481 4786 3641 4701 4973 3901 4141 4356 2503 4734 3817 2568 3816 4837 3413 3090 3119 3752 3384 4318 2778 4466 2694 4933 4933 4875 4312 4154 3491 3755 4710 4370 2537 4959 3239 3467 3010 3678 4121 3856 4565 3801 3028 3208 2794 3168 3563 4701 2569 4129 2672 29 10 22 25 13 34 6 13 27 28 37 17 8 22 25 4 33 16 31 2 4 19 32 8 26 27 19 11 30 27 6 6 23 11 38 19 32 38 33 17 27 32 14 25 12 22 2 37 7 1 27 15 7 16 38 4 38 19 21 33 29 13 25 0 37 14 22 28 1 19 9 18 8 6 27 11 29 30 32 11 14 18 13 25 10 25 8 29 37 23 13 10 37 32 2 37 5 15 30 38 28 9 7 16 27 30 23 9 13 21 26 12 12 11 38 22 30 25 36 7 30 20 26 14 37 26 19 4 12 6 38 23 9 37 32 26 35 15 10 34 35 2 37 6 5 3 32 9 28 31 26 1 17 15 35 22 31 29 16 23 36 6 15 28 18 30 38 14 3 25 7 13 26 24 28 38 29 3 29 16 15 28 7 24 18 10 18 14 28 30 26 38 14 2 26 6 8 2 8 35 38 9 16 32 33 9 32 38 26 24 26 29 17
2820 3135 4081 3836 3236 3484 3290 2973 4649 3417 4783 4496 3038 3201 4312 2958 3502 4248 4400 2574 2603 4395 3443 4166 3124 3649 3588 4371 4085 4201 2879 2897 2922 4414 2533 3677 4363 3582 2992 2954 2841 2730 3427 4449 3733 3106 3400 3265 4788 3990 3545 3452 3731 4893 2870 2912 3440 4141 3690 4776 3960 4454 2984 3750 3653 3777 4664 2694 3927 4337 3064 3158 3596 4113 3634 3900 4905 4255 4320 4112 3413 4536 2653 3706 3532 4513 3559 3182 3633 2653 3817 4276 4020 3266 2663 4174 3945 4897 3189 3729 3749 4105 4175 3905 4063 4083 4109 2890 2877 3355 3862 4482 4285 3329 2957 2506 3960 3447 4851 4875 3176 4733 4968 4958 3224 3230 3177 3396 3704 3385 3240 3340 4103 3586 4920 3729 3558 2729 2673 4471 4242 2718 4874 3507 4608 4232 3326 2877 4185 4779 2638 4526 3772 4381 3520 2877 4616 4496 3914 4323 4627 4170 2672 2511 3818 4246 2866 4675 4019 3770 2696 3248 3531 4236 3879 4180 2953 4229 2787 4003 2633 2801 3966 2559 3189 3493 2783 4901 3604 4366 2644 4771 4426 3241 2548 3946 3611 4220 4981 3288 4337 4941 4522 3718 4481 4576 3109 4448 3507 2745 4234 3202 24 8 28 4 16 38 35 12 3 26 13 22 28 13 14 3 8 2 28 4 30 5 29 15 19 19 29 8 13 37 33 3 32 26 25 35 20 23 36 17 30 31 34 2 37 24 25 5 37 7 27 28 24 24 5 27 12 7 1 10 38 4 14 5 0 19 33 7 32 28 3 11 11 17 34 16 15 34 23 18 20 16 27 1 17 26 26 9 31 33 39 29 36 25 27 6 9 30 30 24 18 23 36 18 12 30 5 8 27 15 29 13 11 22 33 2 4 9 38 34 1 3 37 31 36 30 12 7 7 22 23 39 2 15 4 11 15 33 13 14 5 39 3 14 26 15 27 22 1 37 29 16 14 3 11 19 39 24 24 16 29 23 6 24 11 5 1 4 10 21 4 20 27 16 9 7 37 2 2 31 24 35 32 29 38 26 28 29 30 3 14 35 35 39 11 1 30 24 37 2 22 33 4 20 38 19 39 8 8 38 14 19 11
4664 3106 3038 4021 2845 4976 4132 3901 3943 3805 4507 3629 4119 4893 4966 4581 4069 4008 4939 4743 3318 4460 3319 2710 3884 3451 4333 4781 4800 3185 3705 4480 3429 3522 4551 4812 3800 4209 4633 3830 4200 4464 3458 2563 3914 3470 3921 3284 4796 4770 2868 4467 4330 3233 4019 3385 3551 4188 4666 4278 3942 3538 4502 3083 3058 3357 3632 2941 4858 4366 3324 2948 3693 3793 4583 3653 4992 4529 4754 3025 4557 4576 4962 4113 3206 2682 4166 3868 3897 4754 3844 3934 4166 3081 4185 4835 2879 4488 3966 2956 3688 3289 3993 4118 3480 4511 3177 4591 3023 3979 2917 4659 2680 4948 2996 3475 3219 3369 3293 4537 4163 3001 2910 3863 4040 4790 3324 3868 4875 2772 3343 2818 4105 4517 4107 4497 2829 4333 3390 4599 4723 2750 4066 4122 3460 4324 4167 3914 4397 4770 4585 3595 4910 3438 3228 2641 4157 4547 3994 4097 4595 2799 4203 4511 2623 4844 3366 3633 4492 4969 2758 3987 4204 4590 3107 3979 3522 3716 4139 3127 3454 4795 3802 3049 4854 4873 4264 2598 3043 4776 4726 2637 3977 4303 4697 4639 3426 3926 3654 4806 3940 4370 4027 4868 4882 3675 4743 3373 3567 4322 4074 3371 1 21 3 36 20 36 28 16 16 18 18 32 30 9 25 16 7 11 33 32 26 39 14 27 18 3 10 37 14 26 38 10 39 12 3 39 26 10 20 31 10 37 23 4 22 33 29 4 8 33 38 5 4 15 39 27 39 21 27 23 13 34 13 37 26 0 4 2 1 17 27 18 38 25 24 18 10 21 26 11 15 9 25 19 32 22 35 35 5 23 31 39 11 22 36 34 32 9 4 33 31 27 37 20 33 20 38 34 39 34 14 27 21 11 8 16 14 39 32 34 35 35 20 15 36 20 19 24 17 9 28 28 13 2 12 39 32 24 20 38 30 12 21 23 9 32 32 2 1 22 12 6 7 14 39 14 26 31 23 32 20 8 36 19 30 22 5 18 14 14 16 29 5 27 32 30 25 12 2 12 8 24 21 17 6 35 37 25 26 13 25 21 24 30 16 19 34 27 39 8 27 31 2 37 28 19 21 38 18 17 25 2 22
3446 4198 2930 2759 3019 4410 4747 3455 3773 3201 3428 3565 3477 4528 3123 3016 3528 4477 4034 3662 3335 3652 2566 4202 4728 3034 4689 4605 4854 2855 2819 4183 2725 3960 4285 2596 3007 4762 4518 4917 3026 2573 4281 3424 4723 3144 2795 2544 3109 4719 3224 4231 2670 3286 2731 3105 11 3474 3710 3201 4560 3381 4468 4117 3659 3244 3799 4444 2556 4662 3938 2719 4505 4978 3218 2657 4547 3474 4073 3042 4659 4662 2755 3202 3237 3322 4614 4228 3703 3140 2777 3949 4834 3193 4808 3456 3547 4641 3328 2940 3361 2788 2826 4186 4493 3591 3934 3059 3445 3468 4087 3671 2802 4640 4516 4097 4113 4006 3472 4900 3082 3437 3890 4195 2990 3713 2897 2836 3879 3863 4460 3126 4252 3615 4129 17 4577 3406 3504 3775 4755 4364 3953 4187 4356 3340 4904 4839 4281 3983 3580 4283 4002 3998 4662 2515 3735 4124 4407 4137 4855 3696 3859 4986 3478 2937 4729 3477 2869 4438 4292 4174 2795 3724 3836 4779 3541 4934 4163 2667 2994 4968 4519 4301 3229 2914 3696 2820 4663 4452 3616 4770 3535 3835 4151 4300 4157 2644 2933 4330 3776 3027 3986 3867 2962 2633 3719 4650 3256 3626 3853 3692 32 33 25 16 28 14 35 36 23 19 23 7 28 17 26 21 4 15 23 17 28 28 15 18 32 17 36 20 33 33 36 19 5 30 1 16 3 7 39 29 2 19 6 20 25 17 21 35 28 39 14 6 4 22 30 6 34 39 6 4 22 16 7 32 10 7 0 36 30 9 19 18 6 30 30 25 34 32 6 34 11 22 11 36 26 17 10 8 22 37 35 36 3 20 29 6 32 32 9 9 37 31 36 39 5 17 27 18 27 2 14 34 26 39 6 32 24 29 23 1 28 1 28 31 35 8 31 24 12 39 1 38 34 26 24 17 36 17 20 21 39 36 5 38 20 11 25 10 25 26 20 16 36 23 37 10 12 26 1 10 19 38 28 31 29 28 37 33 32 34 11 21 29 34 37 32 31 13 29 36 38 11 26 12 6 5 7 12 38 33 8 30 9 39 4 5 21 23 12 21 6 30 2 20 30 2 28 4 8 27 19 29 31
3597 3011 3115 3257 3255 3304 4662 2855 4355 3053 3830 4469 4076 4134 2596 3158 4435 2537 4099 3769 3553 3151 3676 3693 4069 3814 4821 3612 2546 4340 2979 4958 3622 4303 4071 4383 4219 2637 3672 2621 3006 4544 3612 3012 4728 3922 5 3209 3636 3361 3995 3785 3004 3871 3577 2559 4349 4281 3583 3223 3097 3691 4180 3720 4082 3902 3248 3590 2900 3946 4084 2997 4618 4956 3905 3692 4657 3479 3497 4306 3586 4301 3125 3869 3076 2997 3612 3934 4716 3146 4592 3612 2833 3167 3479 3426 4500 3120 3235 2991 3074 3255 4675 2810 4532 3299 4075 4967 4143 4631 3047 2969 4072 4802 3739 3030 3542 3777 2710 2761 2662 4925 3804 4551 4272 3997 3133 3469 3114 3879 4293 3716 3872 4503 4676 3138 4330 3501 3320 3321 2576 4220 3042 3232 3907 2726 4821 2674 4223 3660 2562 2664 3364 4726 3252 4816 4760 4450 4673 2754 3633 3497 3508 3484 2865 4865 3852 4821 3497 4531 2730 2646 4026 2725 3741 3682 3037 4073 4312 3521 4607 4359 2950 4031 3364 4060 4357 4016 3033 4553 3848 4142 4750 3455 4946 3058 4788 2755 3294 4572 3564 4745 3628 3775 3349 3635 3288 3231 3676 4544 4931 3499 7 29 4 1 23 24 23 30 16 14 13 9 8 24 9 32 4 39 22 13 14 24 5 6 8 9 5 32 33 8 8 7 12 7 5 5 12 6 16 32 26 5 21 5 14 34 3 20 39 10 11 26 18 8 21 3 12 36 22 38 36 13 35 22 25 31 21 0 18 19 39 31 22 1 6 6 33 14 13 31 3 6 36 26 5 36 9 36 17 30 5 16 34 37 36 33 4 18 3 38 39 4 37 19 21 14 28 4 7 13 5 34 15 26 37 33 16 12 29 17 13 20 1 27 18 38 34 10 39 24 2 17 13 30 13 14 33 31 20 22 36 18 38 21 24 16 16 22 3 34 38 15 13 16 1 26 30 34 39 1 16 19 35 16 15 24 6 12 39 6 35 35 32 2 39 1 39 31 38 1 24 32 37 23 15 6 2 15 27 24 15 8 4 33 6 10 19 13 29 6 21 3 33 10 16 32 39 27 13 11 5 16 32
2964 3821 2999 2536 4351 2704 2559 2726 4857 3261 4477 2539 3564 4342 2730 4002 4566 4567 3131 3824 3494 2941 4139 2874 2978 4633 4949 4821 4298 4685 4731 3612 4742 4769 3445 4587 2719 3982 2639 4107 3466 3908 4481 2749 2684 2665 3922 4410 3721 4479 4446 3832 3503 2636 4102 4240 3696 2905 3526 2594 4328 2804 4541 4169 3139 4702 4690 3093 3250 3657 4978 4675 2523 3700 3717 4588 2777 3969 4986 3404 4823 4072 3287 3694 3556 4965 3690 2752 4709 2669 4662 3897 4871 2635 3913 4536 3865 3598 3461 4265 4022 2624 4075 2969 3282 4218 3529 4693 4433 4704 4765 3996 3255 4971 2576 4963 3448 2516 4480 4595 3545 3554 4764 4418 3544 3287 4442 3274 3967 3440 2590 3990 4378 2779 2704 4183 3097 2802 3470 4370 4982 3092 4231 2536 3154 4994 4676 4134 3499 3801 4148 4489 3741 3513 3314 4650 3655 4139 3127 4739 3504 4805 4655 3705 2737 4765 3222 2658 4255 3757 3580 2674 2622 3729 2506 2673 3586 3044 3460 3827 4540 2862 3719 4436 4165 3310 2936 4453 4870 4226 3438 4611 3244 3188 3024 4056 2698 4927 4293 2708 4321 4565 4805 3579 2927 2600 4855 2609 3824 3100 3167 3077 22 5 38 29 22 13 32 4 6 21 3 23 39 5 15 33 20 23 21 35 29 25 29 2 19 23 22 26 7 10 13 21 15 19 3 18 25 30 18 9 37 15 23 8 30 27 30 16 32 1 19 8 37 30 2 14 9 13 25 2 4 35 12 34 24 17 3 29 0 20 18 5 12 4 7 16 35 20 17 13 35 19 19 33 3 30 21 30 32 1 28 28 35 37 1 23 31 39 25 27 29 18 31 4 17 25 32 2 30 35 11 21 8 20 39 36 29 29 18 4 39 1 28 26 5 1 37 14 25 33 30 38 34 3 36 35 21 12 35 8 33 13 24 31 35 12 34 6 38 27 15 1 35 35 29 37 38 8 3 38 3 23 37 11 15 7 28 39 15 17 4 18 17 35 16 24 13 29 2 37 4 2 37 25 38 28 21 6 25 16 14 16 18 35 6 34 28 26 16 28 19 9 2 23 21 31 7 6 33 14 33 37 29
4398 4351 3424 3177 4281 3708 4602 2879 4623 4318 4758 4443 3406 3091 4415 3241 4644 4894 4219 4505 4141 2716 4321 4447 3270 3670 4081 2545 4616 3343 4422 4410 2588 3647 3806 4026 4260 4972 4177 3001 3999 3322 4465 4552 3920 4246 2691 4467 3284 4962 2621 4132 4987 2793 3259 4245 2675 4871 3167 3274 3928 4846 4906 2520 4238 3296 3784 3402 4460 4334 2944 3141 3378 3299 3242 4084 4503 2658 3685 3237 2500 3772 3983 4550 4506 4159 2546 2532 3395 2618 3919 4783 3356 3373 4099 2535 3990 3359 3689 3423 3759 3837 4554 4450 3924 2616 3052 4900 3576 4095 3119 4554 2615 4495 4051 3295 4515 3190 3508 3744 3609 3228 3081 4310 2687 4005 4600 3505 3053 3632 4803 2703 3659 4001 4925 4556 3830 3598 3224 4840 2987 2976 2605 3299 3260 4531 3515 4716 3943 3210 4091 3125 3098 2724 3476 4699 3088 3794 3008 3135 3605 3258 2946 2733 4537 4855 4752 4057 3238 2715 12 4839 3130 3583 3633 3511 4247 4928 4410 2939 2966 2627 4111 4777 3456 3747 3597 4129 4739 3102 4380 3451 3332 4840 3132 3751 4394 4527 4856 3334 3983 4156 4173 4480 3594 4528 2976 3080 4332 3808 3140 2682 17 31 6 10 12 25 34 9 17 20 28 35 39 18 11 39 12 27 11 38 32 12 38 38 7 27 32 35 31 11 35 24 19 3 15 8 9 33 14 10 38 23 13 37 34 38 1 20 27 30 27 38 14 28 7 22 37 36 4 18 25 27 5 28 2 38 12 27 30 0 17 9 17 23 20 11 16 28 10 9 4 19 10 12 22 2 19 6 17 8 23 10 11 4 11 24 10 24 16 18 19 36 15 21 10 28 35 31 15 9 27 19 24 4 29 8 3 28 3 32 36 29 36 19 23 20 6 32 24 12 9 15 7 6 18 36 35 31 26 12 15 3 24 1 4 6 4 38 17 23 14 5 21 14 20 23 39 21 5 19 35 22 26 35 27 18 6 16 26 8 7 1 31 35 9 6 30 23 32 12 36 12 35 39 21 39 37 31 20 37 12 4 34 21 9 38 22 4 5 9 2 9 35 33 28 8 6 21 37 4 22 13 17
3724 4418 4084 3467 4417 3691 3454 3427 2566 3890 3296 4985 2795 2511 2834 3478 4117 4471 3984 2754 2758 2517 2806 2611 3446 4186 3546 3733 3393 2564 4579 3612 2510 3805 4384 4021 4999 2700 3156 4135 4618 2578 3439 4320 4181 3408 3292 4581 3158 2977 3651 2717 4593 4320 4452 3869 4733 4717 3086 3099 4198 2854 3405 4205 4389 2711 3987 4324 4496 4155 3565 3598 4679 2815 3351 3732 4992 4764 3192 4812 4263 3792 2741 4286 2784 2765 3531 4392 2860 3424 3974 3788 2590 4929 2683 2544 4703 4278 3756 3827 3253 7 2549 4310 3385 3109 2731 4020 4769 3658 2610 4050 4291 4349 3152 3886 3753 3162 4659 4255 3556 3305 2503 4751 3675 3946 3853 4165 4938 2944 3040 2567 3355 4297 4535 4476 4628 4713 2845 3045 3319 2926 3498 4842 3281 3566 3566 4991 4632 4441 3041 3828 4797 2792 4755 4818 4208 3842 3568 3360 2848 4931 3153 4328 3113 2703 3943 2996 4703 3232 4174 4737 4488 4640 13 3980 3100 2558 3039 3605 2982 4435 4841 4541 2665 4824 3887 2651 3078 3876 2673 2632 4874 2782 4330 3204 3942 4381 3028 4018 3080 4963 2542 4342 3585 3290 2685 3633 4569 4106 4655 2891 11 31 5 18 17 10 22 10 4 30 39 13 17 30 25 37 11 31 11 19 7 18 21 23 33 15 25 29 6 12 20 15 15 38 4 22 5 24 13 22 21 39 2 33 22 30 23 26 26 33 27 37 32 11 22 15 19 34 2 9 2 16 6 26 4 9 8 15 22 28 0 20 20 34 16 32 4 26 35 12 33 17 25 26 5 29 10 9 35 34 20 16 36 22 21 9 36 10 38 36 25 29 12 28 26 21 31 10 26 4 10 8 33 30 14 39 35 16 19 25 15 17 31 15 23 27 17 29 7 20 32 30 27 22 16 16 3 39 39 32 17 28 14 19 23 36 29 13 33 22 38 33 29 15 5 36 37 6 29 21 9 6 26 8 20 18 26 37 17 15 19 21 14 3 14 10 37 1 10 30 32 8 13 13 15 6 35 20 32 1 37 23 30 35 2 25 35 23 39 11 19 6 3 1 25 28 21 2 28 36 9 11 3
4967 4901 3183 4888 3167 4199 4584 4094 3025 3670 3807 4379 2645 4545 3806 2753 4349 3796 3079 4478 3339 4757 2569 3028 3730 4502 2963 4356 4228 4579 3016 2798 3853 3893 2983 2853 3269 3255 4332 4844 4458 4156 3439 2936 4643 4942 3834 3133 4127 3442 4251 3450 3004 3242 4249 2537 4482 3728 3770 3525 2524 4278 4615 3893 4407 2961 4945 3235 4310 3092 4635 3117 3448 3890 3147 2951 4569 4361 2712 3216 3663 2654 3732 3348 3843 4849 3744 4270 4776 4485 4834 3076 3806 4393 3663 4731 3854 2840 3978 2534 4059 3204 2731 4511 4538 4142 3662 3235 3678 2803 4779 3629 3385 3081 4906 3276 3570 4751 3242 4804 4584 2549 2673 3255 4839 3322 4092 4618 3262 4275 4862 2529 4618 3622 3981 3891 3382 3464 2936 3829 2985 3474 2775 3899 3361 4525 4085 3395 2726 3484 2504 2555 3030 3127 2878 3768 3590 3308 3795 4859 4120 3273 4824 2821 2618 3351 3058 4816 2533 2600 3816 2818 4514 3176 4077 2955 3881 3556 3592 3925 3265 3137 4366 3748 4157 2858 3250 2596 3538 2704 3625 2799 2638 2978 4974 4150 2746 2845 2532 2839 2818 4805 2991 2684 3806 3452 4565 3551 3283 4851 2930 3453 18 27 2 27 23 34 36 21 36 29 2 26 11 39 5 2 28 31 2 34 37 22 15 26 4 25 12 12 30 13 7 29 9 18 22 2 16 22 24 24 1 15 9 21 25 37 13 23 30 38 8 31 28 10 19 34 18 28 4 31 29 29 36 3 6 33 25 38 18 10 12 0 38 37 28 19 22 4 30 3 30 38 39 37 12 26 11 16 10 15 23 24 4 17 35 39 25 19 35 14 6 37 2 21 38 22 30 28 2 5 13 1 15 14 6 30 16 34 25 5 10 11 38 4 16 11 12 24 28 7 39 16 8 22 19 5 29 2 18 22 17 10 37 35 3 22 5 10 33 20 16 39 10 10 11 8 4 20 7 36 37 4 31 25 18 32 4 31 27 16 39 8 10 16 3 35 24 22 16 20 30 32 1 30 27 39 25 28 27 29 28 19 22 19 31 2 25 35 11 30 33 18 31 31 34 5 2 17 8 33 33 29 28
3396 4150 3554 3869 2684 3225 4824 3905 3799 2600 2885 3031 3691 4390 2632 2575 2819 2830 2966 4070 4510 3743 4943 3084 4234 3748 4080 4935 2674 2530 3344 3717 4728 3668 4213 4029 2934 3939 2851 3766 4280 3637 3319 4639 3305 4424 3489 3215 4283 2732 3531 4664 3454 3191 3139 4013 2826 2675 2657 4035 4737 3820 3778 4162 4809 4741 2751 4377 3132 3046 4644 4513 3141 2803 4795 4159 4392 4052 4924 4256 2821 3364 2981 2806 4515 3983 3201 4705 2877 4934 3340 3683 4058 2669 3085 3139 2959 2577 2590 3039 3167 2887 3313 4717 3177 3599 2829 3761 4736 3736 3157 3606 3840 4662 3881 3568 3661 3303 4316 4699 4067 3038 2659 2811 4152 4449 2953 2976 2977 2560 3001 3982 3659 2765 4124 3388 4719 3842 4781 4392 3059 3710 4681 2536 2856 3989 2713 3985 2968 3098 3480 4644 4672 2580 2877 19 4939 4102 3784 4911 3590 2725 3717 2811 2549 3474 4945 2522 2531 3358 2677 2577 4675 3896 3872 4651 3265 3421 18 4109 4134 4775 3511 3692 3635 2918 3885 3585 4998 4080 3556 3050 4178 3002 3576 4321 3260 3899 4295 4267 3248 18 4801 3979 3065 4242 4450 4233 3622 3397 2662 2717 24 38 32 1 28 13 31 13 33 9 20 36 17 33 23 34 37 33 18 8 25 3 19 2 8 3 8 21 21 31 10 4 38 32 14 25 1 16 39 27 22 17 27 23 39 6 23 5 16 27 21 33 21 22 25 30 25 35 14 28 8 34 10 6 16 11 4 19 16 31 34 16 0 28 17 22 17 29 13 24 11 16 3 39 12 17 28 36 29 4 3 32 33 3 38 3 34 35 1 31 29 25 37 8 35 39 29 29 23 2 5 3 15 25 16 35 23 32 37 34 35 13 34 12 22 28 11 11 34 16 9 3 1 12 32 19 33 25 13 18 8 3 32 32 30 25 4 8 39 32 27 15 22 38 3 11 14 15 21 32 23 13 15 34 29 4 33 23 1 14 17 22 29 37 21 32 6 21 22 28 5 18 37 32 30 35 34 37 2 31 16 26 29 27 14 24 38 9 39 20 31 16 20 39 17 13 11 6 14 8 4 14 39
2729 4203 4554 4157 3472 4812 4185 4551 2885 4281 3534 4805 3055 2532 3050 3414 3482 4021 2981 4735 3038 3739 3698 4707 4645 3008 4373 3676 2560 3859 2696 3908 4797 4624 3576 3078 3219 4602 4381 3346 4420 3877 2857 3571 2721 2701 3685 4569 4754 2950 2933 2899 4401 3965 4838 2676 2702 4071 4144 4358 4090 4381 4369 2621 17 4087 4513 2931 3474 3126 4383 4675 2750 4655 3546 3925 4184 3525 2784 3163 3018 2838 2738 3397 3533 4560 4194 4682 2518 2893 3071 4397 3942 3960 4013 2995 3747 4402 2984 4671 3513 3237 4959 3963 4111 4336 3528 3761 3046 3673 4816 2551 4203 4278 4908 4751 4818 3966 2646 3551 3420 4424 3749 3785 4627 2759 4720 4178 2810 3586 4443 4096 4311 4672 3513 4981 3816 3327 4245 3315 2594 3079 3335 2716 3439 4546 4937 3676 3885 3020 4811 3135 3034 2617 3465 3964 10 2970 3186 3298 4920 3921 3136 3649 4572 2832 2858 3487 3823 4986 4459 3637 2972 4032 3700 3259 4390 4968 4650 4233 4495 3062 2979 2945 4080 4509 3128 4675 2820 3839 3497 4789 2973 4212 3212 4644 4330 3323 3127 4825 2883 4823 4932 3440 3491 4988 4882 2793 3988 4950 4264 4516 26 33 27 18 8 35 13 32 24 38 25 37 3 8 14 28 18 23 15 9 34 17 29 1 8 35 25 8 26 11 11 12 35 9 31 8 39 17 10 33 18 39 30 23 37 3 23 7 25 18 36 13 14 8 6 35 27 10 19 31 24 1 27 13 14 33 26 22 27 16 13 13 28 0 32 33 5 9 21 19 36 31 32 37 9 1 26 12 17 3 25 6 5 17 19 13 8 3 9 30 17 2 39 32 29 16 10 18 25 34 31 18 36 18 6 20 17 12 14 3 4 39 25 16 16 28 7 14 7 13 32 14 32 14 8 14 14 4 19 21 2 26 33 1 37 35 17 32 9 25 1 35 17 9 9 26 30 16 12 19 6 17 16 31 39 17 13 11 12 13 6 24 10 3 26 6 19 15 31 22 16 18 19 12 30 14 2 25 25 22 13 16 1 35 18 35 19 23 14 19 28 16 37 1 36 19 22 26 11 1 12 4 10
4598 4527 4272 2509 4123 4119 3888 4850 3537 4806 3163 3648 2537 2640 3571 4097 3035 4977 3540 3132 4972 2879 3985 4622 2842 2751 4623 4130 4474 2576 2859 4578 2611 3468 3278 3036 3878 2643 4451 3554 2680 4017 4138 4700 4416 4650 4742 4450 3512 2551 3223 4297 2793 3990 2931 2960 4909 4679 3538 12 3826 3008 3292 2694 3534 4761 4721 3500 2838 3991 2608 3947 3460 3889 2919 4722 3051 3712 4553 3680 2827 2905 4168 4413 4644 3393 2668 3786 4255 2668 3256 4872 4463 3452 4180 4912 3805 3476 3018 3819 3967 2949 4765 3610 4825 3193 4555 2700 3563 4887 3047 3130 2968 2853 2963 3345 4528 4904 3537 2697 4894 2993 3611 3425 3813 4666 3939 4687 4800 4788 3149 4348 4152 3172 3253 4508 4095 2536 4724 3367 4094 3674 3061 3528 4223 2942 4565 4585 4115 4543 2612 3536 4629 2900 3912 2506 3306 3281 3178 4080 4399 3661 2699 3371 3265 4662 3458 4485 2725 4958 4079 4913 3874 3486 3990 4283 2903 2748 4376 4481 3297 4897 3435 2566 3773 3890 4250 3107 4378 4612 4622 4066 4735 3026 4029 2659 3091 3609 4394 3677 4967 3344 3875 4646 2679 4075 3100 4599 3831 3967 3442 2667 21 20 30 26 12 13 29 32 27 19 17 4 29 26 31 15 20 22 10 1 4 32 2 38 24 8 11 7 26 33 25 4 31 23 11 32 6 34 35 33 20 31 9 15 27 8 10 32 15 22 35 24 8 4 35 29 19 22 9 28 17 9 15 6 25 15 10 6 25 24 30 13 12 17 0 14 12 19 15 38 10 27 18 8 5 35 5 38 8 18 27 19 22 39 12 12 23 14 13 32 28 22 3 6 18 20 37 10 9 28 13 2 28 28 32 12 30 23 35 25 28 7 12 30 12 18 25 16 35 5 25 5 33 7 13 25 21 2 9 19 21 11 29 17 12 24 25 4 36 16 25 39 35 25 7 11 31 28 33 26 25 28 38 32 23 9 4 28 32 15 24 38 10 1 18 27 15 9 2 30 26 23 36 37 24 16 21 37 7 29 31 20 22 28 5 15 15 11 12 25 19 9 36 33 35 6 24 30 25 17 22 34 39
2827 3277 4078 3411 4409 4041 2867 3390 4814 3350 3657 3491 4444 2855 2697 3271 4358 4725 4394 3457 4015 4259 4011 3299 3182 3943 4410 4136 2709 2886 3976 3650 4547 4626 3545 4721 3880 3873 3839 3061 3808 3331 4260 4978 4346 2882 3348 4073 3662 2616 4107 2620 2839 3776 3251 4103 3670 4680 4737 3222 4490 4068 4052 4033 3732 4616 3441 3719 3662 4973 3269 4174 4285 4426 2611 2850 4916 3141 4124 2544 2742 2972 2955 4449 3437 3509 3818 3516 3979 4557 4220 3984 3333 3629 3068 3606 4172 4786 2632 4135 3317 3945 3385 3038 3545 4590 4111 2753 3833 3416 4418 3026 4502 3920 2555 4679 4989 4741 3859 4437 4266 4384 3096 3215 2698 4130 4438 4869 4145 4206 4903 4541 4403 4567 3737 2665 4619 3037 2889 2773 3191 2610 3049 4510 4483 4845 3128 4361 3160 3508 3055 3210 4407 2782 2571 4045 2751 4186 18 3618 3581 3419 4724 4610 3951 3075 4830 2656 3920 2681 2684 3078 3671 4138 4426 4651 2738 4774 4490 4428 3530 2655 3454 2826 2602 3253 3455 3138 3997 13 3149 3947 4351 3710 2537 3161 4638 4090 2787 3769 4626 4729 2822 3344 3267 4186 4377 4597 4609 2697 3122 4888 37 28 3 24 6 31 39 7 6 27 2 7 17 4 28 27 31 31 20 10 14 37 8 9 35 9 8 9 18 23 14 5 16 25 5 16 18 20 12 19 22 27 27 21 31 2 31 35 31 6 25 9 25 13 15 15 15 16 3 7 32 24 13 38 29 4 31 11 1 24 9 36 26 22 17 0 35 16 29 30 19 11 34 4 17 22 5 33 17 37 8 10 2 7 31 35 9 39 30 10 21 10 15 35 21 39 32 27 33 22 37 34 14 38 1 8 12 13 11 39 32 36 28 19 26 13 21 9 7 10 1 29 30 12 6 36 31 6 19 18 27 39 8 11 34 13 29 8 13 37 33 26 35 27 11 39 19 3 4 7 39 31 17 6 28 21 11 11 17 17 1 15 39 25 30 6 17 13 13 14 14 35 11 1 9 9 8 33 30 18 36 33 4 2 37 11 30 5 6 14 18 34 2 34 24 1 18 16 18 38 14 1 19
3789 3458 2917 4676 2916 2831 3028 3838 3588 4650 2548 4809 2828 2510 4902 4723 4468 3014 2891 4426 3757 3256 2504 4972 4571 3559 4318 3941 2852 4466 2622 4882 3767 3544 4268 4689 4952 3981 10 4564 4732 4746 3957 3808 2977 3006 4246 3944 3123 4096 3504 3093 3569 4626 3007 4110 3471 4803 3291 4020 3993 4285 4678 3940 2896 3631 4875 3502 3089 3647 3768 4083 4444 2822 2575 4923 2988 3966 3718 2845 4063 3261 2603 4100 18 3519 3874 3089 3787 2584 4260 3038 2918 3359 2760 3991 2562 2544 2823 4934 3655 4880 2628 2877 4981 4321 2841 3786 4746 2645 4733 3544 3928 3619 4237 3520 2615 2626 3319 3755 4599 4396 4192 4301 3442 4956 4435 4116 3472 4010 4938 3902 4335 4625 4554 3661 3473 4387 3323 3939 3179 3310 2783 3842 4181 2685 4089 4443 4958 4384 3466 3559 3746 3978 4877 4072 4284 4816 3171 4279 4329 4413 2608 2636 4315 4458 3041 4567 3203 4047 3604 4135 4068 4059 3934 2693 2852 2811 2657 4833 4369 3136 3561 3816 2561 4908 3304 3684 4039 4418 3416 4006 4281 4927 3121 4293 2598 2803 4390 2760 3689 2967 2557 3563 3805 3159 4692 4373 4977 4348 3879 3720 26 19 5 34 1 24 29 7 37 7 7 19 26 4 22 3 11 21 21 18 19 17 16 29 19 12 21 6 3 35 31 9 10 11 2 7 5 38 11 23 15 37 15 32 10 1 39 10 20 19 32 9 36 12 15 17 36 8 3 35 13 7 19 2 10 15 27 23 9 7 19 1 21 27 6 13 0 28 11 2 36 1 24 29 11 20 37 12 37 35 12 11 12 18 10 3 26 31 21 1 15 19 35 21 32 10 30 20 10 26 23 21 17 3 39 2 11 32 31 16 14 14 39 21 31 24 30 26 31 18 5 6 14 17 2 20 17 15 32 17 4 37 22 30 39 9 13 38 35 15 18 21 1 15 13 5 8 6 22 35 18 17 9 28 24 6 20 33 32 25 15 5 33 2 22 16 1 16 20 25 14 11 20 11 24 10 32 18 24 37 20 24 18 21 27 29 21 10 10 5 1 13 23 25 37 3 33 28 11 27 24 33 8
4084 2916 4494 3095 2743 3999 3345 3541 4749 2590 2897 4600 4185 3483 2865 4691 2955 4435 4097 4619 3080 4293 2967 3841 4274 3016 4596 3787 2552 3273 2652 3572 4352 4464 3970 3789 4660 2562 3252 3612 2935 3493 3496 3992 2946 3368 4039 4865 2820 3232 3533 3292 4835 4479 4993 4574 4140 2903 4877 2696 2692 3356 3143 3947 3144 4564 4978 3021 3780 4027 3071 3152 4145 4798 2720 2964 3970 4024 4001 3201 3942 3168 3856 3075 3189 3736 4147 3303 3779 3966 4402 3593 3128 4854 3653 2984 3085 4278 4001 2920 4342 3761 3981 3052 2705 4181 3702 3600 4691 4422 3925 4023 3917 4533 4841 4558 3787 3376 3894 3406 2845 3472 4657 4816 3366 4232 4218 2581 4030 4012 3957 4234 2657 3337 2732 2554 3109 2955 3261 4585 4033 4152 3705 2588 2974 4667 3963 3002 3270 2648 2581 3016 3163 2774 4616 4908 4941 4743 3561 3852 3623 4984 3760 4444 4456 3257 4053 3787 4228 3053 3381 4389 3321 3359 3271 3263 3905 4634 4267 4493 4198 3778 3353 2891 2760 4230 3666 2894 2948 4650 4776 4714 3303 3568 4308 3790 3751 4915 3088 2937 3982 3064 2630 4579 3358 3664 3539 4627 4732 2958 4128 2631 17 31 28 27 5 3 33 1 22 5 2 26 33 3 9 35 35 39 38 22 22 16 31 36 26 2 16 14 38 5 31 36 6 28 19 15 5 9 28 17 1 2 5 34 32 36 31 23 4 39 8 1 15 14 3 8 33 38 32 17 39 21 4 8 23 1 34 20 3 20 31 13 22 6 11 35 12 0 13 4 12 21 3 33 5 39 33 1 36 20 2 11 4 3 34 38 35 25 16 16 6 6 26 34 23 18 37 6 24 11 4 34 3 5 27 28 14 24 24 10 12 6 6 3 33 3 36 25 23 37 23 15 38 23 17 1 22 23 15 9 9 16 35 16 6 5 1 11 27 13 25 18 7 3 13 15 22 29 3 12 37 5 3 29 25 27 32 21 13 22 28 3 21 12 8 23 31 36 34 7 9 26 29 8 3 38 2 29 32 28 21 37 30 3 34 7 33 34 1 37 15 24 11 15 36 6 24 24 38 34 15 15 21
4358 3461 4053 2886 3898 2635 4169 3982 3350 4931 3800 2584 4627 2515 4590 2977 4541 3865 4875 4212 2809 2928 3197 3978 2649 4386 2502 2509 2735 2694 4385 4039 4324 3390 4365 3726 2768 4191 3344 2963 3646 4182 2777 3607 3355 3607 3572 4807 3030 2523 15 3767 3008 4801 3428 3332 3868 3893 3035 3413 2522 2665 3432 2944 4939 2566 2937 3096 4901 2970 2678 2796 4370 3539 4438 3523 3069 3168 3908 4007 3331 3496 4602 3388 2634 3404 3672 4928 3755 2639 4471 4892 3287 3935 2786 3867 4632 2542 4253 4221 2727 3375 3650 3625 2663 3427 3353 4497 2529 4280 3521 4829 3729 3882 3629 3709 3129 4324 3531 4390 3378 2648 3992 2616 3986 4396 3924 3175 2728 3593 4156 3826 4624 2909 3241 3003 2682 2667 2808 2749 2901 3687 3308 3278 4920 4595 2743 4133 4059 3812 4680 5 2785 2836 3683 3072 4766 2544 4526 4316 4000 3753 2555 2973 3207 3666 3979 3240 3448 4569 3322 4491 2920 3331 4218 4339 4262 4237 3373 4685 4491 3019 3126 3485 2982 3806 2742 4930 4447 4663 3454 4047 4906 3523 3697 4853 4376 3390 4455 4341 4475 2718 4073 2652 3248 3831 3925 3728 4478 2997 3070 3417 27 31 22 2 28 21 37 17 28 21 10 36 22 22 8 24 15 39 23 31 14 24 3 31 37 33 37 26 2 36 26 18 9 28 21 5 38 38 14 25 2 39 18 12 33 24 34 23 20 23 21 3 31 20 31 38 39 7 34 9 20 19 26 25 18 29 19 7 32 16 37 8 5 19 34 18 39 11 0 30 21 29 38 23 35 5 23 37 11 10 20 15 8 8 22 7 21 31 11 38 6 22 35 24 32 4 35 28 18 2 25 20 25 5 32 23 28 36 2 14 17 18 5 26 15 22 35 38 14 6 7 14 7 18 20 4 11 1 4 14 39 34 13 8 16 11 30 16 22 36 34 39 4 17 4 26 32 21 5 26 18 32 13 17 35 15 16 21 11 7 4 35 20 10 6 33 22 15 27 29 22 25 10 22 39 9 5 39 17 11 4 4 15 5 29 34 15 11 3 20 16 3 14 8 2 21 19 2 29 14 8 35 3
4964 3394 4209 3664 3922 3354 3636 3155 4830 2615 3993 2945 4199 4077 2934 4077 3080 3412 2977 3434 3249 3654 2934 4707 4247 3832 3786 4074 4392 2922 2901 2888 3269 3554 4149 4434 3051 2723 3403 3404 3552 4143 3334 4211 3216 4278 4737 3936 4165 2637 3097 2920 4540 3373 3182 2598 3291 2637 3632 4060 3308 4574 2514 4821 2782 4773 2701 2652 4406 3800 3948 3314 3772 2876 3470 4881 3464 4607 4777 3381 3101 3283 4153 3607 3839 4493 4142 4061 4984 3931 3783 2812 2503 4875 3961 2621 2611 3193 4236 3132 4735 4229 4628 3623 4494 4480 4277 2553 4340 2658 4416 4075 3640 4825 2922 4358 3045 3864 2753 3412 4159 2664 3048 4274 4455 2606 3066 3053 3019 4159 3124 4905 4693 3685 3705 2998 2811 3086 3539 3782 4214 2921 3145 2539 4816 3014 4928 4169 2771 3734 4621 2877 2802 3376 3922 4802 3037 3457 4585 4385 3668 3077 4709 2581 4762 3349 2706 4468 2877 2691 4382 3625 4465 3266 3635 4694 3202 4773 3651 4681 3044 4492 4963 3102 2906 4375 4160 3237 3304 2945 4140 3517 2558 4611 3373 2725 3459 4004 3388 2775 3246 4857 2534 4880 2970 3695 3194 3387 3107 4500 3384 3333 2 26 14 10 35 32 21 1 20 21 19 2 23 13 3 32 31 31 23 37 36 17 22 23 1 4 24 13 21 39 16 31 32 24 12 6 3 38 16 9 1 39 32 35 36 35 6 3 25 28 33 33 22 2 3 12 8 14 36 9 24 4 17 6 12 35 15 35 13 10 26 25 26 30 19 29 37 4 9 0 23 19 15 29 4 21 39 27 30 18 10 36 22 18 19 10 13 3 17 36 18 15 13 20 28 19 38 23 19 12 6 39 4 1 18 1 37 4 19 29 16 12 30 34 21 24 15 24 30 18 20 35 29 7 36 15 31 18 20 29 6 9 27 8 2 22 13 3 35 2 5 3 28 37 10 36 1 11 17 26 3 9 27 1 29 29 32 20 21 23 26 4 29 21 7 3 4 13 39 4 33 38 8 2 8 19 6 6 25 18 2 22 18 24 36 38 20 15 16 19 3 11 20 36 38 29 15 3 18 4 7 22 6
2633 3016 2617 4450 2619 4178 4430 3260 4503 4992 3461 4980 4405 3470 4926 3683 4302 3601 4475 3285 2680 3446 4990 3160 2591 4811 2736 4366 4593 3148 3054 4719 4909 4862 3193 3471 4381 3029 2743 3637 4401 2976 3015 3924 4644 4710 3516 3975 3943 4029 2987 4698 3153 3045 3582 2959 3188 2752 4653 3087 4267 4134 4846 2759 2925 2671 2757 4873 3281 4499 2845 4586 4543 4703 4934 4640 3491 2880 3091 2723 4856 3421 3065 4624 4405 4692 3760 3037 4598 2925 3408 4718 4027 3592 3633 2866 4372 4918 2996 3546 4985 3509 2733 4597 2971 4169 3486 3598 4607 4029 3871 4073 3523 3501 3217 3024 4633 4817 3209 4474 4273 4588 2664 2890 4302 4302 4772 4098 3780 2895 4632 2894 4252 2699 2742 2832 3734 3701 2741 2856 4390 3437 3265 4966 4522 2564 3805 3285 3283 3315 4927 4690 4579 4968 2798 2654 3700 3854 3062 3768 3117 2636 2877 4319 4485 2620 3720 4498 4625 4070 4805 3235 3692 4664 3068 4418 3292 2653 3309 3786 4400 3649 2900 3062 4539 2933 4522 4348 2627 3417 3404 3786 3892 4705 4601 2612 4429 3892 4391 3445 2664 2928 2756 3352 3252 4444 3753 4105 4886 4672 4741 3344 24 39 7 27 8 4 20 37 26 21 16 27 22 11 14 18 27 4 21 33 6 12 33 3 14 31 37 37 28 6 32 21 37 20 19 25 30 17 13 22 13 35 35 1 21 27 39 39 17 17 6 31 34 27 23 15 31 18 22 2 9 36 18 21 23 6 35 31 24 36 8 18 32 36 4 13 29 25 21 36 0 37 18 9 35 4 9 20 6 20 29 35 1 15 22 25 34 25 14 13 23 7 28 28 38 13 20 11 8 29 20 9 33 30 16 21 16 23 20 27 36 10 11 5 32 5 3 34 19 18 38 23 1 3 31 2 37 31 11 29 32 19 16 19 5 35 20 24 35 29 25 22 15 29 7 27 3 8 14 27 25 29 14 30 6 15 29 1 4 22 27 3 8 23 36 23 26 21 15 23 2 35 26 14 14 13 28 24 20 4 32 4 21 30 6 37 30 27 9 29 27 37 27 34 15 33 24 4 35 8 20 13 6
4322 2763 3082 4876 3125 3179 4526 3126 3433 2937 2695 3954 4254 3298 4653 3945 4531 3515 4296 4032 3186 3864 4953 3958 4564 3885 4422 3142 4386 3614 3426 3667 2581 3707 4503 4856 2999 3518 2878 2719 3438 4780 3659 4783 3940 2505 2726 4334 4517 3004 4899 2753 4823 2620 3126 3529 3829 4081 2785 3454 4188 4163 4239 3592 2509 4362 4099 2609 4379 2822 2810 4233 4773 3411 4454 4416 3835 4041 3427 2869 3149 4783 4803 4555 4240 2717 3997 4230 4891 3325 4109 4353 2923 4012 3383 4994 3425 3920 4236 4992 2610 3874 3051 3594 3214 4570 3985 4336 4145 3962 2813 4843 3251 2715 4786 4546 3759 2823 4035 2756 4639 4031 2870 4553 4103 3752 4561 2673 4288 2503 4552 2820 4237 3257 4313 3716 3548 4055 3285 3515 4448 3826 3597 2689 4256 4636 3101 3932 4381 4107 3251 4689 3201 3049 4552 4425 4646 4845 4326 4068 3943 4089 4653 4449 3392 3346 3440 3389 4380 3211 4918 4435 3559 4719 4803 3255 4346 4698 4561 3157 3834 4982 3194 4146 4114 2925 3210 3776 2996 2923 4416 3934 3505 2615 3100 4934 3101 2640 4782 4027 4743 4707 3021 2865 3833 2727 4234 3270 2620 3000 3996 3747 15 22 3 14 35 21 36 1 11 9 12 1 11 17 8 37 17 6 17 13 5 29 13 22 39 32 28 6 34 8 18 22 27 19 23 36 20 4 5 13 18 4 33 7 35 28 28 14 38 24 36 17 9 28 18 26 7 22 23 11 20 37 32 29 20 25 34 22 12 36 13 36 35 18 24 29 37 38 23 7 37 0 6 5 36 16 1 5 2 25 24 14 39 1 12 13 2 28 28 12 1 21 25 37 9 23 21 19 25 23 9 34 20 34 36 25 39 11 33 1 8 15 24 17 6 6 23 6 34 36 29 25 1 22 5 13 26 4 1 6 1 37 12 12 10 6 29 13 17 17 5 33 24 4 32 36 20 33 34 13 23 18 31 23 14 32 22 31 9 38 39 21 21 39 13 6 14 36 8 21 34 13 28 23 29 36 4 22 17 1 30 18 17 29 18 9 38 18 26 35 29 18 36 5 27 5 35 38 16 2 4 34 38
4377 3441 2530 4389 3213 2916 4270 3208 3189 4090 4966 4677 4415 4091 3775 4865 4796 4477 2926 4469 4451 3684 3072 3977 3584 3608 3472 4685 4759 3553 3903 3159 4194 3878 3170 3621 2557 4477 4358 3185 4221 4628 3998 4592 3958 4841 4981 4571 4252 2919 3972 4268 3633 2760 4257 3881 2664 3175 10 4510 3260 3000 3793 4628 3235 2822 3879 3470 4611 2955 4045 3425 4765 2505 3808 3032 3172 4094 2824 4778 4991 2848 4962 4037 2575 4205 2644 3057 4221 4848 3171 4575 3711 3537 3629 3944 4729 2842 4827 2613 4688 3939 3534 4733 4560 4759 4649 3066 4015 3228 3377 3235 3476 3447 4406 3894 4466 2688 3549 3118 3876 3275 4332 4860 4947 2841 2673 4490 4144 4702 3823 2781 4803 3225 2594 2692 4328 4961 3928 4337 3217 3350 3706 2802 3204 4269 4835 3118 4527 4090 3228 3160 4706 4650 2866 3118 4707 4488 4940 3946 4380 4797 4510 4288 4137 3149 2716 3070 3665 3231 4342 3255 2700 2981 2751 4105 4097 3816 3475 3540 2645 3659 3661 3189 19 3647 3303 4432 3300 2939 4768 3314 4027 3909 2868 3585 3866 4845 3572 4891 3220 3981 3181 4692 4492 4727 4542 3241 4304 4779 3226 4015 14 5 23 10 11 20 21 39 14 33 37 6 16 5 14 25 35 6 24 34 20 10 16 11 16 38 9 39 4 26 26 3 12 7 31 33 21 1 25 17 20 13 26 36 28 16 29 20 29 10 25 37 30 35 24 31 23 39 17 1 2 5 3 35 13 11 21 22 7 18 13 12 8 23 7 21 23 10 17 2 13 24 0 35 6 13 36 34 21 34 2 11 31 22 26 10 28 21 25 26 18 30 1 5 19 37 13 37 25 14 28 37 14 31 27 31 14 17 25 36 14 1 10 39 1 38 1 7 13 21 38 20 21 11 28 8 15 12 23 24 29 3 39 5 33 27 35 30 7 26 31 33 24 38 26 12 10 7 12 35 33 3 29 17 37 12 9 11 22 16 29 37 21 18 35 39 7 11 21 6 17 33 4 29 16 39 18 10 24 27 29 14 23 11 7 24 12 20 13 6 1 27 17 19 14 6 39 30 39 3 25 29 32
2706 3020 3565 3092 4422 3107 3524 4024 4249 3478 3884 4125 3740 4428 2752 4542 4794 3700 2748 4886 2734 3087 4199 4962 4947 3839 3616 3890 4175 3418 4205 4059 3574 2576 3182 4943 3300 3704 4597 4698 2593 2704 2576 2547 2837 3394 3061 3352 3152 2930 3327 2689 4229 4931 2550 3216 2799 3531 3745 3764 3218 4491 3299 3381 3846 4313 4540 3077 2739 4650 3488 4897 4112 2923 3995 4174 4938 2788 3173 2680 2599 3193 2918 3544 3604 2597 3566 4999 3401 3261 4366 2584 3176 4466 3299 3466 3534 3672 4047 2855 4616 3386 4917 4696 2826 2512 2631 4447 3504 4394 2502 2694 3478 3217 4142 19 4962 3997 4550 4897 3524 3067 4765 3920 3992 3269 4725 2975 4619 2590 4512 3759 3090 4702 3818 3262 3030 2683 4240 4850 4948 3338 3861 4392 4716 4250 2691 3890 3106 4237 2608 3047 2852 3691 4232 4350 2604 3818 3789 3650 3111 4365 3343 3881 4621 4921 4577 3656 4890 3482 3517 4253 3614 2767 3624 3277 4104 3044 4194 4047 4039 3398 3426 3298 4939 4707 4771 4693 4812 3336 3224 4354 4224 4794 2697 4037 15 3319 3299 3134 3236 3386 4997 4146 3465 3637 4425 2854 4293 3674 3382 3086 4 9 8 35 10 21 23 10 3 37 5 25 27 34 16 4 39 1 33 7 2 14 14 12 32 32 7 34 15 2 27 13 9 16 14 3 12 33 32 9 15 21 6 5 26 37 33 17 8 22 39 29 30 33 29 33 22 28 27 19 26 39 24 25 10 21 28 3 10 15 32 31 28 29 3 37 20 19 34 29 29 3 35 0 36 39 12 18 25 38 8 36 36 23 18 3 19 19 34 17 17 14 31 38 19 19 27 26 10 24 33 14 4 19 21 37 26 9 9 25 11 29 16 35 31 3 5 33 4 5 17 24 6 5 21 23 32 21 21 6 20 8 28 7 28 17 17 3 3 36 28 27 16 5 15 16 24 12 25 21 21 34 2 17 19 19 11 19 5 11 35 30 36 16 2 29 7 34 19 28 24 33 2 26 8 21 27 21 27 34 31 24 1 6 17 7 26 26 33 37 3 21 20 17 15 29 36 5 14 27 39 5 5
2609 2829 2604 4888 4494 3343 3082 4342 3351 3343 3492 2815 4872 4796 3983 4951 2988 4771 4234 4877 3394 4122 3334 4201 4342 4744 2826 3429 3440 3626 2856 3440 3839 4867 2717 3522 2823 3331 3733 3476 4352 2962 2967 4503 2740 3098 3736 3062 4554 4131 2546 4911 3811 4273 4338 2911 4703 3503 4161 2797 4380 2596 3077 4118 2583 4121 2802 4420 4894 3265 3163 4355 4351 3558 3880 3710 3478 3384 3038 3122 4433 4447 3711 4248 3425 4058 2820 3032 4823 4876 3452 4308 3865 2567 4188 4424 3009 4471 4273 4522 2765 4173 4579 3539 4400 2728 3057 3656 3631 3871 3137 4857 4170 3559 2540 2691 3847 4024 4444 3883 4879 4301 3775 3816 3564 4033 2873 5 3470 4786 4715 2746 3782 4398 4685 4830 3452 4344 4914 2885 4729 3847 3358 4558 2578 2800 4343 3775 4991 2518 3923 3914 3680 3704 3955 3235 4342 4659 2528 3878 4873 2723 2507 4731 2983 2622 4308 4735 3151 2607 2978 3003 2819 3903 4897 3364 4574 3580 4553 3984 3405 3702 4490 2814 2603 2622 4651 4272 3047 4575 3849 3813 4064 4501 3002 4009 4293 2528 3033 4069 14 4935 19 3918 4971 2797 4986 3518 3913 3545 2883 4927 8 7 7 30 27 38 30 27 14 19 25 1 13 24 10 5 18 35 9 12 8 5 11 39 30 18 16 12 35 36 4 26 35 18 29 17 16 33 25 22 30 32 11 30 23 23 17 31 22 33 27 24 7 16 21 19 36 21 23 37 26 27 20 2 37 21 13 16 18 37 25 8 37 24 9 28 38 30 14 27 22 31 31 39 0 35 12 37 3 27 39 29 23 2 13 10 3 31 36 32 27 35 5 36 19 5 16 13 19 14 14 21 6 25 29 37 1 36 23 36 23 10 33 5 11 32 32 33 14 1 8 39 24 1 27 15 11 9 28 17 20 6 4 16 17 24 19 26 14 35 35 5 19 17 38 17 7 29 12 28 36 25 35 36 8 37 28 31 5 13 16 3 16 12 29 1 9 2 15 18 23 18 31 33 23 34 24 39 34 33 20 33 19 27 1 22 37 5 38 33 25 7 19 39 27 13 17 9 32 32 27 12 32
3815 2854 4685 4849 3958 3765 3535 4177 2812 2890 4128 3627 3237 4687 2544 4643 4294 2618 3564 4791 3005 4211 3781 4619 3204 4536 3442 4501 3693 3689 3440 4143 4364 2679 4710 4454 2937 4821 2700 3059 3948 4858 3415 3989 2621 3208 4746 3801 4525 4987 2932 4118 3250 4502 3639 4353 4833 4570 4780 3198 3402 2912 3703 4012 4532 4422 4855 3852 4690 3965 3079 4777 3639 4727 2811 2805 3876 3212 3496 3652 3761 4498 2687 3274 2763 4976 4083 4577 3245 3295 3079 4106 3739 3196 3308 4545 3525 4557 4596 4850 4907 4422 4874 2957 3846 3000 4398 3049 3074 2697 3369 2574 3550 4414 2802 3275 3177 3728 2887 3241 3793 4889 3554 3855 3488 4334 4317 4776 3814 3326 2842 3481 3893 2747 3740 2790 4067 4079 4657 2936 3600 2651 4975 4249 3867 4598 3506 2962 4739 3531 4309 2802 3780 4873 4625 2512 2854 4316 4076 4198 2642 3059 4018 3411 4097 3065 3184 2739 3871 3547 3507 3108 4137 3353 2834 4775 2906 4395 4278 3449 4552 4599 4796 2912 2817 4816 4277 4442 3967 4070 3886 4666 2876 2527 3233 2919 3804 3683 3972 4023 3829 4374 2748 3768 2723 3349 3152 4860 4335 3356 4103 4734 27 2 1 2 8 36 18 24 36 38 24 14 15 9 12 23 5 3 14 5 2 6 39 23 39 25 11 36 37 22 26 14 8 7 3 33 1 3 26 4 14 34 10 38 7 26 27 27 34 30 11 28 24 33 26 7 10 12 25 38 34 13 1 31 7 23 9 7 38 11 3 17 31 25 2 2 1 29 12 39 36 31 15 27 7 0 35 9 24 33 13 4 36 13 22 25 8 24 33 6 4 39 28 14 27 5 28 14 7 23 19 30 30 7 10 16 31 8 14 10 14 1 31 12 5 4 5 11 20 7 24 19 20 23 18 39 32 37 14 32 7 39 16 25 39 29 8 11 31 31 5 15 24 1 27 4 15 8 27 19 35 20 26 1 4 7 39 12 29 33 9 20 7 4 2 24 37 28 2 31 8 10 2 8 34 30 2 36 15 2 38 5 9 10 1 19 6 8 32 25 26 15 35 22 6 7 16 36 31 3 13 9 32
4138 3878 4321 2815 2884 4273 3758 3486 3194 3860 2832 4739 4483 4146 4414 3396 4681 2552 4410 3992 4202 2815 2853 2705 2561 3962 3026 3255 2819 4751 3643 2777 4527 3869 3513 4005 3187 3528 3846 4089 2582 3593 4715 4351 4800 4764 2643 3013 3508 2577 2792 2937 3917 2778 3629 4864 3802 3185 4543 3502 4962 3551 3841 4640 3775 4175 3546 3301 4432 2749 4579 3101 4562 3771 2782 3935 3117 4065 3825 2799 3626 2659 3653 3847 4899 2833 4794 4614 3720 4292 3278 3576 4969 3629 3811 3565 3897 3238 3510 3178 3498 3961 3126 4139 3477 4036 4200 2554 3463 4578 3154 2935 3731 2887 3580 3623 3512 2657 2664 4223 3849 3146 4431 4232 2666 3038 3295 4344 4535 3562 4016 2780 3228 4829 3804 4652 4624 4655 2904 4168 2777 4074 3360 3210 3070 3931 2722 2644 3169 4055 2590 2758 3954 3159 3746 4143 4647 3377 3435 2516 2735 4037 3844 3993 4354 4643 4789 4160 2982 3962 3684 4058 3473 4763 4401 2520 14 4562 3257 3143 3047 3712 3890 3830 3896 3721 4123 3648 2957 4534 4674 3402 3774 3981 4900 4545 3875 4011 4908 4695 3688 3146 2948 3673 4348 3850 3028 4309 4441 4247 4444 4481 9 25 4 33 21 9 32 16 24 26 12 36 13 30 3 24 16 28 38 27 32 27 26 24 5 6 18 21 28 9 27 16 30 21 13 27 25 39 16 6 20 24 6 38 1 32 19 7 39 12 4 2 6 30 34 3 19 6 39 3 31 19 21 17 10 34 21 28 19 13 4 21 22 1 19 8 20 3 11 32 29 31 34 24 12 31 0 37 14 12 18 1 37 20 12 3 38 4 28 32 21 32 38 2 15 12 21 6 27 9 16 5 9 10 25 36 38 7 2 12 4 25 11 9 30 13 26 4 12 1 24 38 26 18 2 21 3 30 1 10 12 20 13 33 29 26 22 7 13 6 12 27 15 14 8 37 18 23 18 39 38 13 23 19 23 27 4 6 26 39 24 19 17 7 34 17 8 14 30 36 12 4 26 24 5 1 37 17 2 37 17 10 26 22 16 14 25 4 22 2 39 36 15 18 34 3 15 13 7 32 11 12 38
4346 3274 2901 2519 4824 4380 4236 4326 3932 3779 4575 4303 4005 3895 4123 4688 2711 4735 4270 3495 3638 3972 2856 4826 2788 4457 4465 4683 3421 4855 4138 3166 4731 4213 4071 3039 3354 3718 4951 4332 2668 3850 2815 4669 3478 4293 4384 2732 3832 3923 4979 4097 4612 3699 4641 4930 4492 4085 4707 3987 3966 4020 4237 4382 3009 2829 3533 2764 4286 4316 3620 2570 4621 4417 2864 2696 2668 3307 3679 3702 3699 2710 4149 4311 2615 4523 3359 2505 3648 4701 3515 3807 2607 3486 4661 2505 3301 4852 3673 2966 2881 4361 4162 4028 4338 4361 3932 4874 4362 2784 2859 2692 4162 4967 3116 3988 4739 3942 3024 4728 4261 4566 4622 2997 2882 4303 2785 3429 3456 2550 4908 3144 2553 3569 2676 2820 4644 2619 2809 3080 3367 2526 4525 3398 4473 4493 4563 3307 3849 3296 2504 4022 4645 4628 4637 3473 3673 3541 2972 2566 4134 3225 3347 4140 3541 3723 4878 4278 3155 4218 4521 4827 3020 3523 4332 4405 3813 3239 3098 3283 2813 4119 4731 3353 4127 3656 3895 3527 3020 3365 4764 4119 3940 4760 3344 4130 4265 4138 4255 4830 3651 2512 3196 4600 2538 3935 4168 4904 4201 4614 4401 4901 36 10 38 27 22 29 11 20 28 13 15 17 27 8 5 10 35 32 9 22 18 11 6 38 19 7 25 1 13 7 10 20 33 8 15 27 30 12 9 38 5 13 6 18 32 6 16 23 37 10 30 22 38 30 25 19 20 23 5 26 19 35 27 19 21 6 38 27 21 36 3 30 2 22 32 17 12 24 10 31 34 16 19 23 26 17 34 0 24 17 14 29 18 1 12 8 27 12 32 15 27 9 20 1 20 13 14 24 7 27 30 19 9 2 23 35 37 33 16 22 16 32 10 19 16 38 12 27 28 33 27 32 33 28 33 37 18 26 37 11 22 9 26 34 12 4 24 6 39 24 31 9 34 18 36 28 20 33 20 14 20 8 8 26 11 25 28 17 5 17 28 34 4 7 35 12 4 15 26 28 6 34 21 30 6 38 35 36 28 15 31 6 38 35 16 26 37 30 9 5 30 33 2 39 29 15 30 19 4 15 29 9 4
2959 4959 4833 4755 3192 3306 4809 3580 4267 3417 3226 3785 3833 4618 4507 3446 3678 3567 4642 3529 3172 4771 3408 4089 2503 4862 4449 3022 4936 3389 2880 2790 2546 4982 4024 4522 3083 4083 3163 4487 4666 4968 3164 4091 3942 4070 2707 4330 3972 2845 3955 3531 4153 4090 4952 3934 3059 4362 4400 4984 4685 4543 4640 2679 3324 3776 3372 4379 3863 3096 4766 4802 3726 3772 4846 3598 4109 2631 4076 2783 2645 4058 3254 4261 3833 3074 3656 4823 3241 3224 4262 3388 3657 4158 4448 2514 4678 3226 2778 3762 4670 3237 4879 4359 4827 3839 3906 3017 3008 3933 3466 4525 3336 4438 9 4753 2951 14 4838 2506 2512 2981 2733 3979 4178 4837 3377 4521 3696 3029 4492 3265 4956 4788 4328 2786 2997 3715 3695 4244 4485 4574 3010 4716 3498 3673 4501 3026 3050 4673 4244 2840 2821 4741 2723 2921 3029 4177 4493 3608 4785 3905 3303 4595 3492 2782 3073 4783 4845 3948 3185 2925 4325 3388 2931 4331 3450 3777 4776 2591 4885 3942 2873 3546 3720 2631 3479 3865 4761 3084 3636 4672 4989 4529 3683 2651 3627 3351 4761 4552 3670 3706 4352 3932 3902 2894 3123 2709 4899 3765 4901 2882 30 6 33 25 15 31 30 7 20 35 17 22 10 13 12 14 19 12 28 2 32 11 13 38 21 30 15 18 19 27 22 15 13 20 31 11 30 7 9 19 14 5 33 27 24 1 25 13 12 18 1 37 13 17 3 8 5 33 25 19 26 37 3 28 39 15 24 16 35 22 2 14 27 9 22 20 16 13 31 1 32 5 34 17 27 28 35 26 0 36 31 34 31 17 12 34 12 38 19 39 21 27 3 24 3 2 34 4 29 29 29 23 2 36 8 20 39 16 3 23 22 28 37 3 36 5 27 23 16 5 17 22 10 34 3 4 28 15 37 29 7 23 18 28 2 39 11 22 15 1 25 39 6 34 29 18 9 32 32 6 21 8 31 4 5 34 2 32 23 17 9 38 38 17 8 9 24 22 34 36 9 2 36 32 4 16 28 5 35 6 26 35 37 9 33 37 17 15 28 1 11 14 12 35 27 10 21 36 18 30 13 5 1
4535 4681 4082 3493 4191 3722 3091 4477 3855 4154 4304 4566 3322 3374 4436 3393 4818 3979 4980 3085 3971 4654 3029 4844 3726 4600 3961 4915 2571 2562 4740 4772 4912 4855 3562 4625 4692 4204 4794 3199 3120 2713 4356 3699 3910 4441 3393 4037 3817 4529 3313 3306 3734 4333 4683 2871 4775 4782 4777 4272 2837 3492 4480 3333 3932 4046 4994 4961 2632 2691 3558 4846 4336 4978 3200 3101 2521 2504 2567 3945 2789 3511 3632 3501 4498 2987 4357 4784 4118 4235 4172 4218 3406 4720 3666 3771 2867 4265 3892 3402 3208 4825 2591 4883 4780 3927 4857 3605 3116 3082 3424 3416 2590 4008 2792 4188 2762 3595 2690 3873 4123 4394 2980 3754 3296 4220 4586 3794 3001 4853 4249 3423 3923 3474 3835 3501 3236 3659 3529 3769 2817 2855 4730 3103 2532 2937 4811 2592 2935 3378 4657 4108 4600 4633 4098 4381 2733 3907 2843 4600 4493 2724 4305 2860 2620 4052 2709 2619 3503 4023 3142 4499 3137 2855 4840 3595 2932 3440 3386 3446 4067 3539 4849 3768 4831 4270 3625 2991 3600 3036 4886 4824 4241 4603 3184 4200 3478 2748 2895 3991 3471 3792 3566 3974 3708 3571 3590 4372 3996 3121 3064 3342 19 17 5 16 39 33 37 10 39 37 25 15 39 8 32 13 24 29 39 4 28 1 34 24 28 34 30 22 13 16 34 23 23 4 27 23 10 36 17 13 14 17 29 18 35 1 19 1 7 8 26 4 14 20 2 32 9 24 17 8 31 24 21 13 16 24 11 14 16 21 9 30 5 16 29 3 24 28 13 2 1 10 1 21 13 26 13 1 3 0 34 35 32 22 6 21 38 25 6 10 24 24 5 15 18 32 8 32 20 21 38 5 10 39 34 32 2 38 13 8 38 11 6 24 25 15 16 8 12 19 39 9 13 32 13 30 16 5 29 5 22 23 15 36 15 38 36 27 36 35 9 19 13 20 4 14 3 12 30 39 39 7 12 10 22 32 25 34 14 4 36 25 20 25 12 11 31 30 11 5 14 6 30 3 2 5 28 38 6 7 15 30 5 5 2 5 25 15 13 15 8 35 11 8 5 37 8 4 15 8 36 30 5
2731 3440 2986 4547 3210 2501 4640 2782 4483 4911 4980 3012 3340 3773 3123 3023 3624 3984 4144 4325 3917 4344 3502 3796 2860 4891 4450 4104 2974 3944 3199 3360 3448 3558 3415 3600 3236 4720 4064 2840 4703 4658 4140 3746 3305 3569 3090 4943 4779 4067 4257 3826 3102 3523 2880 4406 2504 4956 3656 3252 4521 4163 3006 3504 4626 2931 2691 4123 2699 3584 4922 3260 3935 3562 4360 3088 2589 4293 3177 4115 3524 4361 3320 2641 3798 3927 3893 4957 3616 4708 3884 3245 3994 3411 3098 3124 3174 4305 3917 3611 3992 4525 3879 4263 3679 3619 4190 3497 3832 4970 3965 4165 4695 4973 3593 3903 4327 3965 3717 2663 3543 3168 4968 2805 4516 2607 4145 4113 2997 3563 3154 3378 4462 4655 2571 3250 3271 2561 3854 3813 3812 4727 4961 2556 11 3561 3741 4150 3937 3290 2551 4192 4324 4526 4893 2909 4282 2842 4290 4752 2614 4225 2928 3194 2778 3168 4689 2922 2674 3552 4309 3802 3964 2598 4466 2781 4506 4257 2836 3777 2587 3692 3482 2574 4315 4608 2535 4123 2627 3961 4642 3534 4433 3903 3077 4018 4510 2559 3360 4765 3988 4951 4746 4196 3574 3073 2885 4473 4544 4856 4782 3605 16 10 16 29 35 17 8 26 38 23 3 26 28 9 39 3 9 36 27 38 14 2 31 6 14 3 15 25 10 20 35 26 4 21 28 30 12 19 14 4 38 9 25 32 6 15 27 9 10 2 2 23 26 8 36 26 34 19 6 16 14 7 20 6 1 8 18 39 32 39 13 12 35 27 23 21 34 33 7 13 24 30 5 10 9 18 24 5 4 13 0 12 8 10 5 18 37 34 32 7 11 28 5 22 13 39 24 24 17 30 18 14 24 36 7 10 29 12 21 8 32 14 13 33 29 22 37 33 24 20 38 39 29 37 4 5 9 37 13 12 21 28 25 26 19 15 33 4 36 24 9 1 14 16 3 26 28 15 19 3 9 6 21 20 33 23 8 38 38 34 2 21 2 12 39 7 37 1 3 16 35 19 12 8 35 23 29 17 13 28 34 17 16 5 21 8 6 8 20 14 34 31 33 23 15 17 8 33 37 5 37 28 5
4613 3431 4695 4299 4574 3025 2754 4126 4987 4880 4535 2557 3191 3565 4468 4170 3148 2645 4454 3759 4326 2511 3190 3710 4773 4992 3073 3743 4936 3568 3858 3026 4994 4726 3620 3006 2979 3891 3644 4873 4472 3884 4546 4472 4161 3817 4939 3913 3046 3028 2909 4443 3922 4357 4626 3437 3574 4151 4238 3107 3678 3841 2889 3948 3183 4384 2947 4949 3765 3925 3573 4962 4937 2956 3432 3816 3978 3809 4467 4857 2783 4378 3510 3080 2789 3088 2644 3838 4644 4085 4578 3007 3669 4915 4586 4680 4646 2838 4917 2628 4560 2695 4130 2776 3466 2834 4098 3045 4503 3252 4877 3975 2801 3462 4240 4671 3992 2560 3853 3491 2925 4693 3712 4322 2695 4259 4671 3767 4002 4300 4675 4244 3004 3370 3925 4155 4634 3988 3957 2507 4784 3288 4820 4935 3566 4081 3154 4979 3391 4946 3981 3452 3851 3513 4928 2561 2638 3377 4631 3877 4816 4568 3808 4843 4566 4049 3037 4899 3515 4692 3050 4405 4781 4745 4840 4426 3127 3188 4739 4223 3143 4683 4108 2999 4980 4013 3667 3853 3161 4899 4118 4769 2882 4072 3616 2778 3912 3171 3310 3301 4353 4682 4087 2965 2913 3628 3153 2917 4599 3887 2975 4463 17 22 10 24 7 38 34 4 30 7 35 17 22 11 38 38 21 22 19 3 19 2 29 3 28 24 13 22 26 31 36 13 35 36 37 12 32 36 14 18 22 9 9 17 23 13 33 15 28 25 34 19 7 4 18 13 22 14 12 26 22 37 12 38 37 8 24 27 8 25 3 9 24 35 23 8 12 11 6 23 4 24 30 10 13 21 29 14 5 24 14 0 13 9 28 19 26 1 11 36 8 31 18 4 20 18 35 37 25 11 16 29 8 20 16 12 12 22 24 24 15 8 23 21 30 23 20 5 37 22 19 18 18 15 39 4 13 38 3 15 11 28 33 9 22 38 36 30 12 5 23 5 25 35 3 22 34 18 26 12 28 23 10 21 16 26 33 39 9 32 33 3 16 1 37 36 19 18 25 25 1 37 2 35 31 38 23 1 26 29 8 21 30 2 15 17 33 10 13 14 37 8 29 10 30 31 28 28 6 4 15 36 35
3581 3162 3657 3277 4494 2951 2563 4009 4604 2931 4784 4695 4556 4855 3073 3624 2685 3884 3191 4577 4602 3873 4298 2556 4757 4080 4802 4585 3614 4908 4128 2868 4419 4204 4095 3175 3508 3511 3540 3160 3618 4087 4001 4287 4240 2526 3065 3893 4851 3118 3448 3840 2769 2580 4630 2628 4030 3904 3931 4831 3726 4473 4452 2551 4550 3659 3759 4159 4858 4815 4774 3050 3078 3091 2726 3746 3366 3166 2602 4890 4831 3371 4219 4416 2743 3847 4698 4672 2974 4065 3652 2854 4312 3358 4821 4952 4783 4068 4513 2651 3757 4734 2733 2508 4175 2836 2591 3835 4233 3310 4657 4740 2597 17 4104 3854 4709 3341 4515 4449 4556 2529 4284 4210 4826 3667 3410 3556 4865 3797 4842 3376 2606 4049 2806 3509 3897 2735 3913 3052 4161 4478 3220 4606 3719 4203 2573 3088 3565 4130 2936 3808 3655 3712 3212 2825 3636 4355 3423 3269 4645 4972 4353 4905 4793 2635 3077 4256 3633 4551 3180 3741 4745 2740 3443 4779 4163 3371 3105 4362 3256 4864 3939 3457 4378 4659 4473 2857 2762 4134 3707 3435 2743 3729 4464 2814 4174 2816 3626 4761 3237 4680 2692 2756 3202 4977 4109 4880 2880 2668 2595 3970 35 20 11 3 1 30 11 11 35 29 25 1 22 6 24 4 35 19 9 29 13 1 19 17 8 38 28 31 5 26 9 14 28 31 30 14 4 34 34 9 14 14 27 20 8 24 6 35 12 1 36 26 26 2 4 18 32 28 37 15 23 39 10 32 36 29 11 32 22 35 32 33 17 30 25 17 10 16 10 28 6 37 3 11 18 16 7 27 33 16 4 10 0 38 27 12 34 22 1 20 2 24 27 11 13 6 5 11 30 14 14 27 39 31 6 3 18 34 37 32 16 33 36 9 13 27 28 36 4 13 25 21 29 9 22 24 30 16 21 8 20 7 12 2 16 2 39 4 17 39 22 10 3 31 26 15 36 17 24 14 3 22 28 32 5 22 16 13 21 38 3 14 22 28 15 31 1 38 5 28 28 9 11 36 24 26 27 13 39 6 37 29 33 34 32 32 29 32 15 37 26 29 18 27 30 7 10 21 15 16 32 18 4
4307 4563 4278 3078 4937 4032 14 4748 2597 3199 3336 4833 2529 2520 3708 4228 3357 4757 4448 3367 4805 3794 2842 4958 4224 4531 3992 2863 2657 3550 4062 4025 3439 4827 2541 2856 4109 4493 4321 3426 3406 4867 3569 3027 4533 4189 3120 2506 2684 2911 3335 4781 2713 4865 3751 3833 2667 4603 4390 3810 2535 4117 3050 3565 3569 2742 4525 3941 3393 4522 3223 4100 2703 2760 3443 2748 3354 3934 3332 4338 3963 3144 4533 3403 2850 2696 4638 3813 2549 4177 4694 3734 2535 2599 4469 2911 3537 3546 4976 4204 2642 4134 4107 3156 4350 2661 3647 2970 2969 4877 4181 2896 4255 2759 3943 3060 3611 4717 4210 2961 3433 4393 4417 3251 4047 4810 4402 2587 3457 3914 4707 2545 4126 3260 4058 3266 3146 3331 3632 4526 4088 3157 4852 3684 4159 3691 4974 3333 3659 4558 4565 4158 3936 2653 3530 4569 4865 4465 2695 3601 3867 2877 3893 3521 3673 2718 3177 4278 3824 4774 3418 3806 3964 2790 3075 3915 2543 3483 3911 2925 4643 3539 4313 3693 2852 4970 2502 2874 4380 4192 3068 4350 3793 4234 4868 2872 4246 3301 4018 3587 4229 4364 2717 2746 4226 3885 4720 2765 2963 4665 2956 3127 23 9 32 4 26 8 16 12 2 5 15 19 26 4 22 23 21 36 3 2 26 12 11 22 38 36 6 32 18 28 30 9 31 5 15 16 19 39 1 13 1 34 8 20 16 30 1 20 16 29 13 28 14 1 35 19 5 39 19 25 37 8 28 36 13 37 2 36 23 22 10 32 26 35 29 12 33 30 18 39 38 4 17 20 14 1 12 13 4 28 28 31 26 0 2 27 3 10 9 26 19 24 23 35 3 28 12 22 21 25 39 31 1 27 7 21 4 35 12 36 13 31 24 26 33 29 28 24 27 2 29 14 26 32 25 2 8 26 16 30 21 3 18 22 11 9 9 12 29 23 11 36 23 9 6 26 13 27 8 3 18 28 26 10 31 33 1 39 1 35 38 19 9 35 19 34 35 9 31 25 22 19 24 22 20 19 39 8 12 18 16 21 28 11 2 12 12 27 25 1 33 32 18 21 27 33 13 27 2 39 28 25 10
3537 4835 4778 3142 2873 4359 4308 3608 3726 3875 4460 4983 3449 2780 4967 4379 3118 4657 3096 3991 3793 2922 3977 3133 4854 3592 2601 4671 4115 2651 2754 3560 4590 2666 2524 3505 4939 2567 3303 4282 4667 3899 3920 3191 3571 2583 2839 3174 3972 3195 4079 3363 4988 13 4557 3248 3339 3367 2961 4769 2829 4387 4955 4393 4943 4640 4641 2602 4437 4254 2523 4383 2571 4433 2940 4697 4333 3828 3942 2752 4680 4976 3329 3475 4264 2964 4673 3384 4495 3523 4859 4443 4033 3127 3030 4720 3943 3482 4454 2801 4426 4099 2884 2653 3605 3444 2867 4835 4735 3521 4239 4540 3698 2878 4879 4660 2984 4322 3841 3086 2999 4157 4694 3539 2844 3127 3219 5 4142 4900 3931 3046 3602 4791 4267 2825 3873 4723 3010 3548 2933 2505 4377 2706 4291 2676 2925 4278 2569 3269 4139 4969 3196 3019 3672 3593 4464 2641 3261 4884 4330 4487 3474 2662 2529 4614 4682 3404 4270 4730 3335 3256 2695 2754 4637 4996 2662 3358 4016 3094 3734 3121 4685 4525 3728 3988 3699 2973 2945 4778 3197 3751 4447 4060 3533 2674 4061 4607 2543 4105 4659 4405 2771 4072 3029 2738 2723 4395 2725 4767 3319 4975 26 23 8 27 35 1 31 33 22 25 16 36 26 16 25 10 25 9 13 12 37 4 24 22 26 14 32 29 5 15 33 8 32 2 11 4 27 9 38 5 10 24 4 32 22 32 2 31 30 5 29 37 27 22 16 23 16 6 36 1 17 5 5 30 8 15 8 22 31 14 18 18 2 9 24 5 36 4 13 38 4 36 11 16 15 16 6 2 1 34 21 12 29 7 0 37 28 23 8 9 28 16 27 23 1 19 29 29 37 36 22 39 15 37 21 7 3 23 26 13 36 28 8 16 33 29 22 24 39 12 7 30 24 16 25 32 34 16 22 36 26 21 25 25 20 18 3 5 36 13 31 2 18 39 22 6 5 13 30 5 38 12 8 5 7 2 3 32 27 26 35 14 5 29 33 5 17 35 10 7 11 35 15 38 30 31 21 14 16 15 16 18 36 30 19 29 22 10 9 33 21 15 8 13 4 12 23 36 37 3 4 15 27
3169 4454 3895 3828 4377 4305 4971 3479 4863 3612 4514 2680 3437 4483 3036 2591 3706 4991 3225 3598 4514 2595 3037 2670 4948 4083 4239 3804 3302 4386 3475 4739 3157 4355 4842 2930 3771 4958 4944 4961 3858 3716 3336 3550 4139 4462 2858 3999 4404 2956 3205 3429 4186 3597 4914 4098 3283 4925 4891 4538 3222 3443 2608 3177 2563 3897 4424 4388 4955 3300 4739 2871 3924 3663 2875 4104 3375 3655 2912 4891 4797 4990 4614 4115 3747 3617 3008 2866 3243 2731 4051 3772 3248 4020 4406 2969 2637 3939 2781 2731 3408 3965 3069 3481 2950 3650 3708 3474 4905 4345 4334 4052 2627 2658 3393 4582 2510 4953 3624 4129 4571 3337 3379 4348 3693 2876 3431 4624 4932 4726 3162 2721 3370 3735 3412 4766 4882 3399 3312 3248 3952 3986 3396 3599 2733 4578 3311 3180 3888 2807 3916 2633 4233 2935 2564 3573 2596 3151 2678 4573 2568 2750 4736 3468 4580 4420 3311 3181 2921 5 3232 2883 4838 4465 3157 3675 4719 3660 4580 3963 4232 2891 4151 3628 2904 3408 3977 3157 3316 2643 4489 4362 4781 2630 2894 3857 4321 2741 3471 3381 2511 2760 3891 2681 4264 3072 3951 3016 2720 4069 4870 4770 34 28 13 35 39 22 21 39 27 13 23 11 10 2 6 33 27 33 36 26 17 9 39 31 27 32 14 25 16 14 11 14 28 32 26 25 12 21 39 24 36 33 5 38 8 3 22 18 6 37 21 32 15 17 32 21 8 33 26 32 16 3 25 21 7 23 22 38 14 4 31 18 24 12 13 5 33 7 18 4 29 32 1 20 31 11 21 6 11 26 22 33 30 11 17 0 4 32 14 36 31 39 30 37 31 14 11 19 8 13 19 14 34 1 20 7 4 16 2 24 2 17 38 38 32 31 12 26 7 9 18 3 22 11 10 18 13 26 23 31 14 11 15 17 39 34 22 30 12 20 20 15 36 8 5 34 28 9 21 30 39 9 9 25 16 37 15 35 3 2 16 19 15 29 15 7 32 28 28 27 28 9 21 12 27 22 23 2 5 16 17 23 6 22 21 8 25 24 9 3 35 36 31 25 25 37 13 22 13 32 27 17 30
4406 3291 4286 4018 4905 4854 2684 4061 3381 4419 3155 3160 4527 3954 3642 14 4409 3583 4790 4574 4024 4701 3491 4468 3028 3152 4389 3916 3968 3785 2546 3763 4719 4864 4739 4780 2658 4088 3655 3771 3641 3694 2548 3966 3399 4757 4081 2913 3621 4446 2892 3929 3656 3979 3127 4264 4378 2812 2711 2736 3935 2932 3315 2915 4502 3513 4336 2693 2954 4449 4224 4705 2975 4930 3508 3258 3251 3613 3700 3838 2687 2757 3958 6 4348 2661 4069 3403 3466 4151 4037 4112 3980 3904 3135 3634 3713 4850 3333 3788 3376 3093 2607 3226 2567 4422 4078 2639 4169 4501 3462 4743 2825 2978 3768 4574 4202 4195 3114 4217 3544 3141 4895 2819 2860 3742 4951 3195 3987 4224 4031 4760 3855 3124 4735 4971 4306 2681 2610 4537 3459 3151 3267 4581 4099 3379 4860 3603 3644 4767 3617 4509 4410 4207 3641 3465 3985 4932 3973 4659 3874 4345 4077 2628 3952 4563 3010 4086 3781 2769 3952 4161 3024 4846 3807 2501 3297 3372 2886 2789 3304 3106 2638 2918 4708 3054 4643 4225 3288 2807 2791 3222 3019 4389 2580 4282 3423 4448 3693 4560 2815 3659 3512 4139 4940 3350 3709 3559 2710 2679 3819 2556 24 25 32 19 10 3 16 39 17 26 14 26 28 36 35 32 13 34 17 27 1 25 7 39 24 4 12 6 37 9 19 11 8 24 3 24 36 19 25 30 26 15 39 36 1 38 4 10 38 17 39 14 2 9 19 25 11 25 16 35 35 33 29 31 20 14 22 22 4 37 23 13 2 35 25 23 38 5 17 7 5 2 12 36 39 17 28 18 5 1 32 16 20 20 16 31 0 1 9 29 14 7 24 6 35 21 33 19 25 19 33 8 7 21 5 27 30 9 25 25 34 22 2 31 37 14 4 6 6 31 2 14 19 9 19 32 39 12 1 14 1 31 3 11 4 23 11 30 8 15 18 5 9 35 16 37 17 12 6 39 38 24 31 17 13 23 7 29 22 18 9 22 24 22 4 39 14 39 11 18 10 26 8 26 17 39 16 13 30 11 32 23 19 36 21 11 20 24 39 7 13 22 24 35 6 14 9 1 38 29 22 31 11
4779 4854 4209 4447 4684 3311 4851 4941 2512 3321 2746 3366 2574 4379 2707 3170 3271 3921 3351 3569 3873 2824 4300 4080 4082 4900 2823 3091 2707 2519 3497 3544 4937 4577 3575 2740 3478 3810 4239 4018 2633 4997 4905 4165 4443 2708 4584 2506 3958 3744 3856 3550 3025 3108 2598 4112 4830 4226 2886 4271 4150 4122 4881 4797 2988 4439 4055 2513 3619 4804 3607 4233 4751 4828 4317 4423 3629 3910 2734 3156 3160 3272 3314 4402 3705 4143 4735 3903 2766 3654 3882 3359 4617 4211 2851 3178 4774 2836 3734 4139 4824 3736 2740 4975 4438 2827 3332 4849 4647 4227 3237 3394 4705 3829 2559 4381 3085 4937 4704 4486 4765 4568 2595 4960 3371 4676 4556 4770 3965 3280 3103 4706 2779 3378 3606 3698 3773 3715 3954 2512 4119 4311 4348 3786 4545 3177 3775 2536 2587 17 4996 3576 4602 4970 2834 4821 3369 4322 4952 3041 3769 3435 4631 4198 4982 4690 3642 4908 3630 3092 4091 3482 2626 4280 2745 3335 3758 4931 2633 3482 3198 3519 2633 2578 3666 3918 4244 2979 3506 3265 4827 3780 2574 4445 2891 4165 4846 4157 2712 4787 2926 2707 2903 3241 4453 4825 3237 4369 4725 4266 3867 3917 31 38 24 8 8 13 37 20 32 8 8 9 32 25 31 19 28 2 35 16 24 39 31 7 24 1 33 35 27 3 12 35 15 1 18 29 14 34 8 22 9 22 39 10 2 36 28 24 14 28 24 11 14 14 21 31 39 22 29 38 32 14 24 11 14 9 17 1 19 14 34 14 9 6 5 35 25 22 35 27 14 3 17 33 20 18 19 39 27 10 6 9 18 26 22 38 20 0 20 39 32 4 27 9 16 1 36 38 10 23 25 12 22 12 28 26 9 25 12 38 10 5 30 26 6 8 7 13 17 9 22 23 32 29 37 28 3 38 21 30 16 10 35 22 26 24 20 14 9 1 22 38 34 4 32 5 33 24 21 8 39 30 23 34 37 21 5 37 35 7 18 16 38 26 16 24 38 11 29 34 11 26 2 25 9 6 34 37 36 13 20 31 21 17 15 6 2 28 4 3 39 6 17 18 32 2 12 27 20 20 22 19 1
3714 4148 2910 3440 4318 2840 4536 4437 3913 2817 3888 2766 4773 4578 4498 4452 4185 3670 4635 4644 3864 4753 3600 3795 4609 3473 3792 4597 3067 2805 4155 3848 4676 2903 4039 2512 2505 4898 3739 2900 2795 3503 2747 3104 3541 2692 3384 3520 3418 3460 4311 4545 3691 3231 4086 4353 3378 4080 4814 3990 4429 3462 3656 2532 4674 3351 3998 4727 3202 3530 4270 3906 4977 4796 3759 4028 3157 2822 4809 3055 3571 3167 3886 2682 4072 2535 3836 2725 3908 4057 4613 4589 4247 4757 2949 3434 4489 15 3073 4247 3112 4079 3675 4113 3221 3879 4977 3466 3681 4697 4219 3604 4963 4466 3938 4496 4464 3379 4525 4571 4075 4730 2948 4787 3336 4216 3421 3479 4368 3473 2653 4557 4949 2869 4363 4669 4164 3860 4293 3552 3434 3879 3751 4224 3080 4315 2624 4417 4963 2755 4800 3888 4308 2670 4575 4200 4790 3476 3894 4219 2523 2878 4663 3359 8 3063 4214 3708 3092 4395 3078 3592 2600 3347 4574 3192 4943 2931 4519 4597 4927 3795 4511 2744 4670 2686 4378 3580 3224 4248 3716 3620 3969 3460 3786 4794 4404 4304 4472 3091 4730 3514 4109 2925 3331 4952 2735 3918 2825 3984 4960 4063 11 1 1 37 23 24 3 18 16 32 34 20 29 39 4 22 28 28 36 12 29 18 34 11 20 22 20 38 38 24 9 3 24 17 33 11 8 25 31 37 15 2 21 26 36 13 17 8 7 19 32 11 10 33 6 39 38 4 37 13 36 4 19 23 39 17 22 14 18 2 38 25 38 35 9 27 17 14 25 17 5 32 32 11 30 2 17 33 32 34 29 12 14 38 25 18 13 17 0 39 27 13 29 25 7 13 21 13 8 10 34 22 23 20 28 7 21 39 25 19 4 7 32 7 6 14 6 23 14 17 17 34 32 18 20 33 32 24 16 13 1 24 28 5 25 29 18 15 8 34 23 37 26 28 4 5 13 8 27 38 2 7 3 21 1 8 18 33 12 35 39 33 11 22 30 7 18 38 21 38 29 18 4 24 33 5 2 6 27 37 23 34 28 1 6 34 29 31 39 30 12 22 28 37 3 5 37 4 22 37 14 19 27
4073 2964 4501 3624 4250 3997 3981 4843 2592 4684 3819 4354 2828 4098 3481 4611 2860 3799 3266 3211 4636 4469 3665 3198 3900 2972 3974 2902 4758 4044 2777 4439 4810 3017 3783 4230 3157 3975 4034 3119 4292 3140 4526 3595 4666 3738 3464 4179 3706 3753 3859 3395 3873 4241 3754 4241 3198 4286 3931 2687 2900 3410 3865 4209 3806 4036 3699 3197 3413 2719 4213 3606 4398 3010 4151 4073 3242 4664 2598 4875 6 3096 3216 4053 4521 3152 15 4148 2551 4776 2808 3446 2940 2880 4442 4790 3529 2999 3703 3663 2734 3800 3084 3426 4733 3619 4671 4820 4461 3309 4897 3931 2770 4213 3769 4741 4070 3420 3607 4198 4299 3481 3884 3312 4053 3811 4755 2559 3365 4130 4532 4885 4744 2646 3017 3553 3383 3595 4652 4026 2530 3326 4044 3559 4403 3891 4919 3958 3850 4289 2590 3226 4356 2936 4881 3176 4542 4899 4790 3293 2693 4516 3421 3795 3140 2901 3230 3075 4913 2631 4738 2527 3491 4319 3378 2726 4823 4617 3844 2527 3193 4430 4924 3083 3654 4858 2781 2812 2543 4172 2928 2756 4647 3693 3811 4081 3122 4662 3336 4564 3854 4874 4301 4849 3468 4071 2920 3072 3425 2928 3661 3097 15 5 21 24 27 32 1 13 12 22 18 18 21 31 38 13 16 15 11 13 9 10 16 12 33 29 5 24 18 12 18 18 36 21 20 3 28 24 2 14 27 14 5 14 33 13 29 32 1 2 2 21 31 6 16 2 20 31 20 20 13 20 17 23 3 17 8 21 20 38 19 31 29 34 35 8 9 26 38 26 4 6 23 39 22 19 20 17 27 15 24 19 2 7 28 35 5 39 7 0 16 11 33 30 29 39 15 21 17 23 5 17 35 16 28 28 19 33 2 11 3 9 17 34 23 10 9 22 4 10 13 24 16 27 28 36 30 10 20 27 34 37 30 5 22 37 6 26 30 1 13 1 12 11 28 6 20 36 22 7 10 23 9 8 27 10 11 36 36 17 39 22 24 36 22 14 16 14 31 21 10 16 19 37 35 6 12 15 22 21 23 20 24 29 36 1 36 32 4 5 32 10 21 38 33 3 23 17 29 25 30 19 30
4946 4589 4178 2754 3332 3320 3920 3851 3778 4653 3979 4307 4654 3703 2969 2974 3730 3059 4813 4967 3041 4671 4317 3535 2669 3816 3946 3815 4253 4368 3182 2666 4954 3436 3707 4599 4133 3067 3094 3103 4566 4389 3342 2981 4835 3467 3520 4119 4304 4555 4486 4243 2874 2625 3320 4062 3230 4761 4590 4395 3056 3691 4457 2995 2550 4227 2675 4483 2775 4239 2766 3480 3870 3083 4971 2539 4252 4963 4401 2959 4473 4374 3807 2907 3704 2612 4094 2587 4703 3996 4192 3071 2640 4126 3416 4985 4690 3285 4873 4960 3758 3521 4782 4514 3322 4248 2519 3145 3565 4951 4291 3179 3851 3136 3420 2737 4904 2975 4098 3711 3366 2806 2990 4031 4267 4120 3584 4824 3299 4829 2894 3186 4169 3519 3220 2890 2887 4879 3299 4038 3294 3175 4295 4163 4459 4100 3109 4949 4324 2706 4806 4574 4972 4297 2875 4611 4403 2586 3302 3820 4287 3306 3610 3099 2981 3198 3242 3203 4820 3717 2775 3566 4655 2898 4485 2795 4530 4819 4222 4745 3948 3894 2500 4713 3107 4639 4616 4984 3428 2961 4390 4261 4430 4574 4940 4158 2758 4875 2698 3237 3031 3866 3435 3824 2751 4701 2517 3031 3824 4862 2650 3301 20 10 38 16 3 26 32 22 10 34 25 30 27 5 8 36 17 11 34 9 21 9 10 16 36 14 31 15 30 24 9 15 7 3 31 9 11 36 9 12 15 10 6 14 30 8 34 16 20 21 17 8 14 29 32 36 1 24 16 20 11 23 2 15 28 4 33 29 10 1 2 4 30 16 22 21 39 9 19 31 12 9 33 28 21 22 16 36 32 5 23 15 35 20 31 39 24 36 36 25 0 1 38 14 22 5 37 37 2 19 14 15 7 39 26 10 24 2 18 4 5 23 5 17 35 28 21 30 18 22 33 31 8 2 37 35 26 18 11 17 11 36 10 9 33 15 24 15 35 12 1 22 11 28 16 11 28 35 9 7 14 18 36 12 3 35 18 24 5 9 30 17 34 39 5 32 6 3 20 29 10 15 11 14 31 24 19 37 39 24 4 16 26 12 16 28 10 27 8 10 24 1 3 11 37 24 32 37 29 35 9 24 23
3873 4540 3635 2518 3460 3097 4939 4802 3351 3138 2778 4791 2629 3066 4512 4870 4994 3307 4703 2942 4237 4462 3156 3797 3946 2749 4404 2531 4336 2804 2986 4281 3540 4536 4160 3416 2765 4162 4809 4500 2928 3180 3327 3235 3118 4351 4163 2647 2949 3552 3919 4897 4790 4455 3706 3490 4219 3468 3159 2958 3101 4955 4165 2981 2813 3269 4724 3394 4193 3863 4844 4121 2951 3601 3273 2915 2980 4324 4181 3179 4183 4349 3168 3742 3680 4984 4430 4658 2605 4756 3422 2873 4985 4587 3035 2724 3755 4772 2669 4457 4964 2851 4693 3451 3693 3024 4146 2815 4932 4181 3672 4662 3628 4526 2615 4327 4188 3478 2673 3975 3488 4377 4693 2792 3352 3551 3223 4457 2813 3006 4129 4725 4642 3184 3710 3291 2708 3647 3209 3398 3811 4314 4632 4381 2736 3615 2829 4614 3728 2728 4993 4701 2574 3052 2896 2568 4420 4784 3684 3042 3837 4693 4774 4745 3204 4110 4450 4477 4526 3713 4843 4594 3248 2572 2916 4840 4050 2996 2684 4917 4500 4442 4816 3791 3576 2831 3232 3635 4210 3585 3393 4598 3258 4359 4593 3724 2960 3901 2907 3671 4869 4320 4974 4694 2506 2772 4820 4175 3788 3500 2654 3066 16 31 11 30 19 39 14 19 32 32 8 8 37 27 7 29 17 32 32 10 30 36 17 24 7 11 10 37 2 10 34 27 32 28 7 10 2 3 11 16 14 32 34 3 14 28 35 15 10 22 19 29 37 36 27 30 22 35 11 2 1 1 1 14 8 31 14 18 22 19 21 2 5 38 17 27 29 26 3 33 7 19 3 13 36 27 6 29 28 3 11 26 20 10 33 31 21 24 32 36 36 0 9 35 38 35 17 9 39 32 33 1 31 35 3 15 39 39 10 10 23 14 23 24 20 29 29 2 38 35 24 32 20 19 34 38 6 7 9 4 31 32 23 9 12 36 15 19 31 11 32 14 16 24 23 1 1 35 14 26 33 31 16 29 39 20 7 34 4 18 21 21 27 12 26 37 1 28 13 39 21 20 31 25 10 27 3 7 16 28 14 12 19 24 35 9 5 22 16 8 16 33 33 14 7 5 30 34 17 28 24 30 33
4811 2852 4688 4985 4585 3258 3275 3342 4343 3837 2763 3955 3309 4277 4794 2895 4433 3467 3509 4411 2906 2743 3960 3716 3498 3908 2522 3714 3627 4301 4777 2986 2646 4428 2631 3815 4310 4891 2573 4812 2671 3174 3803 3741 3439 4012 4576 4617 4440 3828 4237 4259 4663 2714 3899 2749 4921 4457 4289 3321 2644 4354 4824 3608 4343 2876 4836 3597 2545 3863 2613 3546 3294 4490 4011 3352 3236 2531 3023 3035 3750 2621 4641 3596 2714 4340 2965 3471 3108 3880 4098 3048 4016 3713 4566 3666 3636 4994 2838 3576 3557 3369 4374 3007 4245 3125 3367 3083 2566 3784 4083 4050 3100 3822 3162 3844 4573 4052 4338 3716 2754 18 3619 2530 3795 4190 4216 4583 4081 2696 3966 3458 3932 2527 3411 4770 4042 3175 2786 3782 3866 4199 2653 3029 2785 2845 10 3987 3915 4813 3655 2655 4713 2508 3285 4413 4243 3272 3722 3916 3275 3583 3854 4276 2532 4773 3989 3864 3181 2916 4563 4384 4934 2857 3758 4306 4620 4019 3168 2957 3477 2663 2587 3455 4874 3755 3698 4770 4769 3393 3054 2613 3640 3297 4236 3248 4758 3535 4988 4733 4843 3899 2720 4923 4227 4377 3380 3631 3383 4470 4802 2603 13 39 8 19 21 29 23 32 2 21 31 18 22 6 20 10 3 17 22 5 10 3 3 19 27 36 36 28 1 4 38 11 12 4 7 31 11 24 11 9 21 15 16 4 9 21 23 27 15 31 5 20 8 2 2 20 7 6 25 36 22 5 27 8 1 34 9 23 23 8 15 9 32 13 26 29 18 26 32 24 31 25 14 14 30 25 35 1 14 31 38 18 13 13 34 33 1 31 14 33 36 26 0 26 6 24 26 5 36 28 38 3 18 8 6 14 16 28 9 30 11 9 30 39 8 9 3 36 28 6 1 26 5 26 27 18 8 5 6 29 29 23 37 25 3 33 4 15 37 33 35 26 5 2 16 28 28 30 39 28 33 24 19 28 16 23 17 9 16 8 27 12 24 12 4 8 36 37 7 33 27 10 20 35 28 6 31 19 39 24 20 38 26 32 6 39 11 9 4 11 29 11 5 39 26 14 16 4 24 14 24 26 13
4204 3599 4420 2779 3159 2859 4538 2950 3868 4627 4826 2712 2980 2911 4865 4653 4657 2919 3852 2769 4055 2847 3242 2949 4668 4974 4827 2981 2982 2965 4917 3749 3867 4411 4097 4510 3901 3421 3741 17 2604 3785 2673 4150 2932 4024 4413 3859 2837 3296 4040 3862 4986 3697 4022 2824 3174 2636 2994 2716 4414 3136 3955 3672 2864 4781 4880 4564 2690 4632 4187 3991 3325 3516 3562 3136 3358 4682 2978 3754 3631 3012 4744 3129 3176 3106 4091 4703 3772 4037 4746 3656 4541 2527 2902 4826 3311 3994 2848 2670 2952 4859 4604 4242 3730 3652 4061 3739 2602 3150 4257 2663 4492 3792 4580 4778 2967 4178 3457 4476 4367 3862 4006 2655 2500 4833 3259 3253 4943 4813 4685 3046 3054 2964 2759 2781 4332 2766 4798 3713 4895 3929 4437 2623 4370 4755 3628 4253 4019 3328 4049 4764 3546 2643 3452 2868 2676 4605 4939 3768 3290 4330 4779 2820 3348 3465 4745 2734 4638 2772 2685 4277 2665 4191 3109 2730 4021 4857 3205 4095 4876 3806 3905 3272 4318 3513 4933 4434 4932 3030 4739 3472 4069 3508 4151 4791 4854 2543 4744 4636 3921 3940 4748 4847 3087 3355 3751 4144 4881 3236 2588 2592 23 30 26 23 5 23 26 8 23 5 2 16 33 33 11 16 2 26 33 15 3 20 27 23 2 26 37 21 9 9 38 3 17 29 39 8 28 26 5 18 9 4 33 3 3 23 37 14 32 19 21 11 14 17 5 9 32 37 37 13 10 19 3 21 4 26 29 24 8 27 7 4 16 38 9 27 30 2 18 7 38 23 8 11 39 11 8 17 12 26 27 30 4 7 10 18 27 21 25 6 30 4 22 0 20 37 22 39 8 28 6 6 34 17 21 24 13 15 18 33 14 32 19 28 34 15 20 24 7 12 25 4 27 31 9 28 36 31 15 18 38 2 15 18 20 29 38 3 31 29 22 18 24 31 27 18 17 5 8 27 16 11 3 23 1 29 10 20 5 23 1 12 28 34 29 5 39 6 15 6 15 23 36 31 6 38 21 5 6 4 6 11 20 31 6 33 21 2 25 27 26 9 6 36 14 25 31 19 10 6 8 32 3
3550 4233 3672 4994 4592 3951 3187 3813 2659 3819 2849 3255 4729 4642 2579 3175 3987 4967 3295 3641 4727 2791 3253 4118 4914 3490 4358 2999 3423 3035 3357 3106 2587 2978 3456 4671 3739 4683 3727 2871 2650 4213 4730 2851 3110 4985 2760 2850 3601 3026 2637 3111 4726 2567 2573 4557 3014 3430 4859 4684 2872 3004 4428 3467 4136 4553 3008 4771 3228 3423 3170 4535 3557 3887 3821 3608 2518 2536 2664 3499 4373 3466 4108 4217 4843 4850 4484 4685 4273 4212 3770 4483 4751 4871 4970 3088 3986 4569 3384 4633 3402 4901 2917 2916 4197 2655 3216 3210 2584 3857 2594 4858 3648 3612 4343 3489 3756 2861 4597 4177 4041 2938 4202 4613 4356 3475 3099 3942 4201 3292 3189 3751 4300 3182 4994 4710 2692 4375 4280 3609 2821 2807 3827 4324 4091 2757 4251 2756 2751 3629 4213 3481 4510 4283 3430 2926 2563 3621 4740 3528 3602 4438 3869 4465 2566 3592 4161 4277 3954 3885 2920 2525 3316 4954 4685 4983 4226 4688 3682 2807 4664 3249 3607 4365 4495 2817 3713 4172 4407 3391 4677 4758 3324 3888 2603 3469 2813 2775 2808 4910 3066 4324 3570 3325 2821 3995 2835 3300 4331 4382 3336 3994 38 18 14 11 34 4 9 34 6 23 33 24 5 9 37 2 20 11 22 22 39 18 20 32 21 1 6 17 31 35 14 6 2 19 27 27 9 14 32 19 11 28 15 39 37 2 10 13 33 39 17 18 12 36 12 29 15 33 6 30 26 22 37 16 32 18 6 32 20 38 2 2 14 36 12 4 16 2 23 2 22 14 16 30 25 7 37 22 30 16 12 3 29 20 25 28 31 13 10 37 36 24 15 28 0 38 9 37 11 12 15 31 34 14 20 32 5 19 12 27 12 19 15 21 7 8 36 28 39 4 21 37 33 7 14 19 22 19 17 10 36 34 16 28 1 18 11 9 12 1 11 36 38 21 12 23 16 12 3 25 20 11 11 18 15 39 23 38 17 36 29 24 5 28 24 28 25 32 17 12 12 20 36 25 26 23 21 35 12 12 24 11 30 30 27 14 12 14 12 21 2 5 19 11 6 20 15 17 25 22 34 24 9
4487 3103 4342 4554 3175 4473 3547 4082 3876 3741 4784 3348 4660 4276 2578 3634 3523 4509 3789 4815 2755 4453 2974 2766 3894 2920 3961 4708 4661 4332 4178 4382 2712 4928 4190 4843 3577 2814 4215 2721 3494 3405 4394 3286 2802 3774 3941 3331 3592 4402 4061 3615 2941 5 2842 4765 3094 4871 4716 3330 4106 4569 3812 4636 2769 2896 3171 4950 4237 2502 3415 2559 4252 3431 3978 3925 4524 4363 2755 4391 4780 3001 3197 4426 2556 3446 3880 2828 4393 2507 3268 3754 3610 4519 4823 4093 3387 4546 4798 3990 3884 3600 4703 3412 3748 4304 4375 4221 3507 3308 3706 4219 4216 4408 4635 3894 2825 4207 3560 3891 4441 2991 4611 4439 2639 4797 3070 4027 4566 3478 4240 3867 4360 4169 4882 4050 2543 3301 4589 3833 3527 3879 3590 2759 4890 3759 3623 3308 3661 4409 3947 4088 3732 4103 4941 3637 3903 4847 2797 2642 4019 2903 3880 4986 4285 3591 3706 2937 3780 4239 3994 3701 3747 3759 3527 2847 3240 3236 3207 3186 3172 3717 2923 3516 3103 3902 4313 2521 3898 4185 4075 2789 2975 4827 3379 4739 4107 2569 3721 4933 4292 4244 4294 2920 3059 3415 11 3589 3897 4999 4153 3495 28 36 14 28 31 31 7 19 13 22 34 19 20 39 35 3 20 12 26 25 14 16 35 26 33 24 33 8 20 1 33 1 1 6 8 9 26 20 39 6 28 12 17 37 26 20 23 5 13 6 3 16 9 31 33 38 20 34 11 26 20 7 27 37 23 23 13 7 36 28 1 34 5 34 21 33 7 24 4 39 7 22 39 2 34 33 29 38 24 29 7 31 27 15 31 6 26 11 23 36 1 2 29 12 14 0 27 29 11 39 35 23 36 25 12 15 23 3 22 15 26 15 1 8 31 22 10 15 13 32 31 19 1 3 6 36 18 25 11 1 28 4 39 2 17 27 20 26 25 13 24 21 26 25 22 6 15 19 20 21 5 23 30 26 4 37 14 31 18 29 13 12 18 37 25 29 26 6 8 33 11 32 26 27 30 17 33 39 23 35 29 37 24 33 27 1 1 32 14 7 12 5 20 22 29 2 21 12 17 35 32 32 29
3953 4014 3982 4544 3770 4117 4264 4523 3768 4196 2557 4690 4472 3831 4705 4429 4453 3911 3838 3810 2769 3694 2887 4199 4062 2856 3687 4181 4548 2956 4019 3440 3801 3514 2638 3592 3803 3128 4397 3838 3754 2755 3529 4429 4356 2951 4450 2614 3819 4631 2507 3604 2931 2747 3736 4743 3155 4399 3133 3841 4448 4908 3639 2817 4150 3778 3991 4282 3008 3450 3780 4470 3233 3601 3090 3967 4261 4152 3519 3513 3200 4478 3048 3323 3277 2951 3043 4670 3539 3224 3821 4542 3580 4447 3145 4937 3957 4672 4386 3729 3204 3113 4750 2810 4956 3201 4179 4077 4176 4442 2773 3339 2657 3787 4921 2890 3712 2971 3390 4333 4855 4050 4705 2724 3228 3852 3162 3835 3428 3023 2803 3522 2984 18 2691 4143 4231 2834 3365 3837 4528 3881 2991 3900 3809 3011 3938 3890 2911 4818 3327 4562 4352 2740 3261 3575 2776 3785 2602 4868 4707 2893 4349 4485 4754 3722 3210 3329 4249 3521 4560 2857 4248 4187 3244 4079 3905 4028 2724 4433 4514 2959 3614 3564 3364 3214 4211 2796 3559 3004 2540 4543 3589 4349 3617 2850 3739 3297 4199 3708 3656 4604 2898 3263 3983 4600 3651 3547 3933 2914 4445 2951 18 34 24 21 9 9 12 19 10 14 38 27 26 25 3 28 26 2 8 11 37 1 16 1 11 30 38 10 39 18 17 25 18 23 27 18 33 9 37 33 11 24 12 22 19 2 35 24 36 34 25 10 4 27 7 32 7 34 25 2 17 31 3 27 30 15 2 15 23 3 19 33 29 32 33 6 23 26 32 23 8 17 37 15 32 32 38 3 14 21 24 36 2 22 31 3 12 5 33 36 19 31 30 31 17 2 0 34 18 8 30 32 27 14 3 36 2 11 23 18 37 23 20 35 38 30 19 25 32 6 23 35 26 14 16 9 4 23 3 10 25 34 28 39 15 28 36 1 19 34 5 8 5 33 39 31 38 16 20 11 21 6 4 15 4 2 38 26 36 11 19 15 26 29 28 7 20 29 3 4 26 19 1 9 17 33 2 17 16 31 33 4 10 32 10 29 20 10 30 23 23 20 8 7 20 36 29 34 1 32 39 21 35
4263 4018 3882 4116 3622 2778 2875 4915 4484 4238 2892 3315 4446 4295 3574 3742 2934 4108 3031 4239 3732 3044 3842 3338 4529 4068 3534 2540 3965 4633 4967 2581 2651 3616 3551 4120 4003 4627 2516 4679 2509 2653 3696 2618 2518 4826 4247 3608 4573 4113 2797 4941 3110 3928 3302 3835 4990 3313 3269 4564 3727 4357 4056 2794 2891 2568 4583 2530 3538 2598 2763 2931 2569 4496 3840 3164 3284 2961 4885 3965 3805 2633 4321 4423 4447 4293 2506 4138 3187 3100 2844 3631 4625 4844 3943 2562 4266 3642 2729 3215 3317 2568 4410 3508 4004 4030 4070 3049 4693 3704 3249 4482 4657 4264 2948 3143 4431 4381 3188 4297 4118 3575 4014 3875 3696 4306 3688 4909 3263 3827 2859 2875 2862 3834 3902 2523 3450 3265 3015 4608 2864 4382 3403 4914 4457 3354 2789 4325 2525 2872 3665 3977 4586 4519 3593 2872 4480 3668 3602 3153 3166 2974 3046 3983 4859 2886 3384 2506 4708 3991 4657 3806 3965 4439 3559 4534 3404 4837 4789 3761 4130 4709 3561 4760 4576 4723 3723 2878 3941 3646 3942 3982 4695 3056 4334 3159 3164 4558 2616 3590 4112 3435 3254 3034 2940 4815 3116 2628 4785 3072 3200 3400 34 28 18 33 27 33 5 2 13 21 6 31 13 7 33 34 1 31 39 38 17 7 39 24 24 5 25 37 14 9 4 22 31 13 16 30 28 27 25 23 29 9 12 38 25 21 36 2 25 5 26 20 3 35 8 28 29 26 21 19 25 23 6 13 18 36 33 3 18 4 20 34 9 20 14 2 8 13 22 20 16 22 25 24 29 20 27 38 7 23 12 19 27 33 3 37 11 26 38 19 36 8 25 30 22 19 39 0 14 18 19 3 10 20 37 9 7 23 18 31 3 31 31 24 24 36 14 10 20 20 14 38 28 2 1 7 35 8 25 20 25 15 32 24 28 2 22 8 12 23 34 8 15 14 21 14 26 30 5 22 37 29 15 32 25 21 17 34 36 21 26 20 20 16 3 16 38 24 21 30 10 19 2 33 37 30 16 31 23 31 3 17 10 32 21 33 15 22 39 1 1 31 6 34 17 21 21 23 31 10 1 21 30
2830 4718 4513 4352 2675 2927 4676 2972 2605 3305 4400 3012 3714 2874 4279 4323 3753 3996 3996 2931 4446 3896 4947 4503 2742 3888 4840 3122 4024 3127 4687 4709 3973 3425 2682 3234 4886 2583 3689 4184 4349 2870 3701 4290 4422 3700 4243 3566 4363 3938 4458 3523 4625 4238 3672 2854 4497 4985 2524 4317 4312 4557 4799 4160 4001 2829 3290 4643 2882 3561 4412 3190 2629 2657 2634 3096 4026 4232 4580 3180 2547 3484 3113 3510 4694 2979 4878 2698 3978 3394 3611 4842 4045 2918 4326 3043 3428 4646 4870 3402 2971 4920 3380 4228 4710 3032 2582 3692 3127 4254 4035 3476 3233 4369 4008 4607 4203 4316 3643 2621 3184 4255 2553 4542 3059 4262 3806 4481 4821 4172 3295 3666 2586 4944 3144 3079 2627 4716 3644 3308 3054 3507 4060 3045 2630 3928 3793 3312 4615 4406 4797 2874 3815 3074 2701 4299 4764 2553 3473 4833 3715 3608 4358 2809 4151 2733 4954 2976 4485 2721 4568 4187 4515 4977 4042 4244 3021 4745 4735 3077 2823 3429 3497 4249 3419 3487 2644 4946 3195 3897 4748 3650 3277 2980 4110 4379 3770 2735 2649 2728 3944 4897 3732 4138 2962 3912 2879 3745 4903 4631 4966 3014 20 28 20 19 9 26 31 37 25 33 8 22 22 13 29 12 25 3 11 23 27 22 31 37 39 12 22 20 36 21 7 12 11 9 30 2 2 30 4 8 38 9 4 11 23 4 7 32 34 14 29 16 7 11 23 19 16 8 32 2 35 5 4 1 7 25 9 30 19 38 28 34 34 16 2 3 27 21 7 32 17 30 13 33 35 22 3 4 15 22 11 7 31 36 27 6 19 31 22 30 24 13 9 10 18 34 4 35 0 29 26 10 24 3 25 24 39 3 37 15 19 27 7 28 31 2 3 37 7 19 13 31 21 35 35 24 34 12 32 21 30 4 39 7 24 38 16 28 35 20 35 39 6 16 29 35 2 7 33 36 2 36 16 10 29 32 21 39 29 10 26 19 6 7 13 22 31 9 34 35 28 31 34 17 25 29 29 27 35 4 1 2 20 24 35 32 18 5 14 36 9 8 28 4 32 38 34 15 39 21 26 15 12
4186 4736 4789 4409 2695 2656 3936 4930 4288 4568 4373 3798 4582 3893 4574 4376 3015 4258 3795 3511 2640 4787 3697 4241 2721 4411 4200 4459 3781 4393 2582 4313 4793 4675 4319 2874 4835 3379 4815 2886 4615 4997 4948 2779 4011 3228 14 3893 4524 3724 4676 4336 4662 3037 3345 4434 3493 3826 3685 2745 3824 4074 4298 4344 3879 3630 4727 2654 2994 4074 2629 2730 3662 2959 2824 3621 4538 3827 4508 3951 4793 4379 3667 4047 4135 4130 3539 3341 4819 4231 3595 3896 4180 3984 3630 4935 3915 2992 3440 4083 2608 2617 2987 4349 4786 2697 2653 2590 4688 3140 3887 4331 4944 4605 2870 4273 4111 2903 4368 2628 4868 3330 4591 4342 3661 2742 3056 2989 4586 4397 3334 3814 3564 4346 4739 4854 2834 4681 4257 4238 4949 3582 4996 3527 3095 4753 4300 3968 2913 3003 4993 3359 4089 2712 4287 4922 2999 3033 3941 4067 2739 2799 3068 3420 4580 2825 4827 3401 3981 2685 2616 4055 4596 3426 3200 3846 3107 3574 4317 3075 3677 2861 2644 2955 3901 4355 4937 4000 4586 4164 4242 3725 4423 4312 3344 4051 2940 3941 4858 2897 2675 2759 4481 3998 3458 4423 2999 3237 3487 3377 4792 3826 29 26 26 38 30 8 13 11 13 26 39 24 18 9 13 25 33 26 9 5 13 5 23 5 12 31 3 14 14 36 33 2 36 16 9 27 31 13 22 28 29 36 34 24 12 26 20 27 31 4 11 20 31 11 21 36 6 32 32 4 10 17 9 18 14 20 17 20 26 6 29 10 9 3 10 26 27 25 38 32 11 21 38 1 24 21 24 21 21 11 19 27 18 37 31 18 13 25 8 35 18 20 29 33 4 28 18 36 37 0 34 2 26 24 8 20 23 19 17 19 15 18 14 38 13 33 17 25 35 36 32 36 16 9 7 16 9 19 31 11 28 25 30 26 6 34 35 22 34 14 2 39 5 36 32 27 26 30 11 4 21 4 11 9 4 2 11 14 39 22 27 7 36 33 15 30 17 36 14 16 39 12 15 12 1 2 5 5 23 26 11 8 32 33 31 3 39 36 38 15 20 28 38 19 26 33 8 22 28 35 4 3 16
2567 3077 3463 2693 3485 3470 4553 4739 2669 2571 4886 2645 4277 4976 2739 3993 4445 4245 3583 2515 4843 2816 2511 3497 4720 2602 4207 3011 4848 2945 4871 2658 3843 3975 4632 4137 3250 3670 3050 3160 4079 4904 2580 3889 3161 3566 4223 3109 4429 4416 2586 4661 4575 3599 3500 4327 2638 2668 2592 3942 2767 2983 2922 3118 3783 3894 4465 3507 2726 3604 2744 4509 3298 4414 4997 3848 3193 2739 3609 4922 3672 2861 2927 4715 4945 3101 3950 2744 2778 3925 3262 3721 2645 3402 4317 3513 4548 2870 4825 4825 2818 2636 3904 2954 2925 3202 4075 2668 2587 4313 2529 3321 3701 2862 4965 4365 4052 3022 4845 2801 3463 2943 2794 4779 4214 4380 4858 4226 4686 3299 3636 3113 3922 3143 3592 3174 3828 3777 4436 3174 3715 3636 2647 4193 3935 2705 4697 3242 3240 4997 4626 3260 4438 3226 4588 3814 4666 2514 4797 3314 4006 3032 3963 3910 4829 3996 3086 4284 3906 2869 3344 4804 2518 3190 4035 3951 2979 4955 3093 4933 4485 3901 3965 4266 3482 4811 3312 4635 2640 4810 3149 4318 4722 2794 3849 2702 2897 3313 3877 3054 4353 3914 3698 3237 3173 4248 3133 4300 3639 3315 3624 4299 37 6 5 19 38 6 36 20 25 8 8 13 18 24 32 4 8 31 34 15 35 11 24 4 37 31 7 7 33 3 6 9 4 8 31 20 1 15 17 13 39 10 28 23 9 34 38 22 6 26 35 5 24 8 38 8 27 9 15 18 23 19 31 3 12 17 20 15 28 38 35 18 19 28 8 13 21 32 30 17 6 36 35 27 12 15 37 21 12 37 21 27 4 12 1 18 37 33 8 22 38 18 2 18 8 20 14 5 32 9 0 8 27 4 7 22 18 39 17 26 22 28 32 6 28 31 22 18 34 31 18 4 18 13 27 32 7 1 2 11 4 2 10 38 20 26 29 39 38 36 16 2 20 25 7 19 13 30 1 33 22 16 14 4 9 23 37 17 21 24 28 38 23 3 22 34 11 10 39 21 25 29 20 13 8 12 34 17 7 36 34 24 27 20 17 19 18 7 23 15 22 15 32 4 12 28 32 25 4 13 1 12 34
3428 4117 4619 3984 4982 3895 4482 3193 3914 2505 4082 2887 4202 3169 4964 4899 4699 2970 3995 2921 2938 2725 3057 4654 4329 4823 4459 4286 3701 4566 2634 4346 3121 2981 3807 4729 4397 3676 3445 2740 4231 4103 3516 3970 4860 3696 4507 2500 2858 3721 3920 3504 3616 3210 6 4047 3195 4286 4297 3438 3146 4198 4091 3931 4142 3256 4254 4712 4373 4280 2657 4805 2702 3625 3032 3245 3660 2718 3075 4817 4186 2854 3158 4320 4461 3726 4363 2628 4340 4051 4468 3800 4449 4923 3334 4419 4429 4131 3136 3415 2789 4393 3210 2605 3112 3220 2671 2851 4298 4895 2844 2568 4180 3508 4372 4012 3304 4364 3912 4563 4700 3039 4582 3864 4290 4089 4694 4506 3170 3263 2845 3075 2607 2754 3535 3272 3682 4752 3864 2776 4895 4678 4841 2635 2864 4369 19 4940 4548 4936 4627 4206 2733 2547 4949 2508 4325 3512 3363 3207 2691 3261 3359 3234 4840 2778 2845 4101 4918 4781 3224 2617 3986 2918 3628 2828 3531 4058 4932 4291 4543 3895 4833 3281 2732 4299 4202 2652 3075 3153 4418 2848 4453 4003 2741 4551 3473 2833 2908 3217 2520 3619 3089 4984 4778 3519 2662 3898 3094 3575 3376 4371 11 34 26 1 34 25 1 14 28 9 23 17 18 32 15 33 2 35 10 19 28 17 37 33 22 17 20 19 6 31 7 34 31 17 20 28 34 5 16 13 2 29 17 9 21 14 21 39 39 3 26 20 5 10 28 12 33 27 31 32 23 7 16 39 1 7 22 1 35 32 2 26 27 11 29 34 37 23 12 26 3 13 7 14 22 15 9 2 20 10 12 5 21 37 38 10 35 24 7 37 15 27 24 18 29 33 9 37 39 31 24 0 38 4 37 1 18 10 36 3 23 29 23 4 21 25 34 3 19 15 6 15 19 35 4 7 27 4 1 29 1 8 36 10 5 19 1 34 32 12 38 21 33 31 8 34 16 18 3 12 36 18 25 19 20 30 28 6 11 28 15 2 3 29 36 3 18 21 29 13 18 30 2 16 5 10 5 20 11 3 21 37 13 31 10 18 6 33 27 29 13 19 16 3 6 30 20 9 8 1 15 27 31
2524 2927 2960 4697 2676 2842 4286 4944 3153 3526 4460 3978 4546 4258 2870 4478 4546 4211 3275 4693 2687 4491 4502 3951 3034 4251 4711 3285 4826 4848 3129 3601 2792 2980 3890 2794 3850 3754 3328 2551 2714 4411 3802 4312 4899 3343 2596 3546 3779 3969 4602 4653 4700 4643 3881 2583 4993 3096 3782 4346 2839 2525 4818 2569 2581 3791 3836 4628 3385 4546 3257 3627 4861 4661 3298 2624 3819 2900 4954 2827 2567 3467 3445 3537 3276 4115 4663 4689 3790 2727 3206 4945 3040 4530 3333 4164 3379 2876 4705 3676 4408 4826 4690 3066 2541 3080 3381 4481 4903 2596 2720 3846 2881 3853 3090 2541 4280 4744 4522 3285 3103 4715 3310 3565 2933 4327 2861 4566 3320 4649 2638 4285 3451 4139 4645 2657 3160 4298 3694 3765 4162 2717 4036 4106 4398 3883 2985 4615 4796 3150 4436 3031 4388 3049 3852 3818 4111 4093 3882 2751 3821 3220 4965 3443 4244 3031 3904 4467 4082 2964 3661 4713 4788 3120 4513 3982 2804 3185 4190 4266 4537 3733 2815 4221 3955 4097 4747 3891 3361 3799 4663 2887 2692 4051 3670 4100 2700 3590 4621 2704 4309 3181 4992 3634 4321 3068 3931 4564 4208 4961 2528 3114 32 38 28 8 24 7 31 23 25 1 4 18 3 7 28 32 4 35 39 5 9 15 33 10 30 39 26 2 21 31 12 3 9 22 18 4 5 20 10 7 29 5 20 37 7 34 32 13 13 28 26 13 21 10 22 17 5 35 6 16 1 39 6 35 18 28 31 23 1 10 15 9 35 38 31 24 38 12 3 29 1 35 12 6 15 9 20 7 39 20 35 29 8 10 29 2 38 25 6 17 33 17 11 9 26 5 35 1 12 8 14 2 0 21 24 31 11 39 28 12 27 39 18 22 31 14 15 7 6 13 20 34 28 3 12 34 29 32 13 23 28 26 16 7 20 25 26 4 30 7 19 5 32 34 16 33 13 26 39 22 26 14 6 8 30 6 19 18 24 35 16 11 30 13 4 3 13 3 36 39 27 27 27 28 29 17 2 23 36 37 34 38 38 2 33 31 28 22 31 19 27 30 9 10 36 23 29 33 35 15 36 23 20
2661 3011 4086 4140 4909 3288 4806 4720 4491 4373 4158 2896 3686 2875 4949 3911 3649 4757 4560 3427 3140 12 3146 3443 4706 2582 2968 4419 3354 4275 3021 3069 4438 3496 4842 3343 2693 3006 4335 4360 3204 4289 3347 4627 2858 2998 3918 3240 3438 3876 2898 3749 3389 3140 4844 4187 4261 4259 2966 2879 3481 2634 3080 4069 2760 4851 2900 3767 2606 3739 3546 2751 4158 4694 2867 3934 4704 2707 3642 4104 3265 3527 3264 2940 3844 2516 2910 4568 2716 3192 4573 3801 2553 3736 2939 2564 3211 4333 3158 3679 4279 4568 2732 3274 4741 2904 4248 4885 3932 4268 3014 3907 2966 3320 2983 4670 2713 3362 3283 3635 4076 4647 4560 4308 3702 4154 4082 3593 4967 3349 3679 2825 4254 3016 4547 4366 3420 3271 4832 4842 3666 2782 3669 4582 3433 4259 3121 2581 4787 4026 3541 4166 4889 2598 3798 3986 3125 4219 3219 3154 2884 4599 2635 3921 4054 3010 4688 3094 2899 3004 4303 2675 4735 3494 2990 3223 3690 3598 4952 3898 3094 3946 4171 3469 4106 2661 2678 4670 4856 3410 3807 4459 2606 4563 2957 4867 2579 4642 4542 4937 4471 4197 7 4698 4229 4514 4376 4104 3797 4179 3898 2630 27 15 15 31 35 15 12 2 10 11 15 20 29 21 36 31 29 16 15 34 23 25 24 35 12 32 5 19 30 20 17 10 33 3 22 31 17 5 13 38 32 5 11 37 28 37 34 8 13 32 26 34 24 14 28 17 38 14 16 22 29 24 26 10 10 25 5 9 22 32 14 35 27 1 24 32 36 30 28 18 34 30 19 36 3 33 14 17 25 35 25 34 13 8 20 8 4 8 13 20 37 10 19 36 32 13 4 19 39 14 38 34 34 0 13 11 6 10 7 4 39 4 25 30 5 10 35 32 32 1 15 8 1 1 2 11 30 8 11 8 39 14 11 4 30 25 34 23 21 19 32 11 37 18 24 15 23 16 25 33 11 35 5 13 23 3 6 35 6 34 3 5 27 13 4 25 30 24 33 26 35 23 2 35 37 31 4 15 31 11 23 9 10 9 33 14 38 19 15 21 22 26 33 14 20 21 17 2 2 32 8 18 39
3002 2575 4402 3025 3209 2713 3516 3991 2839 3416 4696 4401 3034 3801 4669 4542 4684 3266 3823 3910 3950 4012 3753 4630 2982 3304 4901 3319 2769 3853 4795 3222 3082 3033 4841 3397 2745 3848 4975 2650 4717 4905 3703 3607 4506 3100 3926 4230 4615 2829 4243 3082 4680 4634 4411 3624 3329 3249 3870 2939 3917 2965 4430 3588 4069 3025 4589 3511 2851 3184 3932 3500 2719 3771 3998 3086 3479 4114 2795 3708 3623 2654 4173 4986 2501 3965 2738 4907 4872 4002 2626 2673 3484 4879 3440 4075 4228 4203 3768 4796 4192 2703 3594 4649 4091 2980 3954 2852 3293 3683 2576 3675 4354 2951 3455 4735 3455 4217 3478 4450 2506 2750 4878 4849 4197 2837 4467 3702 2988 3324 3477 2753 3348 3625 4263 4337 4299 4010 3220 3809 4611 3319 3025 3528 3863 4967 4480 3567 4184 2907 3209 4581 2643 3171 3125 4366 3632 4368 3129 17 3457 3683 4184 3348 2524 4226 4963 4534 4997 4142 3832 2563 4552 3054 4853 4322 4986 4394 4112 4065 3980 4405 3388 4669 4826 4591 3323 4112 4483 3801 3765 3619 4262 2624 4298 4298 3070 3731 4240 3270 4630 2962 3115 2979 3600 2892 3012 2506 4026 4403 4719 4568 3 30 17 7 37 39 28 13 37 25 9 12 29 14 39 11 13 24 6 12 12 2 35 30 21 5 10 29 14 2 11 21 37 8 21 20 13 8 34 10 1 31 34 13 35 11 9 31 31 33 17 38 38 19 34 13 24 19 22 27 32 8 26 17 2 20 20 36 8 28 36 22 26 35 37 18 35 39 23 12 26 30 9 28 1 17 6 22 25 26 39 18 38 16 28 21 27 13 31 9 37 34 14 15 39 4 34 24 37 22 13 3 22 27 0 19 7 8 20 32 29 7 24 12 21 7 2 32 20 13 13 12 38 27 4 10 38 38 26 15 14 10 13 16 11 39 17 11 12 15 20 24 17 33 22 39 6 30 37 12 2 13 27 19 37 17 17 14 33 23 37 29 3 31 23 20 36 22 27 34 5 22 18 16 25 33 2 11 3 17 32 2 15 16 13 29 12 36 27 23 24 30 26 39 38 25 30 10 26 12 37 5 18
4245 3489 3096 3910 4052 4262 4802 3401 2934 3436 2859 3248 4365 3933 3305 4293 3103 3443 3983 3150 4756 2725 4583 4523 3484 3475 3998 3594 2572 2543 3361 4913 3802 3189 3832 3987 3517 2745 3659 4653 4866 4698 4607 4059 3689 4931 3831 3927 2968 4322 4735 2982 4090 3278 3892 3522 4612 4671 3030 3177 4053 4705 3449 2759 4520 4311 3044 2688 3128 3565 4913 3426 4268 4773 4011 3534 4915 3679 4690 3248 4885 2918 4336 4985 4771 2733 3233 3646 2806 3526 2794 3578 4625 4483 3272 3636 2809 4663 4685 2740 3513 3120 3144 3205 4220 2599 3068 4926 2972 3402 3335 4651 2840 4824 4184 2701 3377 4131 4801 4778 4612 3261 4189 4096 4541 4465 3004 4524 4620 4848 3481 4213 3219 2709 3312 4929 3203 2823 3537 4361 3469 2760 4129 3911 4933 3712 2770 3426 2861 4486 2659 3052 4185 2926 3462 4293 4926 3571 3728 3862 2905 4927 3937 3079 4006 2664 2534 4278 4248 3903 4588 4352 3186 3100 4468 2916 3747 4490 2569 4704 4220 2805 3226 2512 3729 4359 4552 3663 3799 2881 3155 2591 2820 4562 3690 2578 4186 2914 3184 4123 2647 3948 3479 3334 3749 2764 2752 4243 3035 4134 2551 3231 7 12 38 21 21 7 33 34 6 24 29 27 6 4 33 18 6 7 11 14 17 38 16 7 16 39 1 33 6 7 25 26 36 13 11 2 16 39 11 18 1 25 39 20 36 23 7 34 10 39 11 27 14 31 14 26 35 35 7 29 10 4 26 28 4 15 10 18 10 1 22 25 22 1 29 30 14 35 39 24 27 34 14 4 15 30 6 28 8 21 35 19 12 3 38 2 24 34 20 3 9 11 21 23 5 12 9 3 28 23 17 32 15 31 38 0 11 10 1 26 33 30 32 37 30 33 21 6 13 28 32 2 25 34 36 5 6 19 28 28 38 14 36 20 20 32 28 38 32 25 5 2 6 39 2 31 11 34 30 12 9 8 8 23 34 19 34 34 4 13 30 33 37 17 3 21 28 13 39 36 38 2 6 19 39 36 12 21 30 2 7 31 12 2 4 29 25 3 9 7 2 7 19 11 2 32 17 24 6 12 2 13 4
3450 2907 4618 4116 4429 4369 3745 3633 4813 2928 4425 3245 4596 4507 2879 4804 4443 4653 3924 3476 2595 4452 3789 2708 2648 2748 3874 2929 4329 4861 4918 4900 3432 2977 4722 4927 3252 2593 3397 3248 4793 3560 4184 3531 3134 3066 3589 4695 2653 2865 3193 3323 4701 2964 3327 3922 2714 3285 3343 3737 2762 4294 3334 4060 3304 3974 3541 2978 3402 4197 3839 3019 4109 3082 3163 3165 4329 4328 8 2746 2575 4653 3689 4073 2728 4056 4768 3698 2909 2660 3582 4873 2927 4373 3734 2628 4791 3071 4309 2592 3568 3159 4391 3834 3576 3006 4619 4423 2740 4809 3626 3785 2582 2585 3224 2914 2959 3679 3951 2827 4129 3352 2518 2903 4916 4028 15 4952 3297 4778 3933 3448 3379 3462 3093 4414 4823 3872 3553 2776 2519 2692 3221 3451 3402 4055 4323 3921 4163 2835 3521 3054 2694 2557 3692 3775 4679 4317 2811 4774 4475 4378 4524 3459 3537 4587 4538 3798 4950 2811 3887 2839 4734 4894 2651 4281 3806 2900 3853 2750 4892 4010 4992 3716 3020 3096 4894 3813 3512 3457 3241 3824 3518 4277 3324 3126 3261 3728 4940 2641 4101 3039 3056 2547 2517 4042 2516 3738 4673 3229 2810 4365 31 36 11 35 21 14 15 11 1 39 20 8 7 24 20 11 2 6 15 13 31 29 35 36 39 21 14 38 20 2 29 38 22 10 22 27 31 5 1 22 25 31 30 21 17 1 8 38 26 16 39 25 37 38 23 1 26 11 5 5 19 16 24 39 27 36 18 13 8 15 23 10 24 21 31 11 24 24 36 32 3 8 22 29 14 7 30 23 15 11 2 4 16 34 38 24 31 28 22 16 22 17 15 3 15 10 22 23 25 16 21 35 23 27 22 39 0 2 22 30 8 39 4 17 1 32 35 26 12 14 2 30 25 33 38 4 20 10 39 9 14 6 34 29 11 36 12 23 8 23 39 35 22 20 33 18 27 3 3 23 2 32 20 9 5 17 5 13 1 28 21 21 14 31 39 1 15 22 29 28 39 12 2 24 19 3 21 23 17 19 5 29 6 28 21 7 28 4 28 3 3 36 6 29 21 12 5 6 26 7 34 35 18
2646 4628 3307 3115 3183 4074 3398 3142 2781 4296 4655 4737 3352 2685 3947 3491 2720 3664 2904 2534 4426 4700 3709 4711 2886 4487 3314 4487 2847 4554 3284 4725 3798 4166 2669 3922 3245 3797 2753 3320 3955 4143 4933 3861 4767 4360 3748 4895 3190 3410 2782 3818 4279 3883 2625 3535 2690 3141 3085 2739 3048 4456 4323 4210 3163 3097 3030 3373 3369 3404 2688 3964 4350 2866 3046 4736 3298 4056 3453 2527 3490 3955 3363 3711 4549 4656 2926 4751 3842 4054 2846 3457 3073 3861 4955 3957 4359 3157 3525 4290 4521 3698 3162 2908 4675 2978 4263 4133 2810 3701 3290 4188 3706 2507 4241 4118 2731 4753 4991 4037 2766 3263 7 2708 3234 4903 3009 3490 2646 4819 4446 3997 3436 2938 4716 2528 4377 3388 2595 3395 2789 4869 4025 3179 3514 4573 4907 3863 4671 4205 4676 4970 4477 3751 2668 2725 3096 4112 2809 3735 3890 3334 3953 4366 2569 2568 3373 3194 4474 3869 3091 3702 3613 2896 4841 3979 3799 3196 2911 4134 4979 3181 3479 4293 4657 4280 4988 3735 3824 4419 2677 2761 4576 2914 4410 4185 2925 3623 3137 3687 4003 4613 4531 2599 4834 4462 4428 2882 3204 4089 3653 3942 20 18 30 12 35 26 38 1 8 22 8 30 33 8 13 37 21 20 2 12 15 5 21 12 1 32 17 35 19 36 35 13 16 10 22 16 27 32 37 16 7 37 3 14 32 21 35 26 26 31 2 25 19 26 4 38 8 39 37 11 19 26 38 30 29 33 39 2 15 5 6 32 32 9 37 10 7 3 29 35 26 32 20 3 36 32 18 20 38 23 16 25 35 2 36 24 10 39 3 25 2 26 13 38 36 7 9 28 15 17 26 11 39 6 39 30 25 0 31 2 26 1 27 1 29 35 20 31 6 34 11 20 39 14 16 17 11 5 18 19 16 22 33 29 18 12 17 7 1 21 9 34 12 9 2 37 13 18 29 8 34 5 26 37 3 15 16 20 7 20 6 26 16 15 31 5 23 9 12 20 13 29 37 36 18 5 28 21 1 11 2 38 29 35 29 1 13 37 35 22 8 3 2 7 11 26 17 12 6 32 7 28 19
2527 4208 3893 4873 3894 3402 2692 3289 3958 2569 3001 4652 4980 2893 4213 3845 3312 4192 4626 4151 4607 4425 3978 2539 2692 4669 2789 3853 4635 3432 4099 4339 2852 4112 4584 4964 3471 4899 4538 3885 3731 4635 3482 3642 4413 3139 3177 4658 4932 3244 4481 3267 3505 2780 4080 2564 3913 2959 3537 7 4590 4474 4205 4778 3538 2743 3682 3729 3154 3194 3283 2577 3894 4979 4264 4867 3573 4535 4943 3329 3971 3394 4843 2608 3080 2983 4891 4502 4695 3452 4788 3256 3785 4544 4294 3926 3788 3385 3711 3005 3892 3231 4533 3365 2931 2598 2749 4620 4283 4261 4855 3768 2632 3817 3085 4605 4711 4321 3502 4747 2798 4466 2774 3152 4195 2984 2728 4851 2841 3057 4243 3308 3237 4786 3870 3096 4275 4743 3603 2908 4416 4324 4506 4423 4304 2996 3144 3684 3503 4541 4542 4584 4561 2998 2747 2599 4865 3578 3653 2514 4878 3650 4611 3811 3196 2741 3507 3936 2533 3767 3994 3177 2816 2877 4290 4901 2947 4098 4157 4901 2699 3767 2615 3442 4297 2593 3130 4160 4114 3600 3369 3709 2581 3064 4686 4406 4432 4965 3357 4239 2952 2948 4038 2954 4674 3437 3249 3363 4892 4857 3339 4736 33 25 7 1 3 19 17 38 31 9 2 18 38 11 34 30 34 17 14 27 9 18 10 31 23 32 19 13 10 39 8 27 27 17 12 17 34 34 36 28 25 36 30 38 26 20 3 1 14 9 27 18 27 27 4 24 38 6 32 37 39 15 27 16 5 17 14 11 31 31 29 25 30 15 16 32 13 29 3 19 18 24 17 34 6 39 39 6 1 10 29 15 28 9 33 10 9 17 29 18 9 31 33 1 26 28 15 20 34 8 23 20 7 27 26 38 13 9 0 9 34 13 12 20 9 28 29 1 20 12 8 4 8 30 29 2 19 32 5 13 26 28 33 4 3 11 28 23 14 38 8 33 33 31 33 27 27 13 39 26 9 3 19 21 38 6 22 27 28 5 8 20 29 26 8 7 15 6 1 28 10 19 6 31 5 17 6 15 1 24 10 22 3 31 31 18 4 6 28 13 23 10 23 32 12 15 3 22 27 18 3 5 15
3883 4810 3675 3910 3865 3535 4909 4916 4130 4171 3186 3764 2781 2590 2661 3425 4708 2541 2672 4367 4103 4937 3537 3020 4253 2960 4625 3542 3641 2652 4043 2663 3533 3629 3894 3863 2508 2710 4647 4174 2510 3229 2777 4014 3508 4125 4251 4595 3901 2635 2792 3131 4054 4191 4479 2638 4015 3106 3388 2972 3284 3355 3093 2569 3304 4694 3509 4201 3945 4336 3476 3507 4800 3723 3519 3752 3868 4907 4018 3305 3750 3664 4060 4840 4009 4781 4394 3675 3022 4846 4019 4849 3097 3315 4969 2676 4456 3694 4446 3911 4527 4681 4594 3327 2976 4037 2511 4551 4976 3608 3971 4661 3597 2540 4555 2541 3857 2863 3030 3433 3884 4416 2587 2980 4182 3785 4839 4141 4584 4356 3492 2850 4066 3552 2955 3191 3179 4824 3188 2523 2740 2639 2951 2997 3634 4401 4449 4583 2834 3243 2682 3048 3556 3481 4341 2864 4624 3096 4233 3653 3537 9 4477 2807 4004 3364 4974 3492 4573 4796 2646 4099 4701 3454 4512 4776 4398 3175 3388 2711 3552 3138 3565 3085 3248 4680 4820 3376 3357 4004 2568 4290 2774 3187 3741 2627 3344 4099 3802 3507 4933 3350 2775 4881 2794 2897 4807 2589 4536 2667 4689 3639 32 26 17 33 24 37 22 14 27 29 29 12 36 7 5 19 19 7 7 27 2 23 31 12 12 23 27 32 16 31 21 28 16 17 8 13 29 22 13 19 36 6 24 28 3 39 6 33 2 22 22 21 15 36 1 27 34 22 11 33 5 27 34 30 30 38 33 38 36 8 2 25 12 22 18 19 24 21 12 23 35 17 31 23 2 28 37 31 19 36 24 33 1 28 25 34 5 29 15 17 32 34 26 37 25 36 35 4 16 9 28 11 10 8 2 25 5 10 31 0 33 22 13 18 17 1 32 9 7 37 5 25 15 35 12 11 37 9 20 2 23 28 36 4 4 7 17 19 14 9 30 31 23 4 32 37 32 37 1 31 27 1 39 5 21 35 6 28 30 1 30 7 27 7 4 32 21 20 32 7 30 10 9 18 28 30 33 5 10 30 36 12 18 36 19 25 38 34 21 25 17 17 33 20 30 31 38 6 2 36 36 3 20
4596 2846 2901 4035 3874 3298 3115 4592 3035 4592 3299 4971 4255 3238 3593 3329 4670 4670 4818 2718 3581 4522 4992 3813 2941 4392 4143 3828 4357 2685 4598 3427 3188 4991 3067 4563 3473 2936 4590 4353 3277 3939 2744 4115 3172 2585 2847 4659 3936 4324 4475 4513 3758 3004 4491 2522 3657 2822 3836 4125 2878 3658 2668 2760 3711 4108 4029 2581 4964 2726 4024 2555 3767 3589 2748 3475 3934 4233 3870 3819 4000 3402 3155 2569 3022 2868 2865 3559 4165 3553 3875 4313 3415 3890 3438 3538 4364 2539 4483 2767 3283 4560 4498 4890 3643 4185 3627 3743 2629 4539 3588 4329 2883 2976 4503 3139 3646 2694 4026 4999 3767 2812 4550 3241 3870 3848 2747 3626 3291 4866 2790 2523 4416 3426 3354 3215 3428 4027 4385 4007 4310 3246 4615 4992 4627 4201 2543 4688 3740 4272 3823 3278 3650 4630 2991 4558 3808 2674 3446 3165 4983 3846 4430 2553 4844 2675 3196 3450 2855 4431 3198 4711 3809 3951 3128 3870 3450 2518 2780 3785 4717 3625 3583 3849 2740 3212 4265 3508 3119 4464 3720 2523 4842 3483 3406 3683 4658 4286 2895 4167 3717 3900 2753 4303 3900 4659 2571 4494 4416 2953 3781 3813 38 13 23 20 12 33 24 36 18 25 19 21 20 9 32 36 37 20 11 18 32 24 30 29 30 10 33 23 26 8 7 37 10 9 37 32 5 13 24 18 33 17 14 33 24 19 30 39 9 21 39 9 7 4 10 32 10 8 8 23 14 25 22 12 39 11 12 14 15 10 6 14 34 14 25 3 3 5 10 4 22 24 8 33 13 20 2 9 23 22 11 38 30 7 35 2 11 5 33 20 3 22 13 37 38 26 29 25 14 14 27 22 25 2 11 24 17 14 33 18 0 9 5 18 38 32 16 33 31 2 6 18 30 6 20 31 6 34 20 30 9 16 38 35 5 25 36 29 22 39 21 18 14 25 18 2 32 28 19 34 22 29 10 27 28 18 7 17 30 6 9 36 19 34 39 16 31 28 35 26 2 16 18 25 22 22 16 29 20 10 15 16 38 38 17 31 34 3 2 20 1 2 32 18 21 15 7 4 20 32 21 25 26
3454 2614 3081 3389 2506 4907 4822 4858 2956 3533 3587 3158 3637 4241 3444 4418 4997 3618 2968 3875 3346 3872 4632 4686 4406 2636 2933 3177 3676 4718 3632 3598 3238 3560 3082 4214 2689 3293 4947 7 4156 3314 3272 4473 4653 3907 4388 2530 4868 4550 2901 3428 3055 3041 3203 2669 4033 4530 3767 4998 4831 2923 4757 3422 17 4526 4508 4960 3838 3302 3361 4511 4827 3286 3683 4055 4565 4999 4055 2633 2942 2514 3470 4770 4252 4721 4468 3470 3858 2977 2761 2909 4405 2969 3673 4328 4497 2526 4876 3717 4027 4951 3164 3978 4160 4192 3500 2692 4430 3156 4800 3299 4315 4082 2725 3910 3362 2638 4500 2685 2804 3665 4417 4611 3316 3923 4684 4157 4955 3090 2728 3811 2725 4800 3959 3832 3704 3014 3220 4182 2757 4485 4901 4073 3789 4732 2875 3150 3773 2866 2569 3596 3759 3727 3379 4639 3013 2554 4556 4737 4926 4731 2857 3823 4939 4042 4892 4076 2757 3377 3514 4144 4823 3683 4016 2942 4113 3648 3449 3089 2684 3046 4483 4258 3132 3482 2918 12 3159 3783 4543 2878 4438 2915 3956 4853 4153 3334 3286 4441 3845 4989 3041 3006 2667 3635 2791 4048 3963 2985 3649 3548 11 9 14 39 22 35 37 32 7 28 11 21 22 3 37 17 10 4 26 24 9 18 39 12 28 26 28 6 35 39 35 28 2 27 15 33 1 3 20 14 31 7 5 24 37 14 29 8 27 23 19 5 5 27 22 31 26 26 25 14 13 31 16 11 17 3 1 13 11 12 8 20 5 35 2 30 13 38 9 5 12 29 9 4 10 32 2 10 4 16 27 7 18 36 37 22 13 8 38 6 25 7 10 11 29 23 34 30 32 37 20 4 17 9 29 2 38 23 29 4 20 0 11 20 6 1 3 38 4 26 8 13 25 12 4 13 36 1 18 3 15 33 26 13 6 23 35 8 32 14 20 19 1 24 6 6 22 16 7 35 20 32 12 30 2 34 25 29 6 30 33 9 25 39 24 25 26 24 19 20 30 30 18 7 37 9 20 9 17 32 21 18 10 34 34 12 5 1 21 16 35 23 20 30 11 26 32 31 29 12 19 11 2
3356 3077 3153 3074 3191 4404 4060 3186 3534 4122 4653 4885 2547 3701 4657 3743 3387 3229 3281 2983 4947 3352 3689 3527 4708 3791 2849 4393 4670 3225 3032 3858 3976 2833 3870 3166 2552 4235 3569 4501 3277 4186 2764 2970 4784 3227 4983 3577 2719 4523 2949 3544 4695 3371 4638 4520 3229 3127 4417 3387 3449 4192 3341 4650 4920 4576 3946 4280 4573 3120 4371 3400 4971 3201 3999 3769 3413 4386 3121 3181 3161 4712 4169 3999 4408 4384 3929 4314 3573 4200 4315 3856 3648 2655 4537 3182 4383 4117 4869 4429 4898 4346 4094 3244 4501 4022 2844 3864 2535 2838 4004 2511 4501 3124 3266 2990 3796 2502 4248 2688 3373 2531 2559 3632 3454 4635 3593 3516 3675 3682 4374 4626 4183 2591 2519 4394 4712 3146 4384 2911 3991 2632 4358 4436 3206 4560 4151 2797 3147 3109 4574 2634 3789 3394 2729 3841 2546 3824 3188 4970 4942 4930 2654 2772 4119 4571 2932 3667 4428 3625 3794 3388 2578 3286 3026 4439 3959 4023 4986 4783 4067 2649 4989 4463 3202 3446 3405 4568 2919 3178 4165 4322 3195 4497 3582 2812 2529 4146 3103 3985 4276 3314 2633 3843 3309 2767 4793 3068 4148 3080 3599 4616 17 35 36 29 35 19 21 27 27 10 18 36 14 35 8 29 5 21 9 21 33 19 14 35 2 39 8 24 33 32 30 7 8 32 9 38 23 16 19 5 11 20 6 36 28 31 12 34 8 19 33 18 10 4 2 11 3 19 34 39 30 33 28 3 4 27 30 19 17 9 15 35 2 34 27 8 16 3 34 6 20 37 30 16 28 18 3 9 25 30 30 25 27 7 5 6 33 8 4 38 22 18 9 28 22 21 15 12 32 37 17 18 2 23 19 27 26 5 21 4 25 14 0 38 12 29 9 33 27 7 20 26 8 37 7 21 28 34 38 13 23 16 5 37 27 4 3 14 7 16 26 18 11 5 37 29 22 19 39 35 7 25 33 27 31 34 1 9 35 2 25 39 39 31 3 18 31 35 10 30 17 25 4 3 13 4 2 36 22 4 10 27 2 11 27 26 2 29 23 21 25 4 4 25 36 20 16 2 30 35 17 7 11
2984 4882 2663 4716 3955 2776 3810 3246 2769 3991 2953 4472 2767 4296 4918 3559 4951 4574 3046 4253 2981 2735 4567 3825 4636 4310 4572 4645 3123 3575 3191 3065 4574 3370 4569 3623 3247 4697 3698 4223 4359 3022 4885 3606 4668 3284 2696 4829 2959 3883 2990 3401 2925 3714 3319 3840 4734 4950 3893 3797 3098 2771 4525 2521 4126 4429 3369 4103 3794 4817 2750 3397 4915 4126 2580 3251 3812 3930 4599 4310 4072 2922 3700 3165 3941 3390 4355 3164 2870 4648 3919 2768 2718 4839 3629 2816 4191 3036 4169 3354 4818 4124 4435 2705 4907 2879 3317 3928 3409 2660 2783 2575 4746 2990 4569 2607 4045 3631 2523 4379 3651 3902 2791 4252 3406 4641 2820 3472 3801 4561 3698 4284 4139 3763 3523 3471 3121 3606 3647 3403 2632 3309 3043 4402 4866 3621 4379 2833 4969 3998 4066 2843 2676 3842 2524 3993 2578 3442 4445 3150 3934 2808 4739 4671 3973 3495 3992 4889 3567 4574 4450 4393 3524 4423 3202 2878 3665 3457 4940 4086 4847 4761 4009 4450 2893 2659 3516 2816 4121 3099 4213 3787 2573 3370 4490 4100 2803 4807 4962 3471 2602 3448 3447 2988 2957 4638 4786 3462 2871 2905 3067 3220 32 27 7 38 26 15 25 22 14 25 25 11 33 35 35 32 22 23 4 7 10 17 14 3 14 16 38 17 23 30 17 23 18 4 34 31 29 34 20 25 36 26 11 32 5 17 18 39 32 6 25 8 13 7 21 5 17 28 16 31 32 39 24 23 4 37 22 5 2 33 32 39 32 8 21 9 35 9 27 33 11 15 28 7 8 31 28 19 25 27 2 4 29 15 39 22 30 38 11 16 4 13 7 19 10 9 15 38 7 35 5 9 26 14 1 34 3 9 12 38 11 33 6 0 13 1 4 11 34 5 34 32 23 26 3 33 19 33 36 35 5 8 12 33 17 25 27 6 3 6 24 21 25 19 26 39 8 11 28 35 38 28 12 23 20 10 37 26 32 19 39 38 39 17 6 25 33 8 29 6 28 28 38 33 1 31 16 18 12 8 9 11 8 17 16 2 16 15 32 14 31 3 3 30 20 26 28 1 12 37 29 21 28
4388 3965 3046 3341 3338 4126 3962 3152 4833 4885 4977 2646 3334 4718 3443 4492 3697 4143 3673 4803 4237 4438 4606 2812 3315 2760 4755 2585 3691 3159 4798 4986 3198 3285 4838 3060 9 4929 3178 3220 4143 3921 3250 2784 4342 4108 3418 3336 3691 4706 4694 3962 4217 3117 4247 3893 2906 4457 3039 4144 2611 2561 3242 4364 3016 3953 4210 2601 2764 4673 2508 4905 3042 4047 4817 3651 3380 4454 4364 3006 4138 3888 4113 4222 4479 4931 5 3476 2885 4232 2800 3471 4699 4973 3261 4568 4898 2735 3770 2594 4415 3724 4879 3770 4256 4935 3584 3727 3324 4942 4891 2840 4816 3479 4083 3506 3441 3414 3045 4323 4215 3450 3739 3128 4655 4722 4071 4257 2904 2853 2776 4756 2645 4939 3228 3186 3204 4163 2949 2961 2944 3574 3935 4465 3850 3013 3102 3158 4381 2824 4224 3229 3485 3710 3851 2943 4400 4638 4379 3687 4698 3865 3948 2931 3563 2812 3874 4468 4269 4890 4402 3352 4023 3397 2683 3247 3269 4871 3458 3678 3557 4559 2646 2577 4792 4064 4765 4171 4642 2885 4078 3766 2978 4477 3998 4625 3374 3684 2651 4748 4158 3943 2695 4130 3949 2504 3141 3358 4425 4890 4919 3192 20 18 30 13 38 31 33 22 30 17 39 24 37 34 8 7 12 37 36 21 10 38 1 21 6 11 15 11 3 25 19 1 35 27 24 37 6 29 13 27 14 27 6 27 6 5 37 20 30 4 24 2 19 22 39 30 21 12 10 4 39 34 36 4 29 13 6 36 31 22 20 23 18 2 8 33 17 25 18 36 1 1 33 39 5 24 26 28 35 23 27 7 13 26 38 28 17 34 22 8 16 11 17 25 22 3 3 1 34 3 24 7 5 33 24 10 28 2 16 23 33 37 18 19 0 8 3 8 34 36 25 15 4 1 31 35 22 28 20 22 26 21 25 5 39 13 32 2 2 12 36 26 18 28 13 32 2 33 27 28 30 5 13 21 25 37 11 27 35 23 24 37 16 39 9 18 16 36 15 21 20 32 16 2 10 20 38 32 3 5 28 21 33 32 19 34 25 24 5 4 28 16 21 37 22 28 23 22 32 24 32 4 2
3152 3979 4862 3944 3004 4642 4798 2924 4073 4026 2588 2647 2538 2584 3127 4789 4844 4131 4636 3724 3230 2956 4034 2864 2711 2757 3591 4636 3774 4160 4055 3195 3388 4117 3330 2773 3500 4508 3408 3862 3182 3212 2980 3302 3941 3146 2623 3829 3887 4638 3717 4477 3528 4873 2860 4240 4206 4267 4674 4169 4687 2946 4202 2636 4523 4807 3461 4090 3352 3182 3437 2633 2702 2940 4783 3188 4829 2636 4192 2946 3976 3282 3483 4267 3008 2749 3911 4457 2611 2659 2621 4839 4654 2966 3486 3193 4787 3402 3963 4844 4218 4479 4991 4657 2708 3942 3341 4785 3028 3777 4823 4180 2507 4195 4730 2649 4873 3612 4402 3116 4503 3390 2595 4901 3850 4980 4783 4360 4932 4034 4399 4370 3835 2919 3109 3440 3281 2965 4774 4506 3556 2886 4553 3026 3983 2583 4433 3503 4689 2597 2651 4867 4999 3199 4704 4109 3278 4773 2831 3217 4401 2650 3355 3768 4371 4334 3281 4102 4547 4617 4398 2742 2636 2513 4063 4070 3248 3261 3270 2941 4677 3714 3827 4634 4432 4975 2682 2636 2739 3885 4920 2835 2875 4358 3260 3855 4890 3087 4629 3437 3114 4651 3041 2602 3584 2865 3746 2510 4337 4391 3814 2559 11 27 8 4 29 18 6 7 11 23 14 37 37 20 33 14 9 34 37 5 27 28 14 38 2 39 26 9 12 7 38 6 32 14 11 8 39 16 22 14 14 16 5 19 13 15 37 12 14 4 15 6 12 34 26 25 20 16 34 12 1 31 22 8 11 34 3 8 13 25 22 8 10 11 26 39 20 38 7 28 19 20 27 4 27 15 19 39 7 21 21 16 7 11 26 34 27 8 19 5 13 36 4 25 3 10 20 8 35 8 25 7 6 16 14 3 15 1 7 34 18 17 3 31 9 0 1 14 19 18 34 30 25 8 31 18 4 30 13 24 5 12 20 17 9 7 16 10 34 30 14 31 34 13 11 20 9 33 24 34 2 16 16 30 32 17 36 10 21 39 27 36 3 24 20 27 23 8 36 39 15 32 27 23 7 6 2 21 36 2 13 15 18 26 15 32 9 1 18 8 32 30 26 38 1 17 6 2 11 11 28 16 3
3391 3555 4217 3543 4402 4048 4914 2669 4271 4384 2897 4076 3868 2756 4076 4605 4026 4530 3454 3593 4616 2637 2894 3313 4902 12 4652 3865 3122 3906 3760 2642 3341 3922 3565 4373 3085 2913 3151 3124 3306 4547 4505 2955 2754 2915 2754 2788 3637 4943 4760 3303 2773 2784 4670 2602 3420 4356 2595 3565 3832 3703 4916 3357 3436 4158 3840 4555 4111 4876 4540 2636 2501 4582 4058 3094 4719 3496 2825 4722 4987 3264 3189 4616 4090 2712 2759 2836 4460 3359 3082 4096 4183 3500 3109 4684 4762 3842 2608 4086 4571 3501 4413 4272 4830 4136 4270 3446 3370 3187 4882 2930 4595 4970 3173 3679 4759 2779 3124 4336 3985 4647 2593 4297 4975 3227 4264 3193 2787 4025 4252 3464 4908 4630 3563 4192 4456 4138 4821 2941 3026 2554 3981 2607 2631 12 4581 2563 3336 4165 3470 3555 4224 4950 4229 3769 3233 4930 2672 3089 4161 4764 2649 3957 4902 3820 3677 4365 4421 3465 2968 4298 4141 3042 4770 2577 4820 4872 4073 3053 3737 2712 3662 4157 3374 4849 4873 4479 2574 3283 4904 3949 3188 2520 4995 3057 4590 2669 4422 3770 2716 4878 3278 4952 2715 3922 4331 4180 4057 2604 2669 2663 20 27 35 10 1 19 19 26 34 17 29 31 24 32 23 19 29 15 22 27 13 35 36 23 17 14 4 32 37 32 21 5 16 6 39 29 16 20 29 31 15 15 29 20 3 12 13 18 10 15 28 34 5 24 14 21 20 12 18 10 23 2 16 23 12 24 18 1 18 29 26 30 39 37 30 27 32 5 4 4 32 38 13 2 17 20 39 13 3 3 23 15 13 1 2 10 32 28 14 15 1 30 14 14 24 2 3 17 39 9 25 38 15 9 28 7 7 10 1 39 38 2 26 16 14 38 0 24 34 25 3 22 37 17 23 39 35 14 36 32 33 37 10 5 24 37 27 38 3 4 38 22 28 34 9 4 27 12 18 18 34 37 25 3 7 21 12 9 29 26 1 38 4 1 20 39 23 2 18 38 6 21 11 14 34 10 3 13 26 13 19 30 34 31 7 24 35 15 28 9 26 30 12 7 5 37 1 5 15 34 38 25 1
3456 2969 4098 4856 3524 4244 3215 4101 2724 2806 4895 2559 3069 4619 4730 4146 3404 2897 4033 3186 2629 3233 4650 2652 4650 3627 4683 3852 2727 2920 4737 4295 2617 3276 3778 2518 4127 4957 3055 4329 4464 2513 4700 4967 2519 3322 3260 3330 3337 3647 2560 3934 3795 4019 3662 4390 3558 2877 3682 3163 3700 3629 2890 4638 3348 4991 3629 3932 4304 4282 2529 4168 4240 4120 2867 3553 3166 4056 2532 4405 2753 3601 3049 3916 4189 3304 3616 2947 4315 4302 2541 19 4783 3373 2942 3879 2924 4471 4667 4354 2638 3281 4205 4752 3001 3949 4331 15 4562 3610 4534 4015 2514 3183 4310 2946 3994 4464 3556 4636 3795 3451 4195 2733 2693 3427 2923 4875 4908 4898 3056 4059 4054 3409 3476 3080 4037 3724 2932 3216 2900 3068 2841 4368 3838 3336 3008 2582 4468 2807 3826 4853 3772 4017 4533 4127 4911 3516 2701 2944 3540 3771 3166 4912 2661 2977 3122 2571 2713 4553 3231 3089 3964 4447 2690 3981 3375 3352 4767 3422 4072 4184 3275 3065 3950 4766 2872 4926 3702 2695 3717 2712 2700 2707 2719 4399 4323 3695 2896 4071 2539 4672 4376 3227 4190 4053 3594 4795 3954 2950 3315 3440 31 31 3 29 14 38 4 5 38 11 5 26 18 5 14 23 6 22 15 21 12 5 38 27 32 34 39 39 6 27 35 14 3 38 21 29 34 21 35 3 36 22 27 3 27 17 35 8 6 10 14 39 6 20 24 3 10 22 2 8 8 37 9 20 37 16 26 3 20 38 26 25 30 1 21 2 37 8 6 14 18 19 2 28 21 13 29 25 15 35 2 8 37 27 4 38 14 39 17 14 21 36 2 24 22 5 28 25 1 29 17 24 13 24 20 10 34 22 30 19 13 20 31 23 3 36 27 0 24 37 27 10 4 5 30 13 10 26 31 1 20 39 8 21 5 6 26 23 18 23 39 4 22 30 28 26 16 14 32 11 12 22 36 36 39 39 2 26 32 9 4 3 37 20 23 14 14 27 18 15 17 14 10 29 33 13 16 6 31 23 19 11 19 1 14 36 20 22 8 28 17 3 28 25 31 9 22 7 9 37 14 33 39
3362 3828 4016 4136 3391 2904 4392 4407 4042 3591 4504 2941 4855 3106 2701 3048 3634 3095 2791 3189 4547 4057 2587 4921 2675 3497 3482 4587 3313 3848 3657 4784 4881 3722 4800 3501 3584 3230 4120 2795 4545 4537 4017 4572 4119 3728 2676 3840 2693 3558 4114 4450 3850 4798 2908 4759 3136 3277 3397 4427 4613 4435 3932 4416 4662 4174 13 4284 4005 2833 4824 3600 3468 2873 3398 2572 3703 2615 3535 2758 2959 2814 3600 2852 4992 4367 4662 3336 2766 3124 3133 3540 4387 4064 4040 3761 4088 2807 2598 2999 3854 2615 3489 4052 3202 3489 3442 4481 4326 3691 3994 2605 2877 2846 3961 4378 3312 2841 4178 3605 2916 4259 2659 3918 3430 3557 3934 3129 2540 4580 4788 4225 4048 4563 4160 3583 3833 2536 4700 4920 3115 4982 4644 3209 4168 3852 3661 3275 2649 2930 2789 3886 4125 2693 4425 4850 3880 3461 4990 4671 3718 4257 4025 3179 3524 3694 3390 4067 3391 4925 3628 4896 3540 3929 3667 3172 3677 4956 3826 2758 4622 4520 3886 4085 3274 3626 3268 4066 4153 4642 2957 2912 4389 3962 4968 3360 4170 2881 2574 4474 3192 3954 3589 3582 4670 3040 4458 3155 4324 3927 2886 4882 34 10 38 13 24 17 15 33 24 17 36 39 15 26 5 20 8 4 11 24 32 29 35 15 7 3 17 39 20 24 22 13 33 30 29 27 15 10 5 39 34 27 20 32 34 27 6 36 3 3 2 13 11 28 37 33 19 14 8 16 32 9 4 32 22 11 4 11 19 28 22 26 24 29 31 33 32 3 20 37 2 22 17 31 4 31 33 32 3 17 23 18 22 37 21 19 26 22 9 15 10 39 4 35 19 39 15 24 20 22 20 39 9 39 23 16 22 33 27 11 4 5 18 18 23 35 20 38 0 11 31 32 11 15 3 36 13 30 11 34 21 11 36 3 12 21 7 34 28 28 2 35 23 39 20 31 25 22 3 36 3 19 14 25 18 25 12 5 16 10 1 32 27 39 38 15 4 36 37 23 39 2 34 23 18 18 14 23 17 17 32 16 17 25 6 35 30 21 36 38 6 10 14 24 3 16 4 29 31 13 25 25 27
4263 3734 2758 3564 4552 4968 3382 3540 4686 3927 3666 4298 4059 3963 4815 4989 3894 2793 4367 3075 3735 2682 4540 4166 2938 3718 3322 4027 3513 3853 3226 3616 3539 3301 4957 4010 3568 3274 2674 4016 3233 3893 4565 2637 4570 3645 3773 4925 4618 4670 2824 3772 3385 4279 3757 3919 4263 3684 3176 2921 4159 3371 3112 4124 3160 3894 3839 4317 4287 3141 3673 4590 3319 3838 2585 2763 4864 4766 2876 4469 4492 2889 3362 3601 3967 4409 3932 3302 4977 3242 2939 3225 4652 4247 3438 2874 4583 4548 2850 2578 4968 4026 4333 3322 4181 3486 2502 4900 4872 2962 3175 2713 3667 3764 4774 2885 3592 3662 2969 3397 3642 3453 4291 4660 2513 3445 2552 4708 2647 4684 2644 2807 4192 4185 3346 3295 4527 3559 3345 4736 2657 4738 4443 3619 4151 4214 3520 2998 2662 3714 2807 3526 4400 4232 2710 2735 4812 3651 3622 4805 3441 4609 3203 4790 2864 4696 4320 4242 2719 4399 4923 4069 4151 3750 3066 3522 4098 2737 4138 4861 4321 4488 4702 3067 2656 3395 2979 3663 2726 4426 3848 3616 4867 2862 3197 2808 3213 4843 2810 3485 3187 4420 3252 3009 4235 2617 3486 3868 3892 3718 3046 4583 23 1 25 25 30 20 17 4 27 1 32 37 23 13 5 6 9 25 16 25 15 12 14 5 8 12 2 20 22 26 38 21 12 15 14 35 26 10 4 31 30 34 39 7 35 6 6 26 11 20 28 1 6 7 31 1 12 5 21 16 6 37 11 16 26 35 10 8 23 32 22 10 33 10 35 15 25 2 7 37 17 37 33 35 32 17 2 12 18 16 26 21 27 17 21 31 12 21 21 33 6 18 25 19 4 30 14 36 8 33 13 5 9 7 4 27 24 33 21 21 2 16 26 4 23 31 30 18 30 0 27 22 20 13 14 37 3 19 29 30 10 6 37 35 7 2 11 22 14 19 24 34 9 2 4 6 5 36 17 19 12 36 29 12 30 34 4 4 9 29 34 27 3 33 34 7 22 17 8 4 34 3 32 15 7 7 9 36 25 28 10 26 9 29 33 26 30 31 24 22 21 35 21 10 27 21 28 3 22 13 22 36 18
2795 3311 4101 4667 3021 4411 3047 4493 4452 4058 2706 3490 4820 3066 4586 3413 3382 3228 3258 3253 3169 4694 3329 3524 4030 3711 2667 3111 3422 2801 2945 19 4485 3824 3903 3898 4527 2759 3439 3190 4722 4233 4686 2632 3955 3679 4778 4132 2880 3176 4477 3390 2710 3186 2918 2877 2964 4388 4868 3916 3175 3217 2818 3081 4780 4851 2707 3083 4676 4187 4308 4861 4573 2837 4141 4872 3357 3804 3505 4174 4872 4165 2926 4225 3571 4384 4397 3470 3289 2734 2855 3195 3216 4187 4944 3161 4148 4762 3693 4386 3461 2896 3455 4852 3444 3864 4317 3608 3491 2734 3976 2550 2916 4659 3071 4830 3646 4873 3038 3582 2839 3624 4145 3679 3251 3351 2825 3697 3938 3162 4249 3197 3067 2766 3071 3028 4021 2532 2874 3133 4503 2607 3171 3384 4085 2513 2963 3615 3065 4005 2747 2712 3193 4787 3114 4388 4232 3897 4061 2505 3182 4562 2698 7 4405 2842 2576 4767 16 3457 2532 3683 4521 4876 3814 2771 3738 3040 3920 4988 4118 4427 4516 2696 3539 3187 4155 3530 3219 4224 3236 4581 3253 4937 3685 3618 2823 2594 4355 4730 4534 3127 3844 4230 2956 4960 4315 3319 3756 4980 3839 3731 28 13 1 7 14 16 17 29 39 15 31 22 10 24 25 5 21 32 26 5 1 28 19 9 15 20 27 31 7 27 26 13 6 39 3 18 10 17 10 2 3 39 25 4 38 26 6 26 24 16 36 2 12 31 35 9 7 29 12 13 39 39 32 24 28 29 11 15 22 19 6 11 15 5 37 12 36 2 35 33 31 39 33 21 39 34 35 6 28 30 33 18 7 22 25 37 22 39 39 23 31 17 33 6 38 2 37 20 20 23 25 12 22 2 21 26 14 17 34 11 1 30 34 16 22 29 31 21 39 29 0 15 32 13 27 12 12 2 27 19 11 2 15 4 14 11 13 5 6 31 1 38 7 22 8 29 31 3 25 38 36 34 7 36 38 25 31 12 3 11 19 29 28 36 11 20 21 3 3 9 9 19 24 12 23 17 34 2 22 9 35 6 5 11 3 38 32 19 2 8 34 26 21 11 28 31 32 14 23 4 10 18 7
4583 2521 3917 3518 3586 2939 4730 3658 3164 4749 3002 2620 2777 4477 4451 3275 3530 4228 3615 4839 4048 3939 4243 4600 4878 4497 4329 2891 3995 4043 3539 4459 4498 4893 4663 3265 4599 4636 4711 4293 4111 2820 3049 3858 2590 4786 3589 4221 3174 3942 3994 3900 4069 2675 4913 3234 2658 4887 3592 3639 3914 4921 3337 3948 2926 4602 2824 4151 4671 4539 3466 3164 2830 4507 3520 3597 4145 3607 3940 4114 2647 2894 2653 3565 3068 3855 3556 3515 4890 3282 3395 4514 3719 2562 2986 4079 2997 4694 4793 4264 4078 3564 4019 4741 18 4344 3424 4188 4597 4012 3829 3358 3591 2709 2730 3572 2608 3231 3502 4146 3490 3309 2572 3233 4422 3839 2883 3313 2880 4110 4604 3568 2580 3623 2711 4796 4102 4696 4482 2614 4005 2625 3589 4043 4114 3785 3982 4693 4126 3449 3576 2575 4358 3381 4228 4207 2666 4461 3853 3886 3411 3957 3896 2584 2942 3389 2854 3146 2553 3070 2816 3608 3851 4725 2649 4340 2631 4403 4129 2800 2760 3979 3156 4087 2887 3180 3871 4342 2507 2558 3621 4457 3823 3482 3353 4003 3521 3268 4852 3930 3855 2784 4898 2884 4572 3966 3473 3235 4576 3047 3393 4961 15 7 19 12 24 16 8 12 1 27 7 28 17 18 30 17 39 37 17 8 5 39 23 8 20 34 33 23 7 15 36 19 28 20 34 8 7 3 4 19 32 29 9 35 23 15 21 6 7 39 12 19 30 34 12 34 1 10 37 15 14 2 18 5 25 8 36 14 10 3 31 18 34 11 34 9 2 9 11 17 6 38 1 2 7 29 24 2 18 20 9 14 16 29 34 28 28 28 3 5 17 34 6 24 37 21 32 8 29 39 9 22 16 19 13 15 1 28 10 3 24 38 39 36 19 5 33 32 8 23 13 0 18 8 4 14 33 14 20 22 32 20 18 24 1 3 15 34 26 24 15 17 33 20 37 16 29 28 3 37 5 37 27 28 23 9 3 1 11 16 18 11 23 32 33 1 27 23 20 38 12 37 26 27 16 32 4 35 29 21 25 11 36 4 8 33 1 26 21 24 15 5 22 18 34 20 26 33 19 23 5 38 30
4118 4916 2672 4000 3526 3157 3781 3236 4115 4020 3247 4339 4361 3833 4899 3290 3195 4098 3808 3714 4270 3152 4843 2597 4346 4345 3224 4773 3632 3626 3017 3548 3847 2557 4984 2811 4919 3835 2882 2536 3863 2999 2857 12 4900 3046 2698 2541 4561 2551 3876 2886 3001 3672 4769 2810 4990 4789 4817 3073 4778 3715 3925 4140 3253 3366 4749 4744 3820 3132 3274 2552 3224 3361 4553 3888 2853 4016 3269 3219 4735 4464 2651 4286 4548 2867 4745 3770 4420 2626 3601 2782 3377 4559 4337 2678 3777 3195 4779 3760 3633 2773 2819 4657 2844 4951 3565 4869 3516 3815 4319 3119 4895 3005 3371 3066 2886 3084 3344 3515 3326 2557 4463 4814 3009 4594 3078 3306 3653 2557 3381 4275 4439 4694 4429 3005 3412 3105 3756 4365 2625 4521 4460 2835 4736 4787 2710 3227 3779 4106 3725 3076 3620 3792 4061 4956 3681 3149 4413 4550 4763 3274 2686 2614 4595 2615 2532 4465 4313 4262 3415 2515 3379 4074 3584 4670 2788 3722 2666 4042 2877 2650 4916 3629 4057 3759 4673 3261 3950 3798 4445 4076 3446 3871 3612 3558 4842 4279 4604 2711 3597 3401 3975 2556 4113 2887 3585 4668 3704 3845 3587 4543 10 24 35 19 21 35 4 36 30 19 11 13 39 31 25 38 27 6 3 12 12 3 35 9 5 13 5 14 8 38 15 19 21 4 30 35 7 35 10 22 39 12 22 26 8 29 34 38 39 9 6 17 26 22 34 8 37 18 18 31 10 36 20 31 4 34 1 15 37 22 34 6 33 1 7 11 22 7 27 37 4 20 1 10 2 6 22 13 24 16 8 35 15 15 7 37 10 28 32 1 11 31 19 26 30 4 19 13 39 7 37 5 5 13 22 10 34 33 29 22 38 6 20 11 21 1 3 34 1 36 16 12 0 28 24 2 7 13 39 16 17 3 29 3 33 13 28 25 13 32 21 21 32 13 4 24 39 36 3 27 34 12 5 11 27 6 7 15 10 25 37 38 29 30 1 9 12 13 38 32 20 25 23 24 26 35 18 38 18 12 21 12 1 35 1 12 7 9 34 11 30 27 26 3 17 4 9 21 38 10 5 36 36
3470 3727 4194 4398 3877 2610 2656 4789 3497 2754 3529 3324 3331 3645 3808 4992 3185 4618 3677 2947 2648 4849 3402 3092 4154 4539 4597 4651 4653 3102 4804 2824 3782 2595 4910 4626 4863 4526 3846 4369 3751 4818 4474 3228 2513 4277 3623 4238 3128 3003 4220 2988 3942 2932 2872 3549 4775 4627 17 4881 3033 4046 2649 4053 3160 3506 3525 2568 3325 4171 3175 3514 3804 4598 3210 3457 3578 4222 3011 3934 4248 3890 3429 3540 4099 2670 4314 3371 3791 4840 3905 2815 4744 3068 4147 4904 3285 2613 4714 4511 3580 3604 4358 4390 3347 3693 4647 4823 4970 4348 2638 3035 4384 4533 3536 3883 4788 4883 4473 3778 2607 4924 3322 2727 2705 2802 4494 3789 3956 4640 3766 2796 3215 3728 2874 4673 2833 4563 4678 3544 3345 4627 4664 4121 4110 4286 4230 4003 4234 2674 4362 2503 4086 2569 2660 2804 4734 4267 4370 2657 4837 2931 4636 4942 4849 4221 3368 3585 4200 3627 3442 4558 3144 4588 4488 2791 4356 4604 3388 2646 3703 4015 3362 2711 2809 3424 2653 2864 4779 3877 3123 3565 4098 2719 3220 4761 3022 2541 3519 3547 4510 2891 3071 3848 2805 4102 3048 4194 2641 2535 4444 2767 27 29 26 24 26 34 30 4 26 36 25 5 39 27 27 24 10 3 20 31 13 21 2 13 32 24 33 9 21 17 15 7 5 36 1 26 33 2 14 8 27 34 26 31 34 26 7 9 4 27 8 37 9 24 36 16 28 11 25 14 39 2 7 38 2 36 3 6 30 13 20 27 7 4 7 2 20 1 39 14 38 31 5 9 19 16 9 14 26 10 37 29 9 15 34 6 15 28 36 16 7 6 5 8 30 11 38 16 22 31 28 13 37 39 30 24 21 28 9 38 33 10 20 32 33 32 26 18 6 10 14 9 11 0 9 6 6 17 12 5 7 19 34 31 13 27 24 18 28 17 8 39 21 6 16 2 3 28 35 18 38 29 14 30 34 16 10 8 35 2 20 8 1 23 39 14 35 36 18 16 2 36 13 31 31 27 9 37 36 9 32 11 5 6 14 11 9 22 39 16 37 12 19 32 28 30 19 6 32 14 34 2 4
2711 2951 2990 2555 4536 4364 3060 4843 4998 4910 3013 3553 2600 3770 4454 4919 4683 2914 2713 2777 2703 4421 4291 4052 2875 3378 3584 3309 3889 2954 4812 3555 3507 4346 4799 3801 4834 2922 4333 3181 3504 3864 2738 4306 4631 3096 4220 3205 4006 3416 4596 4464 4493 2932 2502 4701 3149 4027 3081 3412 4528 3371 4409 3165 4188 3927 3671 3514 3612 3303 3394 4110 3464 3169 2825 4324 4456 3161 3623 2571 2546 4410 3557 2927 3140 4498 3517 4739 4477 4075 3728 3689 4944 3812 4196 2965 3879 3815 3550 3289 2944 4855 4324 3377 2655 4419 4526 3648 4591 4416 4502 2810 3061 4656 2912 2510 4226 4212 4448 3588 3361 4831 3582 3967 2890 4855 4268 4167 3443 3421 3463 3443 3851 4112 4269 3489 4685 2894 3544 4504 2963 4255 2952 3806 4856 4480 3720 4253 2859 2642 2933 4460 3287 4049 2664 4381 3739 3099 4395 3993 2732 3798 3790 4852 4571 3024 4318 2502 3550 2741 4791 4698 4665 4485 3630 3128 4642 3250 4178 2743 3766 4950 2775 3820 4037 2795 4789 3681 3039 3523 2853 4180 2967 3294 2500 4120 4923 2950 4414 4622 4349 2825 2812 4720 3161 4485 4876 4223 3255 3298 4847 3389 4 7 9 4 15 39 2 30 22 2 20 36 21 23 21 12 20 28 6 12 26 31 33 21 28 32 30 35 2 29 17 24 11 10 34 2 21 7 14 13 36 2 35 32 28 27 20 14 14 31 26 10 4 32 16 19 1 37 17 30 23 25 34 37 8 25 23 13 37 9 20 27 11 20 33 29 13 38 38 37 7 27 20 32 20 37 38 28 33 23 21 20 22 7 19 23 9 28 20 19 25 34 34 9 32 38 24 23 24 2 31 37 39 24 1 33 13 27 10 22 4 14 29 11 3 14 29 11 30 5 24 39 21 36 0 7 2 23 24 9 22 34 28 36 14 13 16 21 32 24 23 24 37 27 4 20 6 29 34 39 21 5 26 21 28 31 13 15 11 28 26 7 26 26 31 32 28 13 17 5 8 29 14 3 25 16 31 24 34 9 11 16 5 23 32 26 10 30 13 7 3 37 30 19 8 16 5 2 20 10 13 16 19
4222 3047 3615 3302 2821 2999 2955 3068 3406 4087 3095 4228 4550 3088 3436 4817 4987 4699 3208 3134 2759 2796 3126 2537 3771 3021 3694 3209 4891 2545 3331 3413 4931 2942 4862 2649 3155 3625 3506 3332 3968 4931 4652 4308 4082 3478 2994 3106 3912 2716 4023 3430 3786 3311 2941 3529 2562 2812 2699 2851 4622 6 3172 3108 3495 4777 3617 3858 3391 3236 3769 3779 4211 2824 2844 2785 4050 4517 2960 3136 4674 2851 4628 2762 3733 3280 4016 2972 2600 3632 4911 4713 2900 4620 4465 3347 4851 3819 4305 4131 3709 4434 2955 3701 3398 4531 3438 2834 4782 4819 2961 3661 4120 2832 4693 3183 3070 4675 4282 2614 4135 3527 4290 3237 2586 2805 4928 2689 3310 4993 4182 3181 4716 2778 2572 3709 4499 3329 15 4053 3180 4727 3095 4968 2865 3379 3647 3098 3943 4512 4193 3676 2730 3318 4684 3817 4213 4035 3093 4847 3000 4727 3785 4078 3046 3683 3131 3129 3659 3453 4347 4669 4494 4406 4167 4091 4942 4107 3563 4997 4723 4058 4233 4373 3882 2822 4220 3899 3506 4954 4948 2903 2604 4527 3288 4545 4003 4813 4054 2918 4173 3156 4829 3849 4742 3107 17 4404 3107 4076 3550 3952 20 17 1 16 25 9 34 25 21 19 36 22 23 38 28 12 18 18 1 9 4 37 37 30 30 36 1 24 2 11 39 27 16 36 31 16 23 12 20 34 28 13 8 36 5 14 20 20 15 30 26 6 25 28 2 17 5 33 25 30 8 37 13 13 17 6 10 34 12 4 38 35 10 22 33 34 18 6 31 16 21 37 15 17 23 28 13 17 9 29 38 39 1 15 37 8 22 31 34 36 30 18 29 5 31 12 11 5 17 21 21 13 14 10 7 19 27 31 27 11 13 35 11 35 5 17 5 28 13 10 22 27 8 26 17 0 26 24 13 20 23 9 30 15 25 31 25 1 27 15 21 14 34 28 18 1 34 10 26 15 23 19 29 37 14 38 32 24 29 6 4 27 3 30 36 25 19 17 2 25 28 8 16 29 17 23 1 5 30 8 13 17 32 36 28 30 8 16 20 21 17 37 36 33 18 4 37 2 10 28 15 39 23
2504 2781 3673 3249 4286 3603 2812 3875 4824 3114 2513 2881 4319 3434 3794 3885 3695 2704 4412 4252 4609 4815 4502 4168 3666 3881 2974 2965 3314 3543 2675 4940 3820 4986 4374 4171 2680 2652 2990 2548 2949 2952 3214 3863 2930 4052 2989 3329 3277 4621 2689 4263 3485 3944 2934 4764 2894 4955 3083 2827 3253 4289 2973 4772 4806 2986 4260 4091 4363 3504 3614 2641 3019 17 2843 4376 4607 2752 3333 4159 4639 4694 4049 4236 4432 4340 3332 3199 3505 4278 3625 4659 4696 3352 3691 4226 3402 3952 2640 4534 4359 4243 2910 3918 3329 3092 3344 4140 2597 3838 4771 4508 3235 4165 4367 3397 3923 2887 3142 3353 4088 4751 4015 3475 4718 3384 4112 4443 3199 3598 4661 3893 4250 2792 3964 4605 3367 4056 3103 4596 3455 4141 2835 4077 2545 4384 2888 3143 3518 4605 4673 3238 3681 2635 2723 3682 2525 4488 3344 3596 3962 4334 3399 3910 3964 3067 4008 3707 3357 3220 3757 3208 3341 4212 2603 3647 4217 4329 3021 3679 3458 4274 4836 4876 3184 3742 3365 4607 4065 4156 2794 4076 3910 2732 2574 2618 3592 2730 3503 2976 3828 3374 4081 2640 3017 4112 3551 3141 4849 2724 3283 4944 23 15 7 34 1 10 4 30 34 12 4 3 1 36 38 34 23 24 21 23 21 26 21 32 24 12 31 35 3 1 5 1 36 18 9 31 13 17 25 28 33 23 4 36 3 16 8 35 10 2 32 31 20 30 1 30 38 38 9 39 39 18 34 3 32 25 24 18 17 17 17 36 1 34 7 19 27 39 38 38 32 36 38 33 14 32 3 24 28 20 11 3 2 32 18 17 29 29 28 3 4 28 17 7 20 2 23 19 19 17 32 19 14 23 28 1 18 32 21 30 30 13 32 13 13 18 19 34 3 39 37 18 15 37 28 28 0 29 16 12 27 2 9 29 17 3 15 39 5 35 1 38 6 28 6 37 26 39 38 33 34 1 6 20 5 15 6 22 14 24 8 15 16 12 24 9 39 32 34 5 28 4 21 11 31 29 24 30 9 26 6 16 24 30 5 24 37 28 13 17 22 39 27 37 38 16 17 5 37 6 17 9 39
4798 2675 4991 4629 3889 4222 4814 4256 4430 3309 4482 4012 4174 3009 4957 2594 4018 2875 2761 3620 3553 3009 3328 4682 4963 3160 2769 3505 3290 3750 2678 4216 2855 4528 2802 4940 3561 3049 3610 2796 4393 4337 3880 3865 4039 4429 2821 4224 4839 3792 4582 3825 4327 2916 3924 2680 2574 4282 2877 3871 3404 4832 3762 3282 4495 4548 4131 4993 4206 2915 3352 2780 4202 2991 4623 3918 2779 3329 8 4527 3014 4247 2632 4096 3933 3527 3864 2643 4558 3603 2867 3821 3454 3445 3206 4140 3981 2918 4485 2950 3696 4189 4438 3567 4017 2616 3390 4230 2788 3406 2976 4353 3130 3914 2661 4743 4532 4751 3408 4191 3816 3407 3624 4112 3978 3944 3460 3405 4288 4935 3997 3082 3622 3992 4787 3121 3234 3406 3572 3771 4666 3826 3504 4078 3113 3062 3027 4724 3982 3198 3777 4742 3730 4256 2723 3689 2572 3657 4556 3382 3482 4580 3810 3666 3293 4090 4791 4677 4577 3736 4952 3931 4642 3671 4247 4016 2816 4095 3769 2872 2812 4046 3374 3213 3229 4667 4717 3633 3934 2501 3446 3442 4812 4357 3240 2969 3988 3142 3765 3543 4176 2984 3597 3143 4335 3198 2713 3659 3910 3534 2717 4397 26 13 18 34 11 39 37 19 38 21 5 39 31 5 31 21 24 34 39 8 34 18 32 24 32 15 5 24 5 36 26 19 4 39 10 20 21 2 7 19 34 27 30 24 9 37 27 17 6 17 14 38 38 22 5 26 35 24 29 8 19 31 16 24 4 38 11 33 21 34 6 4 24 13 5 14 27 28 15 2 16 22 25 21 3 21 14 16 10 38 29 19 12 8 12 10 18 36 9 14 34 32 11 34 17 28 31 35 8 35 10 3 10 15 1 3 20 13 17 39 24 22 33 11 9 7 19 11 29 36 3 11 2 11 23 38 6 0 22 30 33 13 20 20 20 27 12 32 5 16 17 19 2 11 20 19 2 30 4 9 10 27 34 22 26 10 7 25 3 11 28 22 19 31 2 39 8 17 3 4 26 28 18 3 27 32 38 25 32 20 22 38 35 34 15 10 14 14 33 7 34 30 15 24 36 28 17 29 37 18 4 17 17
3866 3652 4565 3088 3845 3376 2844 4757 4999 4066 2690 4033 3496 3933 4598 4895 3831 2754 4936 2964 3609 2915 4627 4790 4624 3615 2851 3004 3510 3004 2819 4082 3488 3696 3506 3959 3552 3253 3253 3589 3866 3192 3127 4439 3991 2628 4183 2914 4645 4832 4855 4603 3314 3345 3881 3811 3888 2640 3145 3129 3377 3324 2719 3332 4004 4631 4420 4694 4808 3339 4922 2890 2735 3058 3807 3653 4987 3752 3536 4465 3212 2728 4454 2849 2596 3777 4405 3709 3601 2886 4321 4186 4524 4271 3502 3108 3287 3970 3697 2814 3631 4533 3068 3900 4501 3406 4692 2981 3515 2759 3198 3981 4292 3447 4204 4651 3605 4931 4302 3000 4292 3221 2671 4175 3847 3262 4124 4106 3775 4885 4712 3331 3091 3799 4427 4271 2736 4974 3996 4502 4894 4445 3189 4530 4943 4056 2589 4582 4007 3322 4579 3161 2676 3933 4330 2932 3582 4491 3184 4179 4203 4618 3751 4125 3466 2739 4705 3325 2870 4211 3344 3030 4815 4035 4765 3234 2997 4609 3976 3268 4312 2763 4876 3775 4198 2609 4468 4165 3297 3344 4355 2714 3743 3585 3170 3876 4831 3816 4547 2831 4194 3437 3112 4037 4437 3898 3954 4954 3953 4557 4301 3662 21 29 39 7 1 27 10 14 10 13 34 6 6 26 17 22 37 9 2 9 4 36 11 38 34 36 37 12 1 5 22 29 37 24 31 18 4 9 38 10 25 38 1 6 1 37 10 22 32 25 39 36 27 7 30 38 13 27 16 28 37 19 33 11 9 20 38 35 1 32 37 28 12 12 36 10 22 5 14 5 37 31 4 31 16 38 14 21 29 4 2 18 12 19 11 38 30 6 14 27 24 28 31 16 31 2 26 18 18 23 38 37 32 30 29 16 16 16 4 3 29 39 30 29 38 37 29 23 7 34 31 14 33 38 3 31 23 1 0 26 37 14 5 33 25 4 30 34 33 21 11 38 15 26 26 15 26 29 11 27 13 5 30 22 1 22 38 25 16 9 17 5 29 11 33 10 32 17 26 37 23 23 24 27 5 16 17 3 27 14 27 25 1 31 39 33 22 37 33 25 6 16 16 32 36 38 11 35 27 20 22 3 38
4984 2921 4896 4652 3847 3836 2916 2885 2646 4692 4524 3807 3728 4015 2649 4520 3166 4791 4235 4516 4780 4685 4759 3577 4893 3585 4947 3614 4099 3830 3364 3005 2963 4880 4045 3191 4251 4833 3025 2762 4604 2513 3438 3556 3163 3944 3027 4801 3260 4864 4516 3654 4207 3457 3686 4345 4091 4589 3868 2563 4665 3882 4928 4731 4860 3663 4233 4251 3657 3084 4189 4007 4401 4308 4606 2725 3179 4559 3658 4728 3713 3739 3546 2913 4088 4443 2790 4507 2515 3121 4230 2741 2920 3098 3451 3397 4286 4860 3455 3273 3463 4768 3761 4218 2664 3353 3201 2990 3486 3461 3237 4880 3876 4298 4505 2716 3927 3363 4800 4513 4769 4649 3536 4194 2926 2838 3044 4594 3396 4835 4163 4396 4186 2709 2760 4761 4704 4874 3387 3587 3598 3683 3895 3166 4913 2717 4278 4373 3393 3613 3843 3469 3254 3672 4180 9 3340 4015 3732 4138 4721 4415 4149 3894 2946 4054 4629 3824 4065 4223 2565 4175 3800 3212 3112 4030 3877 3786 2831 4899 3069 4954 4265 4244 3547 2600 2721 4366 3243 2693 3431 4946 4653 2634 3862 3089 4868 4693 2553 2923 4294 4439 2818 4541 3819 3795 2610 4900 3334 4474 4411 3898 28 31 27 3 2 14 12 29 34 1 33 33 11 23 38 14 9 11 27 30 36 35 17 20 19 24 27 12 22 3 16 11 8 15 14 8 3 29 26 11 7 30 26 25 28 21 24 29 24 4 14 39 14 11 9 25 30 2 9 10 37 30 13 21 28 15 13 11 25 15 23 34 26 14 35 27 1 14 14 34 16 4 33 2 6 24 24 26 1 14 26 6 15 37 29 31 27 16 33 24 1 33 18 33 23 18 13 31 15 6 19 30 35 19 19 28 20 33 6 21 18 11 39 1 16 3 1 4 35 21 32 11 33 15 10 16 33 33 6 0 25 23 23 16 7 5 5 29 24 13 36 6 18 17 30 32 8 1 21 12 4 30 2 24 26 28 22 5 12 12 31 11 22 22 3 22 39 7 30 24 24 32 29 33 18 29 38 14 10 15 12 9 2 35 15 11 1 25 20 12 31 12 29 33 15 11 16 29 8 31 26 2 13
3595 4824 2527 3367 3208 4229 3168 3238 4375 4945 4649 4884 3612 4764 4861 3880 4769 3003 2556 3420 2533 4241 4978 2591 3956 4108 4066 4677 3909 3476 3889 4480 4523 4992 4809 2529 4766 3668 3973 3889 4418 4988 4683 2887 4922 3083 4874 4721 4097 3971 3002 3625 4628 3313 4034 4883 3040 4368 2667 4527 2579 3140 4586 3002 2992 3908 4549 2650 3205 2699 4622 2834 4972 2533 4452 3673 3366 3807 2896 3438 2559 4632 4644 3606 2819 4664 3138 2679 2584 4539 4376 2525 4972 4363 2530 2982 4636 4185 2969 4102 3197 2501 3777 2890 3711 2626 4635 4572 2535 3417 3985 2614 4293 3677 3094 4969 2706 4429 3088 2684 3095 4140 4341 2718 4213 2875 3839 3707 3586 4465 4872 3719 3125 4239 3513 4610 4034 4674 4413 2914 3528 3367 4213 4783 3741 3977 4922 4021 3556 3289 4806 4565 4705 4636 3550 4629 4003 3785 3354 4440 17 3730 3373 4613 4010 4271 3683 4193 3319 4859 4448 2605 3120 4767 2711 4420 2757 4112 3509 3383 4282 4618 4034 4249 4955 4984 2608 2793 4725 3676 4728 4790 3453 3734 4870 3820 4005 3583 4372 3335 4709 4974 3498 4535 3504 2944 3123 3297 3159 4936 4152 3889 2 15 21 21 28 32 14 3 27 7 37 35 39 34 34 29 7 27 38 14 17 30 13 15 30 11 32 14 15 33 2 38 2 2 25 30 27 12 10 28 26 23 31 17 26 9 18 25 24 23 27 24 25 31 13 25 25 36 20 4 13 5 32 19 27 28 36 28 1 19 18 13 18 3 39 16 25 38 17 14 25 27 2 19 32 38 15 34 9 39 26 24 6 20 14 39 6 19 35 24 11 14 11 16 21 25 26 29 32 4 1 8 20 12 25 5 7 30 1 26 37 9 25 24 5 34 24 9 34 20 35 23 11 12 18 20 16 15 31 5 0 14 16 7 35 30 9 28 25 11 6 19 7 30 16 17 16 31 4 15 4 39 17 10 32 37 20 10 8 14 34 1 32 32 24 33 30 22 25 1 27 18 17 37 7 23 33 4 34 13 3 18 23 19 14 15 16 10 23 9 7 7 25 22 32 36 6 31 35 8 36 23 38
2783 3690 4522 3589 3289 3468 3302 4176 4485 4753 4183 2648 2984 4551 3119 2837 4065 2517 3478 2583 2521 4285 3943 4055 4102 4624 3867 2671 3709 2999 3763 4992 4621 3033 4933 4992 4367 4488 2827 3487 3831 3771 4206 3444 3977 3539 3344 3069 3342 3600 3247 3409 3561 3222 3618 4005 2658 4453 4993 4104 3206 3024 3996 2934 3288 4727 4930 4570 4679 4426 4152 2712 4098 3455 4364 4128 4494 3145 3934 2827 3295 3578 3208 4973 3289 4870 3169 4356 3409 3865 4275 3945 4469 2566 3630 3886 3522 3199 3609 3415 4597 4348 4164 4811 3926 4511 3592 4189 3778 2613 2877 4167 4621 2926 4754 4053 4530 3162 4155 3131 4638 4280 2842 2670 2949 4490 4613 3085 2536 3402 4308 3723 3613 3794 4299 2649 4742 4146 2878 4724 4909 4713 4522 3794 2852 3028 3103 4801 3594 2774 2589 3589 4453 4528 4913 4601 2967 3465 4973 3423 3699 3587 2611 4642 4634 3259 3966 4606 2876 3914 4739 3617 2879 4898 4204 4068 3624 3272 4899 4578 2760 3253 3741 4183 4953 3401 4112 3560 4403 4208 4181 3744 2722 4365 2932 3903 3579 3004 2949 3178 2508 4526 3108 3084 4761 2845 3896 4250 3514 3015 4605 2568 24 34 28 36 15 12 2 19 4 35 37 21 20 23 12 21 11 24 28 34 25 12 30 23 34 16 20 3 37 17 19 19 9 36 37 25 14 20 33 16 8 29 31 18 2 5 21 5 14 16 25 22 30 21 20 30 37 29 9 36 23 16 21 39 9 23 39 23 6 13 4 5 1 22 34 2 39 28 18 26 4 34 28 13 15 13 12 27 6 11 2 6 33 19 36 36 32 35 11 21 9 19 24 20 15 32 9 22 2 38 14 34 28 4 32 7 37 27 11 25 8 32 6 35 25 15 39 8 16 7 11 2 18 6 36 34 9 25 38 12 12 0 16 5 16 22 15 15 6 8 22 31 8 15 5 8 18 39 15 37 26 23 14 31 24 24 25 18 9 15 1 34 25 11 2 37 16 28 13 39 8 34 26 21 15 3 9 31 31 11 1 36 37 17 6 23 14 16 4 32 2 39 4 36 11 28 4 38 17 15 33 12 19
4382 4603 4332 2963 4639 2711 4184 4608 4149 4424 4508 3283 2814 3139 3537 3756 2908 3267 2937 3726 3491 3589 3260 3407 4365 2789 3245 4206 4564 3362 2903 4855 3845 2993 3580 3774 4165 3420 2955 2906 3570 3278 4448 3196 3772 2690 3787 4318 2596 4526 2795 3678 4350 4339 2929 3842 4828 4865 2801 3360 4050 4576 3752 4752 3435 3088 3505 3621 4925 3492 2945 3441 3149 3616 3645 2735 4210 3802 4010 4433 4856 4775 4223 4437 4703 13 3065 4067 3071 3246 4494 2872 4673 4590 2806 3107 3915 3832 3887 4420 4743 3945 3401 2937 4795 4000 2775 3500 4939 3768 4172 3245 4978 2664 4190 3270 4826 3834 4865 2673 3590 4995 3509 3882 4360 3538 3709 4952 3694 3613 3813 3592 3678 2597 4403 4991 3832 4146 2950 4806 4524 2664 2725 3839 3987 2966 3821 4801 3428 3371 4457 4431 3749 2917 3728 3253 2638 3204 3883 2987 2983 4514 4134 3092 2867 4054 2702 2549 3636 4110 2540 4051 2703 3134 3302 3742 3217 2984 4991 4030 3665 3729 3208 3999 2802 3736 4598 4867 3018 2830 2998 3510 2966 4636 3200 4446 3934 4694 3387 3515 4828 3703 4217 3066 3733 3233 2970 3844 3873 3058 4558 3660 36 11 12 6 14 25 16 12 11 23 6 34 37 3 9 12 27 12 20 2 23 18 27 33 1 1 24 31 29 28 32 32 4 34 10 17 35 35 11 8 12 4 17 3 16 11 30 19 30 5 16 24 38 4 18 7 23 34 7 26 37 9 22 21 20 2 21 20 20 17 9 39 17 22 9 11 16 15 25 8 22 5 19 2 7 1 37 24 22 32 38 25 6 38 22 18 35 3 26 27 31 35 11 33 19 15 23 31 1 22 12 26 22 22 16 7 29 6 35 39 22 5 38 37 6 10 36 17 29 27 18 10 25 4 17 30 18 21 21 32 6 29 0 26 33 14 23 14 5 35 22 2 5 33 27 10 11 8 6 11 21 12 19 4 35 27 34 4 5 13 13 3 37 36 25 2 3 38 38 31 24 26 35 28 11 31 2 33 12 14 24 26 17 11 19 5 9 11 12 2 13 25 23 25 9 30 15 32 12 14 7 25 12
4078 3693 3869 3677 3790 3953 3983 4364 4982 2699 4570 3304 3371 4072 3711 2942 3609 2795 3459 4194 4579 3816 3093 2562 3713 2958 4058 4972 4658 4626 4090 2537 3310 3182 4338 4360 3638 3018 3339 4114 3267 2822 3520 2823 4356 4819 3424 4042 3760 3039 3781 2573 2531 2887 4099 3525 3731 3052 4271 4265 4599 3951 4382 3834 4862 4096 3892 2708 4652 2979 3625 3670 3836 3673 2967 3652 3970 3350 2651 3371 4941 3747 3038 3586 3339 3062 4506 2714 2741 4843 2658 4774 3833 4052 4854 4535 4568 4617 4921 4161 3034 3144 3676 4325 4743 2717 3886 4853 2585 3989 4391 3816 2869 2949 2764 3175 4185 3183 4036 4590 4506 4320 4678 2541 3372 4404 4434 4335 4460 4876 3235 4984 3243 4831 2545 2647 4798 3696 2744 4669 4055 4399 3645 2805 4300 4284 3664 3659 4238 4499 2536 3985 3645 4249 4668 4993 2753 3191 3064 4192 2996 4535 3267 3984 2933 3093 4419 4204 3511 3175 3828 3138 4926 4841 4090 3052 4758 2880 3086 2776 3394 4100 3734 3554 3175 3340 3417 4225 3711 4351 2959 4126 4786 4722 4142 3922 3985 2829 3679 4521 4397 3303 2931 4880 4830 3575 2619 2642 4625 4102 4926 4217 22 4 37 18 28 11 3 15 38 1 19 34 30 4 28 3 20 7 21 17 9 6 5 7 37 37 18 26 15 12 39 31 3 28 3 16 27 33 28 26 6 30 22 32 15 14 31 10 33 39 32 14 22 28 29 14 22 26 18 19 26 2 3 22 30 6 6 24 11 28 2 5 39 8 31 8 28 3 12 7 17 1 4 28 15 14 30 15 33 32 37 13 17 29 14 39 27 23 7 10 38 6 18 36 35 11 36 22 23 8 22 6 12 31 17 4 22 3 1 3 2 20 8 37 8 16 31 38 19 5 32 17 26 4 28 16 7 5 38 31 21 29 8 0 1 18 35 39 10 13 13 32 8 12 4 20 34 31 2 18 34 18 39 18 30 11 14 35 9 21 24 24 3 21 28 26 25 29 26 9 33 26 17 38 38 1 36 1 25 28 31 26 34 5 33 15 3 10 38 9 18 16 21 26 37 24 35 7 32 14 19 9 30
4987 2780 4921 2828 2988 4296 3664 4766 3494 3457 4310 3372 4290 4667 3045 2901 3630 2874 3926 2947 4976 2617 3066 3089 3439 2597 2920 3934 2853 3986 4535 4090 3758 4049 3948 3743 3016 4119 4404 2600 4550 3206 3796 3190 4723 3588 3722 4705 2611 4289 3823 4692 2981 2814 4581 4295 4726 3784 4286 4582 4575 2871 4071 4182 3565 3895 3755 4650 3282 3659 3630 2924 3162 4409 3919 4492 3054 3486 4481 3810 3092 3918 4348 3659 3203 2727 4420 3194 2833 2524 4504 3646 4762 2567 3918 3918 3830 3289 4270 2580 3264 3787 3512 4107 3389 3064 4468 3072 3685 3158 2869 4125 4405 4192 4416 3569 3173 4299 4091 2680 4588 4422 4305 3421 4203 3665 3125 2894 4600 2832 2520 3052 4245 4357 4547 2954 2841 3179 2890 4180 3369 3300 3404 3708 4997 4926 4423 2764 4466 4834 3148 4593 3921 4360 3863 4900 4063 4254 3914 3698 3014 3672 4574 3095 3151 3379 4213 4494 3641 4040 2689 3924 3218 3207 2733 4590 3178 3623 3359 4446 4064 4913 2863 4401 3099 3525 3613 2812 4314 3034 4399 4515 2911 4031 2700 3292 2653 2988 2809 3535 4069 3101 2951 3629 3681 4880 3325 4606 4537 4078 3006 4739 14 24 31 17 1 4 38 33 9 1 37 28 7 18 13 33 16 12 15 32 35 2 2 17 38 33 15 7 4 27 35 35 39 8 4 20 31 30 19 36 15 31 12 4 39 15 39 27 32 21 9 32 18 15 1 38 32 2 26 31 17 15 15 12 37 3 33 36 5 8 6 15 29 7 21 15 28 19 11 37 9 26 3 7 36 20 10 23 38 11 25 28 20 10 12 25 28 6 39 34 26 34 37 7 26 22 35 19 12 31 17 32 17 15 29 22 38 21 24 21 36 37 23 25 38 1 1 32 19 30 25 39 38 14 9 20 8 28 13 6 9 39 15 14 0 18 29 21 27 38 34 16 1 32 39 22 9 34 18 22 33 28 25 14 31 22 7 22 34 9 2 8 23 30 4 22 12 4 33 19 14 1 31 35 32 17 28 31 1 1 34 8 37 8 24 29 8 20 14 3 33 4 8 12 28 19 19 11 32 24 2 10 2
3464 3854 2946 4773 3128 3312 2952 4417 4541 4347 3372 4706 3916 4696 3761 2619 3656 3031 3551 4115 3089 4281 4388 4567 3868 2719 2780 4548 2912 4669 3221 4656 3032 4976 4772 4312 3999 3788 2511 4511 2905 4613 3633 3712 4423 3022 3387 4372 3232 4866 4488 4238 4429 2861 2745 3005 4476 4254 3932 2827 3720 2802 4544 4486 3898 3038 3643 2862 2728 4303 4816 3493 4518 3577 4132 4808 3280 3857 2701 4667 3563 3301 4708 2990 4546 3004 4882 4820 15 4294 3533 2746 4620 3909 4221 2768 4554 4635 2810 4243 3281 4704 2882 3230 3398 4502 2743 2636 4817 4379 4085 3245 2714 4422 3274 4447 3577 2676 4320 3437 3468 3899 3084 2973 2669 4780 4934 2628 4622 2886 3642 3231 3446 3707 4029 4969 4005 3504 3254 4399 4139 4339 4184 4388 2807 2807 2813 4077 3462 4460 4117 3653 4656 3091 4505 2737 2577 3311 4931 8 4874 3724 4604 3891 3846 3722 2949 3355 3604 3804 3354 3333 4130 4961 4256 3853 2764 2697 4394 3739 4362 4272 4126 2864 4994 2857 3315 4347 3260 3774 2718 3969 3351 3578 3331 3143 3061 3431 3478 3672 3899 4612 4411 4257 3710 4140 3253 2656 3844 4496 4597 2738 38 28 33 13 8 30 22 24 27 33 1 18 30 12 17 31 1 30 12 37 17 34 11 35 19 22 9 1 39 26 24 29 21 38 13 17 10 4 10 3 23 13 24 3 1 38 6 25 31 16 16 11 12 9 13 21 39 39 13 39 27 12 6 26 34 24 13 7 2 18 21 36 12 3 14 11 6 16 13 9 28 37 18 33 36 26 32 4 38 26 4 31 28 8 19 24 24 1 25 21 9 7 1 1 29 15 3 10 24 19 26 21 22 18 10 14 11 18 20 18 17 25 32 8 22 3 35 34 11 29 10 31 28 27 7 1 31 20 35 16 2 13 36 2 22 0 2 31 24 8 17 24 27 38 39 20 30 13 33 22 1 4 9 3 24 37 4 19 11 6 15 3 11 27 32 24 8 14 15 9 25 17 35 37 23 39 25 14 11 24 12 37 6 30 11 7 3 31 36 6 30 6 23 17 5 33 1 11 9 24 9 15 17
4494 2640 3654 3107 4235 4202 2865 3747 2781 4127 3304 3100 2572 3542 2874 2778 3501 3593 2524 3677 2721 4593 3025 2984 3829 3043 4346 3050 2935 2725 4298 4634 2962 2792 4997 2537 3590 3349 3871 2725 4588 4163 4587 4536 3125 2766 3812 3423 2632 3606 4564 4663 3609 2505 3519 3082 4803 3223 3206 4428 2531 3618 4557 3855 3882 3391 4376 3443 4969 3395 3267 2545 4389 3011 2828 4309 2641 4561 4574 3761 3116 3297 2611 3399 4792 4387 4012 4636 4446 4342 4382 3387 3732 2957 3367 4889 4074 2780 2782 3484 2696 3155 3937 3726 4260 4066 3468 4321 4332 3214 4243 4803 3560 2628 3273 3910 2717 4089 4234 2817 2591 3427 4378 4002 4962 3874 4041 3868 3171 3682 3076 4765 3673 4907 2940 3577 4988 3903 3036 3985 3879 4397 3829 4179 4943 3813 4959 4207 3837 3248 4182 4341 3723 4360 3206 3150 4071 3238 2850 3456 2634 4495 3305 3562 3463 3248 2902 4902 4772 3395 3275 2720 4051 3389 3967 4446 4143 3619 4800 4437 4669 3446 4922 4972 4201 3323 2892 2612 4137 2830 2825 2972 4984 2565 3215 4223 3326 3640 3658 2903 3999 2704 4974 4678 4480 3776 4129 2575 4333 4114 4359 3125 7 7 23 6 23 20 13 36 21 21 16 14 20 32 18 15 31 26 33 37 2 16 39 23 5 19 24 22 26 10 4 30 7 20 5 32 11 34 12 36 31 13 10 17 19 12 22 34 6 34 6 11 27 21 10 5 19 11 19 5 32 32 6 35 7 34 19 25 38 30 12 35 38 16 18 18 18 26 39 29 6 31 21 4 37 9 14 26 21 36 24 21 7 13 35 15 26 19 20 29 11 10 37 24 11 38 14 11 16 38 29 21 38 10 9 26 35 14 7 25 39 25 31 29 13 24 10 15 9 8 8 3 7 1 9 19 35 30 28 19 16 24 23 14 8 31 0 35 29 7 26 34 24 6 13 5 1 1 27 2 25 12 20 9 21 5 8 10 28 38 34 29 15 16 16 32 12 12 7 5 31 16 19 19 7 22 13 35 15 10 3 33 36 39 29 31 15 33 37 8 16 24 5 30 17 31 14 22 9 7 2 9 8
4112 3650 4594 3719 3627 3445 4857 2689 4072 4188 3859 4702 3277 4257 4124 2921 4761 2553 3850 4800 4339 4419 3672 3863 2684 4765 4121 3875 3528 3891 4522 4514 3325 2717 2864 3224 3042 4816 4956 4480 3581 4709 4387 3784 3143 3349 4776 2560 3907 4431 3995 3525 3842 3606 3898 2709 3597 3506 4272 3698 3002 4694 4253 3765 3646 4237 4137 3860 2652 3178 4230 2590 2526 3130 2608 3231 3119 4720 2988 3279 2881 3312 4203 3245 3495 2540 3738 2894 4601 3984 4205 2545 3057 3612 3928 3929 3239 3271 4710 2834 3675 4851 3157 3441 3493 2891 4263 4832 4043 3307 4318 2836 4531 3587 4620 4371 2708 2936 3785 3955 2848 4156 3767 4835 2533 3447 3900 3785 3873 4568 3667 4044 4145 4184 3498 4181 2696 3626 3497 3557 2982 4167 3223 4826 3722 4016 4357 4251 3393 3442 3455 3183 2681 3921 2830 3549 3853 3582 4868 3431 4669 4899 4471 3771 4699 3414 3475 4547 4546 2621 2668 3368 4367 2771 2681 2559 2507 4719 4457 3024 4970 4210 4632 3762 3890 3561 4918 3219 4654 4397 3863 2936 3501 2794 4301 3684 3270 4293 3017 4218 2761 3030 2639 3701 3213 4215 4142 3721 3282 4813 2973 4598 25 19 37 9 37 24 24 26 10 3 20 30 38 29 20 13 23 26 16 7 13 14 32 1 35 1 36 7 19 4 16 17 25 8 21 33 36 2 32 13 16 24 23 23 25 38 20 9 6 1 7 8 2 31 22 39 35 16 18 37 12 12 37 21 15 21 16 36 3 16 3 19 21 28 10 27 18 31 23 38 28 15 1 34 30 3 35 15 21 39 19 21 19 6 13 37 19 39 24 23 3 26 30 30 23 34 17 24 20 1 34 4 33 13 3 32 4 29 28 3 29 6 28 14 7 11 10 10 36 2 26 11 28 21 39 28 38 1 18 22 18 7 39 36 24 17 31 0 16 22 14 29 26 31 32 10 36 26 9 8 34 22 34 35 24 5 24 8 24 21 7 8 13 18 38 9 21 23 29 36 21 24 36 16 31 21 22 7 37 36 29 30 13 1 18 11 24 14 4 17 36 3 9 12 13 15 11 34 14 30 26 34 36
3138 4392 4715 3249 2719 2705 3947 3445 4224 4054 3209 4968 3926 3379 4956 3640 3411 3524 4182 4569 4318 4323 4754 3349 3900 2652 3594 3685 3535 3264 3258 4112 4783 4342 2514 4559 4716 2885 2967 2520 4314 3328 2971 2682 4862 3843 4242 3957 3378 4436 2841 4306 3071 3634 3201 3595 4643 3835 2553 4381 3510 4208 3453 4831 2692 3173 4084 3939 4060 4325 3372 3164 4701 4865 4652 4627 2746 2799 3295 3813 2658 3679 3801 4164 3777 4223 2837 2967 3615 3298 2713 4725 3704 3110 2776 4943 3206 3589 4336 4178 3992 2558 2837 3090 4479 4337 4242 4940 3388 4170 2673 3106 3890 3456 4475 2734 2897 3948 4783 2902 3490 2736 3813 2922 2643 3697 4022 3861 3787 4291 3715 3280 3492 4228 2632 3869 4766 2608 3590 3540 4678 3515 3161 4122 4984 3416 3281 2744 3820 2810 3137 3968 2503 2615 4633 3026 3110 3872 4419 4551 4452 3071 3984 4963 4851 4560 3161 4362 4158 4676 3157 3686 3778 3706 2756 3996 4398 3295 2768 3147 2948 2924 3058 4017 2814 2727 2958 3088 3388 4485 3259 2899 3273 3164 4726 3890 4053 2933 3644 3069 3779 3885 3570 2585 4310 3361 2893 4395 2658 3663 4150 4640 10 29 24 21 30 9 30 18 10 18 34 39 21 14 23 26 22 23 4 7 32 13 24 17 9 21 9 21 23 6 20 27 35 31 33 25 2 21 26 25 6 32 26 1 37 17 4 3 25 29 24 20 27 33 10 19 20 31 26 39 16 14 1 23 38 17 7 33 2 30 38 13 33 20 36 19 17 31 24 8 33 21 4 28 21 35 8 20 35 18 20 38 16 25 24 17 21 38 12 7 6 12 4 2 28 18 16 28 19 29 15 18 6 39 33 8 4 8 15 33 24 23 6 34 2 7 16 7 11 16 15 30 38 7 10 5 23 3 14 5 21 33 36 29 20 29 1 16 0 9 9 5 3 13 19 9 38 9 37 23 32 8 3 22 4 19 32 15 13 37 29 1 12 12 26 23 16 6 14 6 26 36 13 35 23 36 8 19 10 18 6 39 23 36 33 30 24 17 8 22 25 34 3 24 15 21 1 4 17 5 27 12 31
3588 3528 4176 3233 3610 4715 4287 3126 2670 2557 2958 2953 4493 3409 2671 3400 2791 4007 4033 4339 3385 4495 2540 4481 3557 4263 3209 3835 3456 3734 3257 2761 3973 3102 4932 3711 4185 4976 2692 3007 4709 4473 3329 3038 2853 2517 3693 3487 4851 3966 3468 3532 3905 4422 3091 3176 4886 4829 3920 3715 3113 4882 3455 2704 4797 4920 3988 2587 3383 3476 4350 3796 2613 2606 4456 2651 4891 2515 4699 4268 4904 3871 4388 3547 3377 4621 4575 2610 4536 3198 4785 4181 2595 3061 4561 3968 4634 3212 2753 4852 3848 3895 3945 3176 3031 2791 2874 2719 4704 4342 4324 4792 3952 4085 4924 4711 3479 3414 4537 3456 4713 3303 3904 4378 4537 2945 4534 4456 3603 3561 2717 3901 3236 4633 4646 3222 2916 4630 4003 3654 3933 4412 4516 3751 3153 2819 4705 2822 2936 2910 4789 2893 2697 4927 4881 3797 3517 4887 2726 4715 3710 3769 4437 4337 3382 3010 4411 4310 2852 4781 2624 3466 3505 2771 3399 4439 4388 3119 4053 2964 3125 3806 4649 3311 4673 4560 3405 3167 2817 4756 2778 3237 2595 3665 4574 3776 4478 3764 4951 4162 4647 4262 3348 2730 3889 3928 3145 4816 4692 3193 4465 2996 10 1 27 28 1 8 13 30 7 35 25 19 27 39 14 2 31 30 19 28 1 1 14 4 39 8 30 15 18 7 17 12 30 17 33 13 11 8 14 7 1 14 5 34 3 3 15 10 29 27 28 7 7 10 28 6 28 13 32 27 21 36 22 39 14 23 2 11 19 1 23 4 6 36 11 5 24 24 38 22 4 39 28 25 37 4 27 16 7 3 2 28 10 29 19 27 24 18 29 29 36 29 16 24 24 38 17 26 19 33 16 19 4 11 3 3 10 1 34 7 34 3 33 38 16 1 2 14 20 9 9 17 24 5 17 28 35 38 17 18 16 5 5 23 5 17 19 1 1 0 4 15 31 39 22 36 24 22 3 9 8 1 17 5 24 31 14 35 28 35 21 5 23 38 18 7 16 22 2 37 11 5 35 33 8 30 18 14 1 17 29 34 7 25 36 38 39 4 22 26 31 21 30 7 20 29 13 10 20 14 5 9 5
4404 3832 4611 3366 4783 4837 2529 3327 2648 4983 3570 2517 2692 2703 4194 3328 4724 3222 3377 3748 2805 4758 4424 3439 3903 4351 3972 4650 3880 2936 2546 3613 2667 2881 4063 3062 3014 2741 3541 3191 3292 4159 3019 4298 4938 3716 3604 2791 3706 4019 4559 3990 2974 3781 3704 4702 3501 3735 3243 2716 4921 3953 3191 4643 4178 4867 4552 3208 4444 4282 3723 2831 3046 4425 4321 3760 4839 2548 4288 4007 2555 2611 3791 3653 3820 4848 3404 3867 4640 4637 3570 3182 3353 3310 2540 4686 2909 3475 3856 4662 3959 4749 3151 3941 3251 4348 3057 3382 4114 4700 2687 2882 2673 2940 2990 2949 3907 3965 4341 3510 2849 4614 4346 4053 3259 2529 2797 3044 3038 4133 3462 3514 4788 4758 4853 2527 2704 2834 2836 3153 2763 2626 3884 3983 3441 4474 2990 2946 2977 4986 3647 4551 3247 3219 2881 4337 3131 3053 2541 4374 4357 3114 2854 3010 3609 4802 3387 2510 3281 2893 4397 4287 3055 4322 2676 4532 2857 4584 4976 3841 3535 3364 4841 4582 3503 3701 3741 2511 4933 3315 4196 3746 2810 3226 3040 3434 4666 3452 4413 3404 2730 2892 8 3528 4200 3910 3737 3149 2748 3325 4641 3263 31 16 18 14 7 3 29 29 9 7 3 33 29 25 6 30 25 15 34 21 32 29 3 6 8 18 9 21 15 34 24 24 2 33 11 26 27 36 33 35 13 8 29 13 26 28 24 37 24 1 35 39 5 13 13 33 1 29 28 11 19 9 31 34 14 12 31 12 8 17 35 6 1 20 22 10 25 26 7 21 29 3 13 17 26 4 5 35 38 34 7 32 1 16 2 17 5 14 2 10 20 23 5 10 21 20 12 24 21 33 26 33 39 21 29 19 34 13 24 16 5 35 31 31 11 29 4 4 22 29 34 34 15 4 24 8 4 28 28 27 20 27 24 37 15 10 16 24 29 23 0 26 24 25 37 36 13 16 3 18 29 27 21 25 33 21 22 28 31 35 34 30 17 38 12 20 20 16 39 23 5 6 25 14 26 38 30 4 23 18 8 31 8 12 13 17 8 28 36 30 31 7 17 1 18 5 26 6 39 36 33 10 7
4131 2901 3918 4046 4880 3296 4006 3093 3555 3170 4322 4678 2840 3470 4630 4588 3472 3869 4224 4121 4495 16 4400 3574 2961 4522 4989 4951 4401 4590 4668 4282 3306 4387 2612 4754 4578 3728 3094 2557 4866 4804 4747 3496 4343 3961 4699 3990 4435 2889 4229 2760 3614 4379 2653 3232 3625 4909 3583 4233 4279 3887 3339 3184 4844 4360 2980 4488 4136 3716 3947 3918 4427 3138 4234 2522 2991 2967 3292 4622 4041 2920 3490 4843 3180 4361 3757 4277 3872 2503 3149 3710 4474 2794 4464 4977 3632 2519 4504 3747 4669 4230 4537 4813 3013 4440 3213 2607 3807 4444 3753 3505 2947 4415 3905 4996 2826 4708 2548 2907 4729 3744 3705 4100 3303 4536 2685 3953 3676 4483 4605 3295 4408 4473 2983 3924 2647 3917 2694 4999 3894 4618 2964 4492 3003 3846 3703 2874 4628 2945 3799 3537 3993 3223 3351 2940 4635 2861 4250 2536 4039 4857 2824 2632 2541 4480 2764 4088 4786 2537 4877 4532 3873 2507 4712 3749 2743 4428 3870 4127 3532 4097 3974 3034 4396 4888 3246 3132 4207 3699 2772 4898 2776 2697 3267 2736 2617 2578 3507 3424 4302 3020 4175 3268 4217 2640 3640 4590 4571 4903 4476 3869 30 30 37 30 4 15 21 26 16 4 29 27 32 2 15 33 22 18 3 25 9 39 37 6 13 24 26 2 20 38 2 25 28 29 1 9 3 10 9 20 17 34 30 24 11 2 25 27 23 39 13 3 19 14 29 7 36 32 13 35 15 30 13 6 20 7 17 12 17 34 23 34 14 37 8 15 28 2 19 17 28 11 24 5 18 18 5 3 15 24 5 1 17 26 27 10 32 32 4 29 39 15 26 26 38 11 8 38 1 1 32 21 9 4 18 29 3 8 17 10 7 7 30 21 35 38 23 29 38 15 15 11 7 10 7 36 39 12 35 8 20 6 10 35 2 35 29 30 9 10 16 0 10 18 9 28 6 3 3 23 4 30 27 21 22 7 20 35 22 36 20 4 34 21 34 23 30 39 11 17 36 16 8 30 3 29 7 4 6 6 9 22 5 32 18 36 20 37 5 34 31 17 22 7 1 2 5 1 25 16 17 8 2
4288 3670 3409 4853 2617 3907 4583 2618 4945 3254 4893 3440 3616 2569 2757 3609 2988 3021 3700 4146 3305 4199 2500 4376 2752 3375 4271 4898 4538 4305 4966 3040 4603 2900 3788 3702 2619 3162 4776 4508 2834 3090 3191 3241 4974 3043 4193 4113 4995 3336 4095 3557 4888 4863 2774 3209 2828 3949 4079 4372 4473 4039 2634 4075 4091 4802 4109 4419 3465 4199 4388 3238 4313 2571 3189 3342 3194 3568 3090 4820 3400 4427 3820 2874 3259 3876 4324 2505 4141 3839 4445 2972 4036 3507 2910 4105 2841 4114 4414 3074 3070 4987 4815 4536 5 4930 10 3752 2776 3626 2842 4604 3459 3191 3760 3934 2553 2874 4355 4557 4627 4917 3339 3420 2546 3230 4222 3024 3752 3195 4982 3144 3198 3420 10 2735 4614 3220 4466 4113 3656 2794 3796 4947 4448 4502 4199 3561 3691 2992 4627 3196 3200 2929 4339 4071 4830 2876 2966 4982 2549 4816 4978 4150 4091 4867 2651 4744 3458 3171 2837 3887 4552 3199 4127 3549 4351 3568 4356 2767 4445 4497 4807 4905 3069 2995 3629 3355 2715 3790 4337 3038 4104 2852 3328 3220 4421 3785 4361 2652 2658 2789 2934 4579 4894 3503 3934 2737 3146 3061 3550 2737 19 21 27 31 11 29 1 34 29 24 1 28 13 19 31 18 1 7 1 8 16 38 14 20 2 29 10 6 26 18 34 39 25 35 24 9 23 35 9 3 16 31 36 18 9 13 20 23 19 34 6 14 11 36 14 36 30 7 12 27 10 22 5 20 15 17 32 30 17 31 31 6 34 22 7 17 10 4 18 8 27 2 16 25 25 5 8 21 30 26 3 3 7 30 24 39 39 14 9 10 17 19 4 21 17 2 35 9 8 33 23 36 4 28 31 12 10 12 5 35 22 25 30 23 21 17 19 12 39 12 37 2 25 30 17 16 19 17 33 21 33 36 7 29 9 33 34 23 17 2 13 19 0 5 10 27 15 24 31 7 9 5 4 33 37 19 22 29 12 6 3 28 11 39 36 32 8 11 25 23 2 27 36 6 32 17 20 20 11 4 23 24 3 31 14 4 24 32 12 23 36 30 23 9 19 16 3 4 1 34 20 10 12
2605 4616 4307 3833 3642 3454 4314 3633 4973 3107 3535 2606 3071 4861 2598 2934 4253 4926 4118 3121 3923 4790 4854 2806 3352 19 4088 2622 2704 4410 3025 4524 4467 4740 3083 3771 4935 3599 4046 4723 3261 3913 3785 4842 2636 3440 2834 3701 4930 2827 2893 3508 4460 4843 3629 4803 4948 4684 2951 2682 3326 2885 4786 2879 3731 4474 3770 4374 3563 3026 3471 3317 3510 4912 3868 3674 4130 4969 4258 3378 3409 3830 4088 3557 3794 2863 2862 3473 4990 4837 3542 4950 4159 4380 2916 4053 4279 3470 3288 3857 4545 4119 2652 3165 3525 3384 2834 4797 3628 4557 3767 3555 2889 2745 3344 3955 2565 4819 3221 3482 2527 4690 3317 4233 3340 4804 4608 4614 4835 2779 3394 4149 3726 3760 3181 3537 3549 2594 3282 4314 3388 3319 3621 2502 4566 2541 4514 3019 3071 3583 3030 4934 3490 4460 3131 4764 3625 4637 3886 4862 3749 4331 4549 4198 4182 4035 4526 4024 3562 4399 2532 4222 4558 4298 4171 4435 3433 4121 3068 3752 4474 4879 3530 4685 2925 4009 2705 2977 3906 4996 3348 2719 4156 3120 4516 4244 4408 4251 3619 3192 4871 3705 4256 3756 4914 3781 3361 4367 3070 4372 4086 2934 24 2 17 35 39 30 14 3 39 2 15 29 10 19 8 16 38 24 4 19 38 26 38 3 14 2 39 37 1 31 12 28 31 7 20 31 32 17 8 3 6 16 1 31 18 27 1 37 26 30 4 36 30 3 3 6 14 22 4 25 33 23 35 16 33 32 28 33 36 25 38 23 29 11 17 33 11 24 23 39 11 33 13 27 35 3 24 36 5 34 36 13 35 17 12 20 10 33 34 1 7 3 37 34 20 5 9 13 38 6 11 29 21 18 22 20 4 27 25 13 36 3 18 10 35 36 37 39 38 22 22 37 13 26 28 20 4 14 20 33 10 1 38 35 26 7 39 9 28 30 16 17 13 0 1 28 21 5 5 2 21 18 25 17 5 38 6 8 10 22 6 37 21 21 32 24 35 31 22 12 30 29 12 20 33 10 4 37 22 17 39 34 2 1 18 27 25 28 13 18 14 26 22 12 15 24 31 39 13 5 10 30 20
3391 4590 3602 3523 3410 4341 4563 4843 3792 4544 2589 4060 2963 3429 3068 3221 2815 3219 4051 4409 3545 4083 3869 4593 2587 2513 4636 3859 2654 3920 4962 3202 3633 3065 2684 2875 4394 2626 4912 3187 3507 3197 3652 3096 4955 3847 4953 4383 2797 4115 2643 3034 3968 4798 3393 4175 4341 2916 3553 4092 4515 4490 4843 4861 4891 4675 3618 4494 4379 4375 4137 3641 3793 2674 3803 2544 3371 2569 4322 2669 3900 4392 4875 3218 4320 4291 4867 3889 4725 2705 3182 3985 4802 3760 4782 4128 4733 2636 4442 4055 3571 3846 4593 3903 4568 2695 2684 3596 2974 3826 4664 4625 15 2904 3754 4300 3391 4949 3916 4559 3432 4935 4430 4702 3364 3977 4767 2945 4766 3825 4050 4017 2890 4559 3289 3839 3822 4632 3617 3033 3346 2795 3718 2834 4393 4790 3211 3987 4133 4982 2929 4666 3145 3140 2675 2931 2826 2529 4216 3215 2689 4339 3882 3760 4470 3962 3904 3610 2629 3184 3762 4192 3964 4279 4152 4260 3606 3748 3235 2632 4114 2887 4728 4150 4814 4138 4660 3537 4335 4714 2602 3660 3537 4675 4445 4040 4292 4698 4544 3579 3102 4506 4780 3961 3853 3303 2838 3155 2792 3382 3847 4901 18 11 30 36 11 38 22 33 2 4 33 36 7 3 24 26 7 32 30 7 24 12 13 26 25 26 14 9 5 4 3 3 16 20 8 22 8 6 34 24 21 5 11 37 16 8 21 34 39 20 30 18 24 27 29 30 1 11 3 14 11 6 29 32 3 32 10 38 3 4 39 10 12 25 33 20 13 8 36 31 4 12 8 5 31 16 17 34 20 37 39 21 24 3 28 20 9 7 15 2 15 37 37 34 6 6 14 35 14 3 10 24 5 8 16 7 17 3 37 5 10 27 30 34 35 6 29 30 15 32 7 15 16 39 32 20 1 21 26 32 34 25 11 4 10 9 13 3 30 2 21 8 5 34 0 23 37 26 16 21 9 12 29 20 22 7 39 7 13 38 32 18 4 4 34 24 26 16 6 32 5 29 29 9 23 32 21 18 19 38 25 11 33 20 10 38 23 11 35 12 6 13 33 24 39 3 30 1 14 7 9 24 32
3669 4944 4075 4392 4522 4520 3322 2871 4524 3507 3909 2594 3562 2736 4490 3053 2973 4281 3527 2506 3629 4705 4511 4988 3633 2508 4771 4289 4063 2822 3266 4456 4856 4315 3339 2957 4476 3369 4976 3514 2824 2829 2503 4378 4216 3008 3793 4751 4863 4184 4969 4169 3955 3025 3766 2525 3682 3848 3565 3282 4318 3029 4810 4839 4846 2862 2628 3381 3960 4402 2847 4754 2880 3174 3489 2901 3355 3608 2952 2697 4391 3455 3279 4542 3417 3720 2614 4236 3940 3598 3789 4968 3884 2755 3805 4531 4420 4926 3407 3037 4698 3610 3694 3708 4536 4938 3900 3354 4608 3513 3548 4936 2680 4968 3597 3982 4894 3980 2589 3397 4532 4973 4282 4492 4787 3858 3639 3285 4091 3672 4891 3185 4772 3213 2978 3764 2536 3071 2815 3431 2701 3232 4888 4345 4875 3777 3787 4647 4668 2507 3464 4477 3708 4364 2891 4127 4506 4690 4734 4664 3104 4898 3192 2954 3081 3474 4604 3924 3657 2885 3483 2765 4159 3661 3391 4829 4434 4751 2591 2904 3266 4366 2776 4997 4031 3926 4204 3016 3033 4772 4961 3801 3249 4955 3789 4435 4251 3113 4572 3908 3383 4844 4664 4085 3603 4357 4667 3516 4993 3358 4646 2696 11 20 15 32 22 2 10 17 39 8 33 24 9 13 16 10 34 35 29 22 5 26 38 17 6 16 1 37 3 10 32 7 25 31 33 22 23 15 31 7 11 21 18 25 10 6 25 26 8 15 33 21 35 21 6 17 11 26 8 11 32 19 33 1 11 38 3 21 19 35 31 17 24 12 6 31 8 18 6 4 26 24 15 39 36 27 10 18 15 24 4 24 6 14 33 38 16 7 31 13 9 12 33 30 26 8 18 37 6 17 8 8 7 38 20 35 1 39 23 3 24 28 11 18 1 7 19 5 29 5 9 6 8 4 13 33 12 28 29 6 4 36 6 33 28 22 6 2 8 11 10 29 5 31 39 0 34 4 20 9 24 30 29 17 18 15 30 2 3 10 32 31 20 19 17 39 11 39 30 23 3 1 36 23 7 13 3 31 7 11 31 35 3 2 35 4 21 3 20 9 22 36 12 1 38 15 4 37 22 12 9 27 14
4755 4388 3457 4363 3711 3950 4818 4450 4736 3159 4675 4749 4751 4957 3052 17 3616 3178 4575 3075 4885 3102 3464 2576 3890 2752 2705 4198 4412 2650 3813 3919 4960 3231 2927 3940 3573 3316 2822 4101 3319 2998 2602 4758 4110 3618 4506 2751 4173 4285 2710 4353 2884 4226 3063 4751 2634 3294 4674 4036 3979 4623 3622 4561 4830 3429 3373 4071 4103 4631 3247 2834 3247 3304 2702 4292 2992 4829 4958 2552 4420 3145 4992 4514 4936 3581 4094 4172 4969 4745 3929 2888 3179 4466 3136 3693 4529 4169 3146 2815 3136 4699 3827 4894 2669 2867 2603 2535 2992 3586 4336 3886 3904 2828 4593 4224 3498 3427 4075 2855 3847 14 2593 2554 4948 3370 3275 4328 4557 3327 3119 2869 3233 4662 2822 3858 4010 3739 3960 3812 4400 3167 4691 4855 2741 2557 3124 19 4161 3960 4453 4932 3713 3198 4924 2626 4530 3640 4317 3320 3419 2774 2888 4868 4602 4835 2946 4900 3445 4098 3248 4570 4576 4576 3733 3378 2621 3275 2923 3855 2712 3512 4940 4594 4084 3350 3410 4280 4319 2719 3677 3818 3310 4375 4387 4093 3055 4278 3778 4963 4414 4482 4377 3233 2903 3684 3936 3339 4133 2623 4013 3524 22 38 24 39 17 12 16 5 3 37 17 23 25 4 29 29 35 24 39 28 26 25 18 5 7 15 10 33 24 28 13 32 30 15 29 37 22 24 32 14 30 9 18 11 1 35 15 25 1 2 19 31 36 15 6 23 13 26 19 15 7 11 26 37 39 22 17 39 11 3 37 12 6 3 10 5 27 33 11 27 4 18 38 1 1 22 3 13 30 12 33 35 27 21 24 22 19 26 1 20 17 37 31 6 11 37 14 25 31 28 35 26 4 39 34 15 3 18 37 3 39 33 26 31 34 2 32 14 36 16 21 31 2 15 18 14 27 9 7 13 4 4 30 9 4 36 25 2 13 3 2 7 18 23 21 3 0 4 26 4 7 7 3 28 30 30 1 15 14 20 30 37 1 7 24 26 27 5 3 21 18 37 30 10 15 18 22 27 30 2 16 27 25 37 18 35 16 37 9 18 3 32 34 1 7 18 34 39 29 18 36 13 19
3298 3020 3520 3731 3954 2548 3706 3506 2555 2603 4814 4577 4936 3397 2873 4495 4013 4783 3715 4079 3386 3031 3928 3038 2565 2544 3476 2756 4466 3686 2847 4736 4808 3393 2938 3101 3384 3852 3147 4635 3937 4104 2952 4900 4525 3563 2506 3955 3019 4886 2557 4909 3812 4724 2637 4660 3066 4633 3846 3905 2560 2717 4947 2740 4937 3144 3399 2783 4919 4563 3067 3640 2769 2704 3331 4983 4716 2729 2655 4277 3709 3074 4616 3383 2866 4731 3737 4160 4898 2983 3272 4840 4193 3779 4090 2869 4884 3398 3319 4670 3890 3145 2882 4394 4357 4450 2790 2661 4541 4919 3696 3899 3250 2835 3691 3049 3164 3302 3672 2539 3478 3284 4499 2585 2534 3443 3315 2852 3462 3884 3917 4348 3147 4674 4086 4837 3581 2676 3149 2872 4150 3776 3929 4178 2916 4655 3785 2863 4264 4887 4453 3319 3896 2519 4832 4274 2722 3185 4308 3221 4408 16 4605 4017 4172 4267 3093 2504 3829 4933 4496 3511 3280 2540 3854 3400 4312 4687 2975 4425 3728 4323 3944 4026 3052 4025 3772 3716 3733 4599 3174 3789 4329 2590 2650 4624 4415 2803 4119 3903 3468 4550 4165 3567 4771 2690 4632 3754 3013 4356 4286 4445 29 20 6 36 27 35 26 34 37 1 33 28 38 34 4 15 4 10 39 25 10 2 27 35 12 19 12 39 9 32 31 19 19 29 36 39 9 3 30 16 5 12 7 1 29 29 16 20 10 12 24 36 12 1 25 20 10 24 28 10 18 34 4 3 1 28 9 26 8 31 39 33 24 14 2 17 16 7 31 39 30 39 12 2 38 24 2 8 36 19 6 4 16 15 30 18 26 39 32 3 39 30 26 6 31 9 28 2 12 2 34 4 18 29 28 19 35 17 11 14 31 17 18 36 39 31 26 17 32 14 6 32 37 32 33 9 20 24 29 1 39 24 21 20 24 27 12 37 3 21 20 18 36 15 6 2 34 0 5 3 16 37 14 20 36 32 39 5 25 23 4 13 36 25 36 33 9 24 11 7 29 14 36 8 15 3 28 30 23 23 38 2 23 36 34 3 8 36 7 32 10 5 33 11 28 1 23 16 21 13 34 8 9
4817 4126 3445 4821 4144 2898 3821 3849 2723 4886 3220 4996 4702 4477 3376 3224 2580 4591 3030 2824 4401 3983 4399 2526 4685 4805 2741 2500 4049 3666 4743 2535 2895 3116 3686 3725 2557 4137 2922 4802 4281 4608 2891 3182 3866 3026 3175 4466 4902 3570 4689 16 3066 4897 4503 3728 4023 2570 3779 3948 4477 2995 4862 2999 2578 4654 3897 4584 3562 3090 3727 2974 3077 2598 3779 4823 4510 2845 3410 3361 4779 3300 4416 3306 3275 3720 3421 2862 4511 4005 4492 3756 3799 3473 3263 4215 3965 4211 4885 4423 4482 4330 4926 4398 2757 4708 4785 3687 4072 3838 3460 4340 2636 3538 2561 4240 4779 2570 2702 4388 3733 4210 4515 3901 4286 3414 4771 2884 2503 2814 3040 3911 4876 3387 2903 3075 2755 3578 6 2744 4659 3602 2869 4537 4303 3920 4850 3547 3645 4460 3070 4291 2771 4891 3203 3422 4590 4981 3666 2658 3683 3863 3868 4604 3895 3136 2600 4890 4935 3406 4788 4085 4177 3047 2820 3820 2867 2576 3677 4955 3710 3747 4063 4601 4558 3912 2694 3463 3569 4191 2706 4292 4620 4001 4771 3072 4002 4145 2804 3940 4622 2605 3192 4150 4857 3814 4826 4017 2697 2680 3842 4521 30 25 20 19 20 11 18 13 11 16 3 35 18 26 8 24 31 39 35 18 31 36 22 32 7 38 36 2 32 2 29 39 5 2 10 19 7 5 13 27 28 25 3 5 18 8 30 11 32 27 2 34 2 1 28 8 15 1 10 9 26 17 14 6 7 6 12 31 14 30 21 25 29 30 9 26 37 39 13 38 8 26 7 11 2 8 15 30 6 13 17 20 32 29 7 28 27 13 37 36 34 38 8 29 2 33 22 34 22 10 17 25 19 6 10 35 25 4 19 9 18 9 34 5 16 5 6 21 20 35 39 15 2 12 7 15 13 1 39 23 9 21 13 36 4 13 3 28 37 28 15 32 4 33 8 5 39 16 0 11 15 15 34 34 6 17 18 17 13 34 39 28 18 37 35 9 22 25 35 5 5 19 15 10 19 35 15 37 36 8 38 24 10 29 10 9 21 23 12 17 19 28 3 26 33 21 5 28 35 18 24 22 37
3818 3176 4619 3795 3825 4310 4698 3408 3150 3307 2544 4088 3971 2633 2929 3815 3525 2673 3922 4671 2856 2739 4737 4608 3640 3543 2550 3834 3034 2934 3048 4265 4192 4777 3938 3734 2980 4886 3307 3154 3636 4118 4652 4541 3528 4760 4554 4095 3114 2958 3907 4584 3215 4510 4901 3105 4378 3820 3322 2879 3518 3153 3387 4920 2524 2737 3434 2763 3475 4622 2763 4751 4502 2693 3423 3606 3967 3850 2540 2886 2541 4382 3183 3639 4047 4310 4350 3640 4626 3503 3965 3207 3207 3644 4799 3278 3244 4848 4359 3545 3412 3668 4874 3849 3682 4373 3070 2923 2697 3606 4932 4623 2576 4907 3631 3361 2953 4822 2596 4994 4751 4729 3832 4726 4841 3213 4235 3836 3853 3390 4447 3352 4917 4243 3362 3767 3344 3429 4164 4221 4089 4165 3257 3773 4344 2701 2851 2628 3261 3790 4476 3340 4677 3644 3967 4832 3339 4413 3730 2956 2516 4697 3714 2717 4535 3839 4278 3607 3310 4103 4325 3706 4648 4661 3261 3977 3350 3574 3163 3659 3069 4673 2945 2531 4747 3927 4559 2824 2927 3783 3543 3415 4237 3762 3399 4628 2675 2823 2628 3437 3404 3191 4964 2721 4730 4470 2592 4721 2536 3607 3589 3981 30 7 10 5 12 39 10 26 18 34 10 3 14 16 1 36 34 14 11 20 17 7 15 39 1 13 35 37 24 17 6 31 23 10 38 3 13 23 5 3 19 30 8 24 14 31 11 23 28 34 30 35 8 12 23 28 29 37 3 4 29 20 3 5 36 11 8 3 21 22 35 36 30 25 15 31 14 35 28 18 33 33 31 10 15 25 7 27 31 11 30 9 8 1 37 26 12 7 33 14 18 35 24 12 1 17 35 13 7 26 7 1 35 12 14 31 11 22 18 3 24 37 25 29 2 33 5 23 20 12 5 21 30 20 12 30 38 31 18 27 23 10 22 31 13 4 7 35 13 38 32 35 8 10 27 18 9 10 3 0 37 18 16 29 2 5 15 9 37 20 35 28 33 1 9 7 18 12 13 22 14 26 2 36 28 5 27 31 14 22 20 27 30 29 15 33 20 3 37 31 15 21 13 23 26 16 37 3 27 19 28 31 3
3018 3088 2543 4494 4674 3780 4325 2631 4285 2536 4019 4570 2997 2892 2504 3698 3233 4056 4735 3778 4551 4792 3079 3340 3074 2632 3535 4338 3021 4303 3205 4153 4472 4434 3942 4186 2564 3911 4012 2653 2721 4484 4690 4488 3262 3532 4105 4419 4064 4315 4399 3477 2515 4638 3718 3480 4594 4040 2763 2580 2854 3728 3265 4534 3328 3792 4413 4726 4429 3167 2537 3289 3801 4410 4042 3533 3593 4798 3816 3362 4473 2600 3389 2701 3935 4027 4880 3751 3190 3122 2881 4443 4291 3144 4474 3974 3956 3005 4683 3899 2791 4975 4346 2647 4627 4674 4412 2936 4905 3543 2875 4389 4650 4051 3184 2895 2726 3709 3444 4385 4475 4890 2713 3851 4027 4371 2530 4601 4040 4723 4429 4638 4553 4558 3764 2614 3367 4389 3480 4308 4138 3694 2947 3780 3724 4406 3620 3384 3766 4939 3693 3529 4684 3564 3137 3596 2874 3073 4524 3834 4935 3489 3939 3611 4857 2602 3044 3430 4419 4480 3911 3569 2685 3152 2801 2669 4616 3012 3955 4360 3615 3888 2694 3606 4939 3438 3261 4138 4487 4086 4546 3418 3362 4571 4007 4105 4745 3646 2673 4392 3921 4761 4818 4387 4552 3692 4950 3000 2690 4235 3699 4162 1 5 5 35 2 25 19 10 34 3 9 28 5 21 32 38 20 32 25 7 5 36 29 29 24 30 4 35 26 20 34 31 37 32 26 21 20 11 19 16 9 3 24 16 21 36 30 16 32 28 32 1 28 31 34 16 5 5 38 26 38 24 3 16 3 30 34 32 30 1 21 11 4 7 24 39 37 1 21 30 33 26 1 4 36 21 23 7 37 33 32 29 9 18 14 6 39 22 27 35 9 3 13 36 4 8 8 7 11 25 9 27 13 38 35 27 21 35 27 18 25 4 39 33 23 20 32 2 39 9 25 28 19 27 8 19 21 22 36 9 1 21 3 24 7 15 28 17 22 20 21 19 26 7 7 16 22 6 2 33 0 6 23 17 21 30 32 36 35 12 6 8 11 32 24 25 38 19 13 9 34 16 14 4 16 36 1 18 16 36 37 17 5 10 36 2 23 12 16 32 32 13 17 33 14 10 28 5 6 3 17 12 38
3331 4393 3771 3619 4718 4430 4734 4193 2990 2972 4551 4379 3264 2516 4100 4455 4083 3426 3361 3267 2872 4175 2723 3074 4611 4829 2542 4704 3087 3350 4468 4618 3387 4339 3088 2676 4842 3161 2502 3368 4250 4782 4689 4999 2964 4476 2537 4853 3038 3556 2563 4230 4933 4360 2706 3012 4267 4787 2685 3359 4388 4214 4074 3208 4215 3193 3196 3271 3319 3964 4962 3870 3774 3023 4061 3040 3238 4285 4974 4195 4335 2596 4015 4904 18 2948 4160 3427 2563 2721 2680 4020 2968 4632 3828 3276 4728 4597 3230 4173 4172 4377 3255 2645 4441 2870 3143 2594 4213 2844 9 3956 4459 3765 4157 4318 4233 3647 4112 3895 4446 2708 4872 4048 2961 2551 3412 4996 2823 4882 4062 4268 4986 2842 3099 3450 3936 4835 3833 3184 3524 4316 4471 3963 4972 2536 3808 2929 2907 3351 3921 3766 4538 3191 2884 3071 3814 4626 3069 4986 4064 4490 3261 4926 4930 4242 2796 4398 3804 4379 3885 4034 2553 3663 3051 2659 2724 4306 2883 2672 4473 3957 4747 3897 3881 4165 3737 2658 2768 3323 3670 4617 3786 4864 2977 3810 4170 4532 3287 4379 3758 4354 4157 4522 3166 3923 3484 2907 4334 3065 3255 3145 20 17 29 20 28 11 5 14 12 17 16 10 24 13 30 23 20 2 10 23 30 14 35 22 16 3 5 33 3 10 29 9 18 24 25 18 30 3 4 37 27 30 11 35 4 32 37 24 1 32 36 22 18 8 21 33 23 1 37 15 21 19 27 25 32 27 6 21 8 14 27 16 10 12 8 39 6 2 24 13 36 26 20 17 11 36 3 3 19 26 12 20 17 29 21 5 23 13 29 39 39 36 31 38 7 33 29 13 19 12 7 23 3 26 22 17 18 12 11 25 2 6 21 24 26 3 33 28 14 35 34 8 33 34 28 37 21 8 18 29 37 7 20 7 13 27 13 32 26 10 1 9 24 20 13 30 22 6 11 7 27 0 3 39 23 21 32 27 14 30 29 27 25 37 13 35 22 30 31 30 3 21 22 16 19 31 2 23 28 33 10 14 25 30 14 18 30 36 34 19 1 7 1 8 9 8 39 26 10 1 5 31 17
2975 3332 4274 2580 4124 2946 4138 4737 2852 3995 4261 3918 3531 3939 4215 3352 4772 4593 4578 4906 4174 2845 3193 2592 2936 2966 3734 4286 4105 4677 4113 3825 3123 2574 3020 3574 4398 2764 4406 3884 4690 3858 3174 2651 3788 4677 2507 2693 4378 4256 4682 4021 3574 2816 2860 2976 3382 2943 4011 2637 4005 4222 3624 3185 2864 3239 4450 4767 4682 2998 2791 3950 4354 3624 3378 4765 4881 3294 4393 2999 3757 3988 4755 2598 3724 2937 3186 3215 2949 3396 3845 3361 3915 3206 2958 3319 3827 2531 4845 4082 3657 4400 3018 3418 3710 2844 2825 2753 2631 4304 2706 4167 4335 3989 2999 3820 3318 4000 3514 4387 4409 3981 3826 2664 2991 4405 2787 3997 4877 4069 2696 4884 3446 4134 3071 3393 2886 4682 4748 3343 2734 4959 4824 2728 2621 3546 3997 3078 3597 3333 3166 4093 3056 3438 4884 2618 15 4156 4317 4168 2655 2542 3235 2830 4755 4053 4986 4761 4329 3583 4270 4694 3573 2914 3485 4977 3552 4295 3784 4615 4686 4412 4144 4699 4214 3969 4756 4272 3034 4404 3253 2944 3014 4278 4177 4481 3234 2887 3154 3191 2843 2966 3216 4173 4460 2892 3831 4074 2943 2942 3127 2638 11 24 5 8 35 12 37 24 2 29 11 23 2 36 7 34 4 38 33 5 10 18 11 28 9 2 21 34 11 2 22 10 24 2 1 15 37 30 13 22 27 32 23 36 6 6 7 5 18 14 2 31 16 5 6 15 7 31 24 20 17 2 4 13 25 25 15 3 27 12 10 6 29 5 12 1 31 17 31 15 20 33 29 4 9 15 31 8 26 16 21 23 9 18 10 24 18 26 32 39 7 30 6 31 29 35 8 24 2 30 39 31 35 5 28 25 30 29 9 38 21 19 21 22 38 23 17 21 19 31 12 21 26 29 5 32 23 15 8 18 4 11 23 24 6 32 7 29 17 37 36 29 14 9 28 35 20 39 30 33 1 3 0 1 33 33 14 22 25 16 14 10 31 28 20 14 31 27 26 36 14 34 17 8 7 27 25 27 3 27 11 19 6 28 27 26 28 21 34 8 26 25 1 25 5 33 27 33 32 35 20 25 4
3178 2895 3867 3637 2538 4432 2515 4094 4634 3204 2648 4738 4054 4316 2989 3368 4383 4093 4530 3313 2829 4828 3591 4340 3132 3470 2943 2504 4708 2564 3790 2651 4884 2814 3434 4803 3630 3619 4806 4082 4200 3928 4073 4074 2660 3157 3064 4223 4518 3223 4803 4285 4332 4357 4257 4572 3716 4791 3577 4487 4378 4709 4392 3438 3530 4871 3126 4466 2709 3895 2786 3822 3460 3078 4546 4508 4881 2516 4449 3753 4748 3974 2813 3197 2637 2856 4206 4045 3220 3175 4510 3604 2825 2618 4165 4499 3946 2778 4088 4923 3924 4591 4643 3104 3503 4016 4184 2913 4180 4677 2513 4009 4035 4489 4218 4282 2778 3866 4980 4072 3057 3673 4345 3007 4760 4592 2867 4767 4156 2668 2734 3018 4802 2939 3788 3392 4559 3951 3137 2689 3492 3271 3926 4771 2906 3862 4934 3525 2500 3785 4671 4509 3434 2783 4193 4463 4860 2773 4914 2795 2556 4344 3036 3673 3386 6 3677 4607 3426 3233 4206 2721 4155 4861 2888 4044 3546 4530 3709 4142 4659 4784 3963 3612 3766 4659 3763 4963 4849 3785 4308 2741 2742 4076 3911 3571 3548 4247 3521 3592 2653 3514 4849 4054 3772 3659 2816 4096 4229 4757 3264 2873 35 37 38 9 28 4 31 2 35 16 19 2 10 24 29 10 32 10 27 13 36 23 29 35 13 6 1 30 18 21 23 5 17 1 33 5 13 22 9 21 32 16 27 36 35 33 9 20 36 34 24 33 26 12 38 6 1 32 37 10 27 6 4 15 20 24 30 19 21 30 2 4 35 35 15 4 27 20 10 8 14 23 11 1 29 27 29 25 18 31 37 35 37 18 11 29 39 33 13 20 38 10 6 10 18 29 33 5 27 13 19 7 16 33 22 36 24 5 8 33 16 26 13 4 17 22 39 28 18 32 7 24 20 2 31 16 9 13 6 26 26 29 27 13 37 20 37 21 16 39 14 11 33 3 34 2 39 11 24 6 3 16 17 0 18 6 32 11 4 7 14 6 25 32 36 18 19 30 4 30 26 35 17 11 30 12 8 34 5 5 25 16 24 11 21 15 4 11 3 21 14 39 8 12 15 31 1 38 1 14 18 2 32
2807 4362 4932 2805 2902 3895 3126 4980 2921 2581 2694 4352 2729 4727 3587 3789 3367 3863 3857 4298 2842 4677 3316 3276 4758 3258 4120 2957 2644 4036 3860 4170 4214 3868 4117 3346 2857 2522 2756 2746 3359 4651 3804 4375 4978 4082 2799 4832 3615 4255 3784 4022 3035 3130 4156 4008 3342 3646 4459 2978 2942 2948 3972 3625 2985 3906 2629 4372 2508 3400 3708 4052 4657 3619 2872 3658 4079 2706 2992 4726 4888 4349 3396 3396 3835 3485 2771 3764 3624 3457 4177 2655 4207 4980 3689 3139 2732 4085 3206 4932 3507 3262 2802 4560 4263 2664 3154 3239 4689 2903 3292 4473 3201 3871 3125 3317 3214 3842 3643 4641 3373 3574 2809 3542 4548 2902 3638 3354 3613 3239 3231 3663 3815 3110 2696 4940 4240 3029 2634 3593 3578 4254 3843 2964 2879 3096 3808 3387 2825 4473 3902 3953 3538 3479 2901 4451 4310 4998 4516 4232 3404 3239 3997 4430 3237 3693 4839 4050 4662 3039 3830 4763 3552 4726 3986 3188 4822 2541 3342 4925 2652 3564 4799 2979 3038 3602 2956 3739 3552 4596 4009 3843 4590 2777 2908 2590 4390 4287 3423 2965 4447 3260 4265 4708 2636 3560 3835 3726 4706 3543 3030 4151 35 35 20 14 31 32 8 16 12 21 39 8 18 39 15 9 11 24 18 35 12 28 1 13 5 3 3 7 23 24 8 5 35 38 27 35 1 22 19 11 15 33 2 7 15 16 22 21 1 31 34 18 33 35 35 19 24 1 36 17 4 26 27 31 14 24 14 11 3 23 31 7 38 27 6 28 8 12 1 26 26 7 38 10 8 32 13 21 10 12 6 8 12 4 15 17 21 17 18 33 17 15 23 29 11 37 11 16 5 4 9 17 5 26 30 15 1 9 7 29 39 19 24 6 3 34 21 38 37 39 30 22 20 2 20 34 36 2 37 6 11 39 14 21 6 29 22 9 37 7 29 8 3 7 35 5 21 27 21 37 20 26 15 27 0 33 14 2 3 37 32 2 33 10 14 33 34 30 3 25 2 23 5 38 2 22 7 24 19 27 38 18 13 17 28 4 12 19 39 8 3 33 9 19 29 20 33 11 6 36 1 14 21
3152 4241 4293 3456 4839 3517 4261 4780 4931 3205 3048 4199 4831 4810 4957 3345 4914 4236 3404 2906 4367 2503 4403 4059 4152 3487 3390 3250 3886 4498 3179 2624 3093 4859 4265 3964 4148 4208 3150 3281 3486 3358 4503 3503 3202 3575 4327 2675 2513 2882 2568 2625 3832 3280 2641 4697 3809 4911 2724 4954 4176 4812 3643 3519 4458 4942 3029 3436 4406 4928 2736 2533 3880 3921 4332 4505 4184 3313 3566 4467 3937 2545 3131 3075 3371 3499 3660 3461 3735 4387 3065 2638 4951 3281 4493 3550 3326 4402 4664 4112 4174 4281 4906 4744 3794 2518 2751 3123 4099 4194 3095 3404 3792 4526 3202 3678 2511 3130 3947 4985 4583 3968 3567 4824 4629 4988 4915 4451 3565 4802 3924 4052 4958 4648 3709 4841 4820 4491 2617 2670 3536 4825 2895 3471 3530 3484 3005 3293 4930 2964 4683 3830 3461 3305 4264 3029 4832 4823 4284 4670 4649 2842 2708 3525 3341 4437 2668 4410 4160 3117 4594 2876 2759 3123 3562 4677 4766 4972 3415 4319 4081 3391 2540 3201 3021 3763 4627 4522 3916 4449 4534 3897 4024 3600 4323 3411 2611 3115 4377 3329 3881 3608 4488 3023 3261 4068 4137 4583 3536 3819 3872 3814 3 21 33 31 2 37 26 13 38 16 25 32 1 21 18 37 29 18 5 27 37 6 29 30 11 1 19 7 21 1 27 35 32 15 5 26 30 37 18 18 21 7 28 35 22 1 23 31 17 9 12 19 19 9 11 8 38 35 8 17 23 1 33 32 21 6 28 29 3 30 15 31 18 17 11 7 3 31 24 1 37 25 21 6 13 8 7 21 38 11 20 16 29 35 7 38 27 8 10 30 17 34 29 15 34 27 33 1 38 21 38 4 25 35 37 21 29 31 19 9 27 25 28 26 28 38 15 26 20 34 39 23 9 6 22 2 2 11 31 14 7 25 24 33 16 10 15 4 33 15 19 24 27 39 25 25 20 9 22 1 28 15 15 31 27 0 19 37 20 8 5 2 23 13 19 19 7 22 6 19 14 2 9 39 27 4 6 38 7 22 8 6 23 22 30 26 6 16 13 14 24 3 4 4 26 22 35 3 28 18 30 37 28
4678 2555 3459 3407 3306 4883 4875 3936 4789 4682 4630 2814 3856 2876 4711 4522 3469 4561 3435 2626 3279 4732 3900 2931 3055 4726 4573 3855 2758 4681 3188 4907 4902 4361 3909 3736 3951 3251 2682 2592 4921 2511 4312 4607 3859 2850 3676 4388 4073 4994 4478 4697 4607 3558 4336 3163 3771 3978 3442 4982 4789 4664 3484 3290 4238 4410 4843 4500 3017 4715 3587 4046 3739 3132 4484 4894 4594 2902 4693 3936 4690 4940 3368 4422 3136 2934 4607 3804 3264 4894 3435 3808 4159 4292 4493 3124 4843 3133 3197 3646 4176 3527 4821 3140 3666 3231 2721 2537 3666 2793 3193 3637 3300 3178 2754 4892 2951 3645 4686 4489 4770 3442 4844 3975 3664 2786 3921 4143 3678 4139 3187 2725 3086 4283 4883 3535 4401 4757 3068 3875 3847 3365 4679 2762 2652 2780 3581 4483 4434 3654 3190 3952 2833 2779 2668 4641 4244 2593 2901 4303 3241 2987 4900 4859 4177 4280 3077 3579 8 2679 2976 3323 4195 4199 2811 4276 4422 4015 4801 2976 2559 4475 3584 4202 2729 2938 3902 3652 3558 4642 4344 2953 3587 4212 4849 4014 4214 3148 4996 3634 2818 2736 4312 3897 3114 4129 4616 4586 2527 3440 4124 3729 31 7 5 20 5 4 10 7 24 1 26 35 15 29 3 15 13 39 32 11 30 38 1 14 16 32 16 8 28 34 38 28 3 23 24 32 15 38 31 32 32 35 23 15 16 18 11 25 32 24 32 25 15 4 3 24 4 38 26 5 8 30 4 18 32 1 5 31 24 6 35 11 30 2 21 16 39 22 24 25 31 16 25 35 17 21 23 27 39 39 7 29 20 30 12 12 37 22 12 38 15 10 36 34 39 11 36 33 7 27 15 13 28 21 15 19 10 35 24 15 24 22 6 24 31 10 13 35 13 1 26 20 12 23 2 39 32 30 35 18 27 14 10 20 33 38 35 34 13 4 32 33 34 27 3 15 38 29 33 31 37 38 9 36 12 29 0 32 15 31 10 17 5 29 20 9 34 12 10 16 37 19 13 27 16 20 37 16 14 11 30 3 35 33 7 18 15 6 16 35 1 28 7 13 21 10 6 4 28 24 10 10 23
3971 3941 4984 3776 3429 3680 4696 2557 4970 3172 3470 3262 3411 3798 3431 4727 3288 4509 3586 3105 3823 3783 2803 4776 4593 3307 3800 3006 4183 4674 2867 4647 4802 4977 3355 3023 3586 3022 4405 4530 2720 4598 4207 3021 4565 2595 2599 4911 3775 4185 3659 3655 4707 3393 4665 4518 3148 3944 3741 3675 2979 3571 4481 2786 3760 3393 2955 2737 4492 4685 3426 4374 2504 4598 4345 3396 4808 3609 3521 2511 2806 4518 2693 3105 2764 2643 2879 3961 4055 4366 3770 2502 3521 4579 3644 3574 3343 3291 3627 2530 4497 4043 3494 2632 2998 4068 4012 4148 2614 2635 4020 3020 4583 3963 3802 3886 4502 3697 4792 2530 3972 4315 3835 2762 4292 4608 4797 4273 4657 4894 3912 3052 3227 4274 3019 4782 3287 4696 4326 3624 3299 4067 3002 4894 2891 3948 2987 2980 3198 3484 3581 4659 2615 4190 4184 3705 3403 4140 4517 2802 4570 3976 4003 4392 4781 3595 4283 3117 3692 3327 4372 3884 4475 2861 4925 2965 3930 3833 4298 2508 4986 4212 3546 3691 3055 2908 4868 4503 3500 4287 3331 3808 4151 3197 4938 4617 3226 4612 2890 4447 3987 4784 3969 3081 2507 3535 2654 4487 3371 4914 4332 2917 32 29 16 4 13 31 1 23 8 7 16 34 5 20 6 39 28 37 20 19 1 11 4 35 6 23 25 24 33 39 26 5 33 29 17 26 39 16 12 13 37 26 13 8 28 39 15 16 5 18 5 8 2 12 26 32 1 32 22 24 13 16 25 19 27 5 21 18 29 18 29 22 12 6 25 39 20 15 39 8 17 36 37 34 29 5 33 36 9 11 32 1 21 9 26 12 33 26 10 34 10 35 1 9 29 9 2 4 28 29 15 36 36 34 2 7 5 37 24 36 29 36 33 34 2 15 25 6 35 32 2 8 6 13 9 16 22 33 33 3 4 14 27 25 12 37 34 18 22 33 26 18 32 31 16 9 13 28 36 26 36 38 15 27 10 2 7 0 26 8 36 24 28 39 37 10 19 19 9 37 28 37 6 25 22 38 15 13 25 9 9 26 17 30 13 12 37 24 24 18 9 30 37 31 7 11 15 7 37 31 37 12 22
3975 3526 4308 4378 3773 4036 3376 4345 3812 3085 2597 4179 3582 3482 4573 4037 2705 4999 3698 3478 4768 4195 2899 4562 3122 4517 3160 4206 4958 4067 4834 4584 8 3256 3516 3687 3872 3576 4998 2719 2537 4104 3363 3412 2777 2819 3935 4671 4165 3322 2925 3068 4472 3231 2860 4257 2593 2696 4190 4672 4787 3739 4209 3678 3106 3868 4322 4429 4214 4551 3284 3174 2534 3641 3487 3437 4787 4211 3230 2643 4820 4379 4522 4293 2873 3255 4157 4302 3601 3305 4014 4299 3200 4968 4249 2575 3285 3303 4171 4791 2716 3126 2870 3036 4388 2656 3596 2675 5 3326 3601 2779 3274 2765 3357 3221 2787 3663 2909 4340 4147 4225 4568 3124 4898 4681 4798 2727 4878 4239 3941 4787 2717 2824 2826 3394 4997 4779 4211 4613 3116 3613 3225 2504 3206 4629 3257 4027 3932 3473 2955 4715 3019 4882 3329 2741 3457 3818 4553 2989 3203 2693 4379 4122 4185 3163 3090 4309 3218 3671 3775 3941 3181 3298 3669 4928 3538 3377 3419 4236 4476 2692 3108 4553 2575 2675 4234 4997 4632 2617 3534 3900 4249 3522 4480 3743 2542 2979 4660 2855 4346 4045 3180 3906 4329 3870 2917 3895 3415 4814 3974 3884 6 17 18 37 14 16 34 13 32 33 38 22 30 34 18 14 39 9 15 24 13 18 24 13 1 25 37 13 27 32 36 29 18 30 29 7 3 15 26 19 6 30 3 19 18 35 9 12 32 20 12 25 12 24 31 39 1 30 22 15 5 16 39 38 11 19 10 39 22 24 19 19 5 1 31 31 3 22 21 31 30 26 7 11 6 23 26 15 23 29 18 15 17 3 5 20 13 36 28 38 27 31 25 17 2 10 11 36 13 22 39 2 7 5 14 16 8 4 19 10 11 31 28 28 23 33 32 18 12 22 1 3 28 27 28 16 11 9 20 32 20 29 19 30 11 23 18 33 38 11 16 19 39 32 25 15 30 33 29 22 23 32 38 34 28 20 9 8 0 15 1 25 12 17 33 13 23 4 27 29 36 19 20 9 36 1 36 15 35 31 2 15 5 17 38 7 4 33 1 4 10 31 26 18 35 39 3 38 37 26 9 31 15
3672 2582 3981 3864 4235 4611 3668 3958 3701 4829 4561 3313 3553 2625 4718 4617 4826 3475 3450 2818 3980 3654 4020 2837 4949 2883 4111 4465 2692 3172 3777 3286 3067 4666 4602 3359 2526 3235 4578 3131 3238 2961 4052 3387 2782 2723 2912 2577 3554 3777 3770 4491 4315 3886 3137 4483 2991 17 2784 3067 4670 3492 4911 4283 4929 3166 3292 3040 4021 4073 4253 4834 4549 3933 4939 3057 2859 4202 3627 3679 2888 4816 2857 3373 2521 4778 3841 3970 2959 2907 2998 4193 4188 3030 3252 3449 3046 2943 2914 2569 4204 3080 4505 3717 3160 2840 4726 4044 3921 2662 4451 3476 4281 4409 4566 2814 4867 3069 4374 4505 4934 4004 3616 2715 3584 3163 4028 3525 4123 4352 2638 4181 3384 4018 3418 2802 4502 3695 4017 2510 4974 3297 3232 3973 3858 4835 3116 3456 4679 3143 4106 4422 3518 2719 3946 4464 2778 3156 4439 4854 3354 4405 4176 3259 2829 3849 2755 2633 4626 4552 4028 2598 3575 2922 3547 4288 4440 3046 4465 3845 3474 4976 3383 3270 3896 3089 4753 3626 3625 3479 2908 4089 2728 2747 4348 3140 3130 4281 2785 2687 3298 2580 3647 4536 2731 4393 2812 4855 3480 2577 3645 4098 10 14 1 11 13 28 22 28 4 39 20 18 16 2 18 15 34 18 25 9 31 36 1 5 20 31 13 13 19 30 33 17 36 22 25 26 14 31 4 26 38 21 19 25 22 17 18 26 22 37 26 12 2 36 13 16 39 5 17 2 17 20 39 32 4 35 18 35 19 29 13 16 37 20 11 29 30 23 32 34 2 16 32 6 33 30 23 8 12 24 34 2 19 26 1 32 15 27 34 23 29 7 10 24 38 16 27 8 39 8 32 9 16 12 19 32 23 2 30 21 7 33 5 32 9 27 37 35 16 36 2 15 28 10 21 31 36 10 32 37 2 37 17 39 20 8 23 4 8 14 30 22 1 38 37 20 22 19 34 3 24 5 32 1 14 17 16 37 30 0 13 39 27 39 31 18 23 33 7 15 24 34 23 4 30 34 31 33 3 8 21 28 22 6 20 19 6 31 23 4 35 5 6 5 16 8 29 15 5 11 38 29 28
3478 2678 3247 3770 9 3049 4318 2630 3483 4382 4236 4564 3476 4387 4657 4911 4210 4165 4021 4987 3413 4951 3932 2755 4547 4027 2658 4433 3700 3635 4804 4416 4976 3997 3350 3846 4667 4072 4455 2825 3822 4578 4644 3545 2614 3863 4432 3140 2836 3021 3439 3343 3818 3036 2754 4350 4956 3712 4665 4180 4798 4085 4804 3547 4936 3966 3253 4013 2775 4895 3866 3173 4731 4112 2638 3446 4407 2977 2685 4531 4039 4258 3722 4874 2623 3719 3339 3745 3395 4637 2838 4552 3303 4685 2766 3520 3082 4338 2768 4391 2710 4350 3046 4050 3022 3809 4974 3038 3695 3970 4400 3104 3040 3503 4731 4907 3490 4685 3898 3724 4577 4305 3682 3543 3904 4158 4923 3943 3881 2735 3424 3939 3006 3599 4032 4537 4116 4591 2888 3792 3500 4531 3075 4001 3671 3235 4709 3911 3727 4405 3545 2613 4415 4981 2771 3575 3200 4043 3892 2574 3081 2579 2769 4184 4788 3101 3126 3130 4916 4949 3039 3726 3245 3136 3561 4350 3080 3357 4300 4837 3464 2984 2568 4868 2766 4493 3414 4000 2908 4352 4286 3543 4807 4647 3500 4597 2640 2581 2867 4033 4641 4191 4492 2894 3850 3182 2676 4775 2867 4207 3410 2501 26 10 8 7 29 13 1 4 27 33 38 35 20 21 19 25 31 27 8 38 37 22 21 38 7 12 37 39 34 25 34 28 21 5 23 21 20 1 27 5 17 3 18 34 37 16 1 29 39 11 10 23 21 30 23 23 22 30 2 39 20 9 38 10 19 27 34 23 3 38 13 18 6 35 19 29 18 38 15 26 5 14 10 10 27 35 12 35 27 35 39 26 8 12 27 18 14 10 15 39 39 24 33 30 19 25 9 10 19 1 6 11 21 5 36 17 25 20 38 12 37 3 36 10 4 32 19 28 11 10 3 39 25 34 28 34 25 10 13 34 3 36 38 6 30 1 36 28 25 15 8 22 26 31 2 21 9 34 16 1 24 5 18 31 1 3 9 22 37 33 0 25 20 25 31 4 19 38 9 38 2 22 3 34 4 14 26 22 22 25 36 29 5 30 8 15 23 15 1 18 30 3 4 38 33 3 19 22 2 11 10 19 4
2637 2968 3457 3585 4191 3107 2527 3253 2509 3812 3333 3046 3051 3105 4599 3138 3884 2768 2610 4532 4490 3935 4678 3023 2791 3355 4954 4743 3585 3922 3780 4010 3190 3814 3676 17 3419 4875 4691 3951 4210 4863 4441 2588 4957 3931 2769 4679 4523 2935 2753 3535 4403 3570 3781 2908 2980 4902 2768 3799 3495 2960 4533 3336 3582 4076 2647 2973 4337 2871 4790 4480 3905 2810 4804 3703 4480 2979 4502 4871 3487 3207 2878 3248 3952 3038 2737 3999 3641 3391 3831 3854 4541 4845 3659 2536 2872 3382 4672 3294 3123 2894 3887 4946 2793 4839 4748 2582 4010 4046 3617 4645 4420 3379 3425 3702 4034 3236 4995 4287 4214 3060 2769 3801 3230 3606 4146 3132 4808 4785 2849 4952 4021 2877 2910 3162 3241 2674 2786 4330 4442 3102 3734 4263 2634 4652 4825 4227 2972 2690 3822 3893 4923 3076 3799 4160 3441 2936 4997 3255 4423 3983 3827 3913 3187 4149 3451 3550 3753 3236 4931 2797 3829 4199 3543 3361 4071 3148 4971 3641 3673 2588 4880 4682 4556 3575 3040 4950 3745 2764 2961 4231 3960 2766 2852 4645 4842 4389 4935 3289 2519 2659 2748 4524 3316 3947 2944 4947 4446 2868 4892 3776 32 35 20 3 29 13 17 31 12 14 30 27 27 15 15 3 10 27 21 29 22 34 33 15 12 6 2 37 11 35 12 33 30 11 25 19 23 7 18 2 1 1 9 21 33 29 36 2 38 26 9 33 5 22 11 25 5 28 14 13 29 38 36 33 23 1 19 8 9 15 21 14 36 37 21 19 14 12 1 16 13 20 30 7 1 34 7 1 3 17 34 18 10 5 20 20 14 26 6 24 24 20 14 2 13 16 12 4 3 7 34 22 30 36 33 8 25 31 18 33 13 35 3 27 20 15 8 1 25 16 17 19 3 2 22 23 28 17 13 16 8 29 7 11 12 26 22 20 36 27 11 12 17 39 6 35 17 6 39 18 12 14 1 20 14 13 38 35 28 22 28 0 6 4 5 10 18 29 4 14 28 26 39 12 31 29 24 35 19 11 15 23 29 16 24 30 34 28 25 26 18 28 11 27 13 37 28 2 27 24 24 4 28
4527 2967 3269 4082 3201 3331 4085 3730 4370 3498 4017 2799 4494 4687 4350 4551 4779 3136 3958 3150 2575 2721 4406 3547 4841 2575 4228 2519 4130 3621 4142 4257 3488 2719 2502 3707 4753 3781 4101 4869 3359 3005 4496 3222 3415 4433 2515 2641 4352 3689 3853 3592 4046 4192 2968 3268 2874 2963 2902 4838 2578 3727 3699 4876 2991 4153 4439 3324 3117 4723 3912 2812 4831 4733 4649 2600 2659 4276 3474 2639 3586 3552 4410 4233 3947 2771 3786 3795 4452 3835 4118 4948 3161 3072 4544 2725 3906 3059 2906 3539 4469 3414 3112 3098 3783 4032 3191 3073 4438 3437 4395 4863 4915 4865 3818 4721 2609 2937 2755 3457 4887 4195 4868 3991 4062 4169 4217 4597 2796 3002 4594 3899 3939 4761 2756 3888 2839 4405 14 2929 2504 4325 3141 4363 2991 3339 3993 2881 3925 3214 3639 4468 2948 4929 3353 2598 3742 2978 3100 3773 3053 3151 3922 2619 4715 4351 3238 3107 4565 3241 4893 3405 4125 4478 3704 3618 2761 3714 4478 3658 4101 3823 2608 2602 3618 4866 2826 2589 4991 4463 4821 2733 3224 2873 3861 4099 4782 3926 4560 3587 4516 3954 2874 4856 3450 2668 3168 3784 3835 3184 3197 3491 31 35 20 34 2 20 10 6 36 16 23 28 30 24 21 36 15 35 7 33 39 8 18 4 32 17 6 21 10 33 3 21 16 34 20 22 16 7 25 9 38 3 3 12 6 24 3 37 6 23 8 29 30 27 35 35 7 7 29 14 12 2 11 16 9 23 29 30 23 4 9 19 37 12 13 29 18 11 28 2 30 19 19 33 35 5 12 33 39 24 26 26 21 19 22 12 24 3 13 24 24 17 12 35 24 24 7 1 35 21 32 13 2 26 29 36 32 1 28 2 35 25 35 34 5 28 23 11 29 31 17 7 4 29 34 7 11 34 1 39 7 35 19 36 2 1 12 28 14 39 11 2 2 2 16 38 23 24 14 11 20 11 2 26 34 38 14 8 8 13 19 26 0 10 11 20 35 15 37 11 36 3 27 32 25 26 11 3 2 31 30 1 22 22 35 33 12 27 14 21 2 35 1 18 16 7 18 26 15 19 29 39 22
3470 4602 2977 4858 3260 2524 4481 4989 3875 2660 3149 3664 3609 4540 3339 4994 3232 4223 3591 2508 2627 3928 4007 3777 4840 3417 2598 4201 3573 2592 3826 4158 4412 4737 2853 2569 3433 4331 4409 4220 4550 3140 4861 3129 3696 3305 4171 4672 2918 3241 3962 4063 4975 3391 4616 3770 4341 2787 4409 3175 3522 4125 3489 3906 3011 3596 3746 3269 3763 2611 2962 3583 3050 3877 3338 3466 3310 3172 3645 4834 3589 3968 2971 2613 4796 2701 3517 3333 4756 4924 2587 3873 4949 4633 4466 3762 2654 3757 3323 4082 3206 3856 2578 4307 4399 3902 4978 3032 3300 2986 4621 3315 3856 4034 4698 3065 2956 3817 4696 3414 4316 4457 3690 15 4413 3143 2973 4926 3530 2563 4502 3114 3942 3612 3717 4532 3766 4448 2615 4346 3269 3283 4163 3220 2730 4064 3852 4026 3374 3664 3715 4764 3657 4356 4957 3194 3134 3002 3745 3683 3481 4099 3708 4095 2514 3088 4732 4077 4427 4788 3505 3679 2666 2518 4126 3163 3161 2594 4282 3703 2510 2626 2965 3292 4867 4042 4039 2749 3483 3294 2730 2573 3719 3154 4461 3181 3344 4605 4972 4133 3530 4201 3390 2548 3770 3278 3280 2579 4516 4279 3465 4639 24 21 16 20 34 30 22 33 22 21 23 31 1 36 24 8 24 22 31 31 21 19 26 8 30 25 7 5 31 18 11 27 37 17 7 37 28 3 11 25 16 39 19 34 24 11 39 28 10 31 21 25 12 13 13 28 29 13 30 32 6 27 23 8 22 18 17 9 15 35 26 39 34 15 32 36 23 7 5 13 3 30 31 20 35 17 17 25 27 27 4 30 39 30 5 20 38 3 28 28 37 16 34 10 8 38 13 5 11 26 23 18 23 29 39 1 5 33 5 21 1 3 18 22 19 25 37 9 31 39 38 32 29 4 32 9 17 1 14 23 34 27 30 2 16 23 23 13 24 17 33 4 22 26 32 13 18 26 27 25 11 20 32 29 31 16 36 21 35 10 17 2 16 0 28 38 9 13 17 24 13 10 2 32 33 23 10 37 20 23 11 29 14 29 12 5 3 17 36 13 34 34 33 15 14 12 3 19 26 20 14 9 17
3106 2887 3708 2617 4937 3537 4380 4382 4836 2662 4846 4086 3592 3949 3511 4056 3081 4657 4377 3899 3375 4036 4559 3530 4028 3905 4594 4786 3743 3404 4595 4096 4775 3944 4674 3329 4963 3592 4247 4275 3199 3940 4388 2857 3991 4736 2689 2985 4133 3118 3392 4782 3974 4430 3124 3141 4862 4345 3084 3286 4118 3337 2948 4262 4437 4793 2755 2924 4150 3216 4689 3886 4410 3460 3268 4987 3409 4080 2864 3700 2810 2580 2557 4868 3987 4360 2596 4594 4697 3668 2658 3311 4578 3172 3952 4967 2709 2528 3306 4382 3099 3308 3764 2647 4486 4272 2899 3039 3101 3268 4424 3923 3130 3853 4374 4171 2884 2864 4292 4962 2810 3390 4592 3037 3412 2645 3635 2893 3491 3140 3699 4234 3497 3221 4299 3215 4812 3101 3299 2503 3603 4991 3321 4233 4361 3835 4753 2587 3642 4922 4199 2762 4438 4587 3997 3466 3010 3034 2802 4020 4109 3272 3737 2735 3806 3389 3060 3404 3498 4790 3949 3216 3791 4698 4189 3795 3942 3075 3155 4453 2571 3464 3268 3305 4152 3058 2605 14 4675 4657 4030 3307 3593 3811 3731 4296 3549 3652 3893 3048 4714 3373 2681 4078 3839 4626 3337 2636 3778 4526 4383 2899 22 6 35 11 31 5 15 24 19 19 19 30 33 35 11 23 24 7 2 23 38 3 14 14 9 12 27 30 29 26 7 22 35 26 19 1 34 27 5 31 3 8 30 31 3 31 19 32 3 2 10 24 13 35 7 16 7 20 5 38 31 6 12 3 9 17 2 13 30 16 3 17 27 27 8 12 2 9 17 35 31 7 27 39 36 9 20 2 35 15 12 31 8 19 33 3 37 35 31 33 31 9 34 34 39 31 23 9 5 24 17 30 32 12 32 5 23 26 31 24 14 17 20 36 35 27 2 17 20 7 14 18 17 27 34 22 29 39 6 28 20 2 24 18 12 7 31 5 1 28 1 37 35 8 9 30 22 32 28 39 9 31 34 6 28 36 20 24 29 25 18 23 37 21 0 7 25 11 24 31 39 25 12 10 30 3 9 8 33 12 2 30 19 32 3 14 19 25 9 23 30 28 17 7 39 28 22 25 30 32 21 18 22
2814 4561 3813 3280 3181 3321 4879 3841 3882 3825 4194 4328 3873 2688 2783 3918 4520 3614 4695 4841 3732 2566 3605 2647 3093 4572 4048 3914 2896 3810 2841 4167 4499 4498 3650 2852 3057 4987 3984 3643 4446 4663 4388 3957 3674 4053 4990 2841 4189 4997 4374 3026 2679 4018 4215 3893 3239 3471 3989 3760 4874 3272 3786 2892 4144 2692 4100 4282 3090 3886 4568 4047 2845 3957 4378 3805 4032 3764 3330 2764 4654 4391 3238 3469 4834 4774 4343 15 2750 4746 4659 4625 4128 3773 3591 3477 4321 3877 3462 3894 3822 3892 2637 3098 3838 4138 4114 3338 4540 4851 3747 2640 4543 4049 4887 3362 3996 3295 4720 4330 4371 3396 3863 3267 2682 4043 3520 2548 3840 4537 3689 4110 3118 2806 2633 2984 3348 3999 2685 4614 2947 3755 3350 3133 4981 4962 3759 3883 3133 4462 4075 4573 4279 2607 3639 4892 4948 4734 3575 4966 3907 3295 4957 3432 2645 4546 4268 3168 2710 3378 3226 2797 3409 3460 4362 2518 4883 3979 3282 3428 4712 4400 3969 3563 4032 3282 4561 3393 4554 4196 2512 2648 2888 4783 4187 2667 4266 3040 3789 4977 4112 3053 4868 4973 4680 2669 3459 3041 4680 3104 3942 2920 4 7 17 1 20 21 9 16 1 23 39 31 34 28 29 16 19 34 15 21 34 18 9 8 14 13 26 2 7 1 30 38 19 23 38 29 26 31 38 26 11 23 13 2 13 16 18 15 20 37 8 25 19 38 23 5 30 26 23 38 2 14 4 8 23 39 36 17 6 7 38 9 9 34 15 15 26 21 20 22 23 14 27 9 36 6 13 34 24 18 32 6 10 10 9 25 26 38 29 12 36 25 13 24 18 30 14 25 26 26 39 3 32 23 9 3 22 14 21 28 11 20 34 17 6 20 13 32 17 32 5 28 13 29 12 35 22 1 23 18 2 30 23 15 24 22 13 28 28 17 26 22 12 6 12 13 10 13 16 4 7 20 9 1 14 20 11 18 14 32 27 14 7 17 18 0 6 4 6 13 4 19 24 2 4 6 36 6 30 36 10 32 22 31 35 14 35 2 8 35 10 13 5 28 31 37 30 19 14 3 12 34 23
4853 2634 3055 3563 4074 3817 3259 4372 3680 2667 4716 4249 3075 4095 3630 2790 4786 2728 3269 3972 2610 4879 4024 3512 3619 2619 3414 3456 3727 4338 4536 4926 3732 2840 3671 3703 2820 2776 2631 3898 4567 3322 2691 3893 4198 2689 3843 4021 2687 3085 3736 3386 4825 2542 4724 2869 3956 4160 2942 2704 2715 3958 3900 4722 3554 4476 3325 3864 3686 4933 2897 3699 4442 4284 3296 4448 3095 3014 3089 3271 3572 4493 3284 3098 3887 4776 3141 3007 2946 3568 3435 4676 4836 3646 2626 4498 4301 3802 4374 3008 4027 4815 4501 4141 3421 2509 4569 3584 2706 4003 4761 2618 4273 4889 4463 4408 3849 3388 4249 4867 4558 4579 2593 3185 4784 4952 2626 3679 3794 4001 4576 3022 3884 3746 2752 3766 3415 2930 3632 4552 4970 4381 3239 2689 4950 3473 2790 4017 17 3656 4373 3937 3404 2634 4184 4927 3121 3771 3021 3764 3291 3235 3527 3322 12 4768 3433 3080 3599 4984 4405 4193 3880 14 4305 2880 2576 3021 3520 2686 4227 2690 2749 4289 2526 2709 3405 4940 3174 2773 3921 4510 2801 4792 3786 2845 4795 4683 2883 2964 3509 4984 4654 3003 3615 3004 4715 3831 3271 4355 4721 3495 13 1 6 23 20 10 9 9 39 12 8 23 20 31 30 8 35 14 32 34 22 28 35 7 33 25 10 8 30 11 10 32 21 19 3 34 6 31 3 23 31 21 21 20 21 5 27 5 28 14 14 1 17 32 23 18 21 8 16 11 3 7 31 28 34 35 38 3 23 20 24 26 2 22 8 39 17 26 5 32 33 10 31 23 27 17 3 11 33 39 31 31 2 38 28 39 12 22 36 6 8 21 19 31 38 35 1 9 37 33 35 30 11 11 10 3 4 27 14 1 5 29 20 10 22 33 3 30 5 8 23 14 10 26 2 39 19 35 10 12 27 20 31 1 23 14 30 12 29 6 15 8 15 26 9 27 31 2 26 1 7 8 27 13 32 17 2 35 35 4 21 5 10 21 19 11 0 36 31 18 27 31 17 10 30 26 23 11 30 8 24 28 1 35 37 18 36 35 28 37 23 7 11 14 14 37 25 31 13 11 21 21 31
3053 4775 2676 3642 4323 4213 3000 4395 4723 2873 4392 3411 4240 4828 3431 4943 4861 4686 4193 2944 3722 4770 4758 3706 4474 2740 3695 2537 3559 4801 4832 3022 4122 4148 3259 3412 3477 3666 2501 4803 4621 4043 4933 4332 3663 2995 4746 3665 3019 4495 4595 4574 3763 2600 4674 3327 4592 2650 2567 4156 2732 4710 4631 2985 3529 4736 2554 2970 4522 4532 2524 3160 4344 4146 4126 3782 3016 3111 4768 2896 4076 4416 3007 2910 3608 3612 4468 4914 4616 3955 4726 2688 2623 4092 4095 2529 3982 2993 4771 4103 3082 4445 3751 4218 3030 3457 3942 3740 3610 2503 2593 4405 4993 3179 4722 3481 4585 3438 4393 3680 2868 4543 3952 3882 2825 4867 4774 4763 4378 3708 2571 4490 4851 2682 3057 3244 4252 4910 4497 4163 3844 4390 4725 2864 4329 3828 4306 4531 2964 4458 4046 3487 2698 3330 4676 4673 2984 3820 3668 3767 3252 4697 4964 3647 2635 2862 3649 3230 3455 3196 2707 4749 4374 3204 3175 2972 3782 2904 4262 2582 3510 3506 3820 4500 4062 3169 2556 3625 3104 2923 3410 4279 3560 2816 4981 3386 3958 3360 2658 4573 3422 4842 4270 3372 2725 2728 2624 4273 3512 2858 3351 2542 6 13 20 24 27 6 13 21 31 10 30 22 31 9 10 33 10 19 37 37 11 34 25 32 25 8 29 34 10 27 12 5 15 27 18 12 32 16 35 23 10 8 19 38 26 29 8 32 27 11 9 36 37 8 4 25 6 12 3 26 21 33 9 23 31 39 24 31 31 5 14 18 7 12 12 3 3 32 39 1 12 7 34 7 38 32 3 3 21 23 5 29 23 24 3 17 2 29 29 26 36 26 19 7 32 39 35 39 10 19 23 18 19 11 22 17 11 36 26 25 2 24 17 24 28 9 32 21 6 11 31 6 18 37 7 8 1 21 16 37 9 37 5 3 22 21 29 12 37 13 37 27 10 28 31 39 25 22 6 37 25 5 27 2 37 9 39 24 5 27 17 20 37 19 24 37 4 0 12 18 11 16 39 2 37 27 36 19 18 24 30 18 12 3 19 4 13 25 15 6 9 13 39 2 24 25 37 6 7 22 32 4 20
3901 3229 4703 4727 2740 3992 3915 3788 3019 2820 3200 2876 3633 4972 2803 4803 4676 2507 7 2956 4081 4861 3189 4582 4775 3115 3635 4516 3276 4681 3872 3728 3906 3640 4877 2753 2969 3674 2761 4624 3089 4133 4480 2679 2988 3611 3878 3189 3697 2995 4724 3245 3631 4268 3415 4923 3161 2817 2726 2925 3895 4285 2518 3493 2847 3211 3370 4822 2559 4307 4816 3742 4589 4489 4818 4240 3151 4201 4998 2993 3042 3591 4016 3254 4672 3056 4241 3036 4636 3722 4235 3790 3597 4836 3333 4854 3925 4535 4227 4250 4887 4501 2677 4435 3466 3539 4900 3897 4516 3300 2589 3381 4074 3543 3582 3937 3879 3081 4190 4401 4465 2958 3559 2798 3991 4134 4782 4672 4674 3462 2838 4300 4765 4658 4010 4477 3688 4922 2888 3538 4600 4672 2907 2541 3179 3344 4632 3238 3380 3009 4354 4856 4799 2998 3798 4641 3467 4038 3989 3567 4774 4875 3888 7 3879 4599 3827 2721 3155 3296 3266 2673 4587 3658 2655 3077 3540 2687 2954 3368 4263 4812 3842 3134 4257 3488 3596 4372 2923 3402 3254 2982 14 4206 4525 2753 2825 3014 2831 3002 3635 3738 3433 3021 4677 3644 4184 3617 4258 3673 4444 3868 35 2 14 31 2 3 13 23 15 36 13 11 3 30 13 28 30 5 13 35 4 32 39 27 26 13 9 34 21 3 18 5 7 38 39 34 7 28 16 37 6 15 29 29 37 36 5 21 13 13 37 30 1 19 28 34 29 14 11 3 13 11 23 32 31 11 11 34 26 35 25 35 26 34 23 2 30 2 28 28 26 27 35 27 22 31 26 39 37 10 12 6 17 4 10 19 17 19 19 30 24 37 27 4 14 38 32 36 7 3 10 6 38 24 32 21 3 22 33 35 1 31 34 17 39 25 29 4 30 39 36 9 32 22 11 16 2 2 33 31 6 33 36 26 28 30 38 1 2 2 7 17 21 21 15 38 2 29 18 34 19 11 39 22 11 4 1 12 3 12 21 1 12 7 29 21 3 6 0 5 24 20 24 7 5 11 28 11 21 7 5 34 34 2 33 3 39 4 17 35 11 15 38 25 4 36 24 6 26 13 1 21 9
4621 4615 3053 3220 2986 4678 3646 3885 3510 4515 3813 4678 4914 2736 2635 3144 3705 4493 3345 4563 4131 3945 3700 3479 3275 4408 4091 4371 4004 3927 3112 3569 3212 3584 2887 4697 3183 3148 3146 3110 3615 2960 3906 4768 3945 4492 2697 3778 4732 3448 3202 4172 3280 4560 2856 4524 4480 3438 2687 3784 4568 4100 3368 3901 4368 2534 3350 2804 4252 4256 3466 3397 2930 4606 4531 4809 4241 3499 3190 3525 4757 4223 4941 3280 3107 4820 3471 3671 3998 4410 3951 3007 3210 4552 3764 3324 4480 3562 4785 4928 4910 3101 3772 3184 2938 2779 4637 4844 3084 3573 4605 3820 3448 3878 4663 4792 4202 4704 4061 4475 2982 4565 2815 3919 3561 3279 3692 4243 3921 4740 4331 3254 4915 2674 2922 4225 4418 4851 4026 4973 3207 3962 4018 2522 3326 4429 4954 4921 3703 2832 2589 4304 3500 3084 4191 3192 2724 4490 3135 3119 4847 4740 3507 4490 3671 4642 3266 4978 4497 2904 2677 2764 3679 2747 3363 4829 4226 4783 3079 3390 3285 4008 3190 4593 4438 3537 3632 4195 4453 4147 3316 4148 4880 4833 3209 3044 4580 2887 3397 4582 4654 2924 2613 4922 4771 3325 3198 3262 3544 3513 4604 3233 12 37 6 19 19 34 21 31 17 32 4 28 30 26 2 14 36 11 19 25 3 37 27 6 31 13 31 17 38 1 6 29 16 35 36 21 25 4 19 20 4 1 16 13 25 34 28 19 20 3 20 35 13 9 6 4 18 11 28 5 33 8 39 38 27 18 24 39 31 38 7 26 19 28 25 16 4 7 20 20 38 22 4 32 20 27 25 27 21 13 33 29 31 26 12 20 21 25 13 8 3 2 2 25 9 2 3 30 15 32 1 36 19 17 13 2 12 14 22 10 29 12 18 32 17 6 38 31 8 32 38 8 17 38 33 36 16 17 8 32 18 17 12 31 35 26 10 34 5 3 24 17 26 29 28 14 21 1 12 29 26 3 5 15 22 18 24 20 25 9 15 32 37 25 28 3 18 27 28 0 29 5 29 15 17 13 28 1 25 14 1 25 26 32 3 20 9 22 30 14 22 34 8 10 36 27 20 12 7 14 23 16 39
4116 3081 3876 2931 3599 4603 3202 3258 3918 3860 3095 3614 3604 2564 3036 4759 4927 4208 4347 4773 4352 3716 2772 3838 2901 4373 4499 3829 4062 4366 2551 4234 2719 4221 3972 3751 3698 4931 3110 4401 2576 3555 2852 2930 3998 3947 4018 4730 3561 3904 4748 4813 3128 4893 3369 2676 3322 4567 4018 4496 3882 3495 2571 3979 3923 4741 4252 4955 2574 3695 4107 3353 3742 4198 4880 4930 2892 4759 2769 4019 3121 4571 4864 4753 2720 3012 3353 2565 2840 4426 2679 2632 3756 3837 4135 2741 4816 4656 3635 4839 3489 2534 3382 2517 4349 4906 4247 4699 4666 2530 4924 2720 3732 3535 3705 4305 4055 2783 4209 3270 4471 2616 2923 4136 3735 2927 4859 4047 3747 4899 3082 4146 4424 3567 3010 3898 3351 3620 4372 4467 4405 4049 4694 3719 3222 2669 3942 4839 3523 3760 3347 4770 3982 4330 4000 3583 2559 3564 2681 4963 3951 4791 3717 2831 3937 3572 4363 4381 4350 3171 3863 3543 3015 3438 3988 2819 3811 4167 4713 3242 4724 4016 3518 4884 3919 2501 3653 3291 4338 3339 3485 4620 4173 3750 4387 4898 3941 3587 4044 4961 3872 4743 3737 2668 4273 3952 3666 3017 4173 3443 4715 4748 24 1 34 13 27 31 35 27 20 10 32 37 3 13 8 26 24 18 17 17 17 13 12 10 39 26 26 29 21 7 18 35 32 32 9 15 16 35 19 8 24 4 11 24 36 35 12 9 1 18 32 14 4 2 30 4 28 33 2 33 13 35 39 26 30 15 30 39 27 36 11 15 37 31 18 32 7 26 15 4 39 14 39 3 33 34 21 35 20 3 23 36 38 29 30 6 3 33 12 11 27 24 9 30 33 39 24 30 1 21 28 26 26 12 7 34 20 38 33 1 21 31 8 39 10 38 22 4 11 34 38 3 35 17 35 4 11 8 27 33 1 39 32 14 9 6 12 1 28 13 8 22 12 21 29 32 3 12 10 27 39 28 28 18 1 36 33 25 7 39 4 13 24 3 28 24 38 39 18 26 0 30 7 38 37 37 26 20 1 38 30 33 14 10 20 22 31 9 27 21 27 7 27 7 31 16 26 16 12 29 14 5 30
3044 3153 3769 2910 4198 2827 3830 3882 3806 4982 2522 2568 3918 3560 4555 4059 4584 3783 4312 4912 4976 3434 2951 2719 3033 3985 3883 3428 11 4419 2583 2860 2515 2803 4910 3443 3116 4944 3621 3475 3932 4780 4794 3634 4668 4350 4302 2531 2635 4142 4261 4216 2633 3746 4558 4001 4651 4412 4397 4735 3998 3146 3455 3411 4662 2508 3363 2639 2565 3387 3074 3170 2865 3288 3756 2581 4422 4177 4121 2957 2980 3797 3112 2971 4091 4825 4904 2970 2559 4425 3224 4266 4943 2710 3424 4945 2539 2869 3016 2692 3884 4198 4256 4489 3847 3136 4349 4478 4159 3701 4187 3879 3971 2695 2762 2993 4063 4670 3187 2921 3745 3442 2719 3893 4876 3240 4831 4188 4208 3314 3050 4426 4642 3418 3814 4587 4638 4236 4488 4637 4982 4837 4580 2692 3709 4291 2569 4403 3988 4198 4699 4369 3775 4996 4829 4717 4612 4038 3922 3969 3883 3446 3416 4116 2718 2917 2524 4598 2904 3737 4606 2925 2948 4932 2966 4367 3941 2724 4403 3406 3611 4155 4627 2719 3158 3156 4689 2668 3783 4111 2501 3017 3434 4793 4076 4596 3625 2965 4462 3830 3690 3694 4084 3796 4565 3601 3077 3017 4697 3074 4556 4630 5 17 25 9 14 12 28 37 32 25 22 7 9 8 34 10 24 26 18 20 21 34 10 19 37 29 27 24 35 19 23 14 17 19 9 32 22 12 38 23 26 25 30 31 36 32 22 18 26 11 29 2 8 11 36 26 2 5 25 32 11 23 13 4 34 32 38 25 4 23 14 24 29 9 3 27 8 17 22 23 10 1 14 1 11 19 10 31 14 34 36 1 18 30 18 17 4 7 25 26 25 5 19 21 29 34 25 36 39 7 15 16 37 33 11 15 20 15 3 21 15 31 1 18 25 27 11 4 13 20 36 26 37 23 35 28 1 29 33 5 1 18 36 13 39 17 24 15 36 23 14 18 9 10 27 15 24 39 18 5 13 15 21 7 36 20 5 31 24 25 37 5 17 38 24 39 15 26 24 29 34 0 16 20 14 32 13 4 37 11 39 19 35 5 29 22 21 27 22 6 20 37 39 30 38 32 27 32 27 36 28 6 15
2705 4023 2602 3424 3855 4631 2872 2915 4936 4272 2545 3922 2757 2511 4747 4607 3773 4876 4315 3201 4117 3378 2573 4045 3752 3452 2850 4084 4981 4281 4389 2742 2603 3846 4411 3989 3095 4116 2767 2664 4441 4913 4200 3623 4254 3200 4054 4903 3523 3762 3627 3196 4943 4884 2988 4782 3052 3958 4408 2705 4562 4775 3617 18 4804 4299 3638 3023 3513 2648 4529 4741 3413 3020 3733 2634 14 4752 4293 3474 3117 3895 3630 2689 4185 3320 2577 3799 3368 3356 4982 4860 2849 2758 3872 3347 3427 2690 4668 3330 3772 2756 4868 2679 3822 3305 4594 2653 4001 4638 2984 4963 3995 4726 4140 3653 4563 4543 3492 3077 2715 4711 3997 2988 3759 4077 3666 4444 3116 3654 2508 2675 2847 3988 3661 3230 4798 3188 3624 3842 3671 3910 4490 4665 4966 3599 2946 3790 2983 3485 3723 4057 4517 4075 3361 4764 3511 4084 4359 2606 4657 3480 2887 3793 4991 4669 3180 3631 3905 2581 4312 3500 3145 4776 4462 3424 3610 4270 4400 2635 4427 4876 4355 3890 3631 4040 2854 4000 3402 2729 3328 4595 2588 2539 4769 3400 3345 2634 2829 3339 3932 4238 3068 4770 2787 4264 3295 3214 2890 2891 3327 3147 22 37 2 4 13 1 3 35 31 38 31 38 25 1 34 18 32 20 1 16 2 32 31 25 27 9 32 6 2 5 15 20 31 26 34 29 2 31 1 33 11 30 10 28 17 23 18 10 27 26 1 23 35 4 23 38 17 23 28 24 16 27 36 18 15 24 6 8 25 35 7 39 18 19 39 1 22 37 37 39 38 22 10 38 11 28 4 12 38 16 18 33 9 27 33 14 22 10 26 29 6 12 37 16 14 33 27 21 20 16 36 15 35 9 20 24 27 9 38 9 20 12 22 4 3 10 39 8 8 26 8 22 35 6 35 37 38 22 2 29 20 16 9 9 22 27 26 38 14 2 29 15 20 35 8 16 22 2 11 27 13 26 28 32 35 18 10 13 12 38 13 4 32 20 17 5 21 19 26 15 21 18 0 9 18 9 20 26 30 19 15 14 16 10 11 11 2 21 14 28 35 13 8 12 3 1 11 30 27 36 34 6 39
2831 4299 3784 3500 3146 4192 3124 2866 3741 3097 3032 3017 4178 4498 4579 3650 3456 2709 3464 4984 3179 4925 3353 3182 4749 4265 4729 4585 3039 3003 3206 3059 3406 3630 3757 4050 4640 2526 3094 3195 3344 3063 3519 3675 3649 4729 2655 4039 3318 4391 4990 2974 2785 4839 2512 3199 4722 4930 2809 3794 4533 4188 4101 4643 2932 4068 2923 4910 2707 2668 4430 4920 3931 2751 4176 4046 4676 3075 3324 3880 2785 4238 3988 2731 4116 3295 4419 4243 4292 3820 3907 2957 3951 3443 4932 3553 4666 4452 3180 2553 2764 4583 2534 3157 4438 3038 3574 4401 4974 3857 3030 4147 4625 3374 4900 3609 2786 2558 3777 3824 3003 4023 4208 4197 3358 2523 4753 4671 3343 2550 4764 3458 4497 4018 4065 3635 3474 2874 2697 3320 3458 4762 3597 4476 3320 3595 3405 3034 3817 3892 3333 3344 4591 3940 4023 3254 2805 2851 4679 3087 3295 4055 3195 3285 2678 3745 3460 2677 4118 3194 3864 3056 4212 3499 3674 3063 3865 3615 2547 4439 4279 4039 3907 4307 2501 2619 2973 3980 3205 3254 2690 2961 2581 4791 2666 4489 3434 4271 4658 3849 3347 4519 4928 3277 4103 3471 4366 3401 4958 4749 3778 2605 29 7 31 3 32 10 39 26 25 35 34 6 14 32 30 31 19 22 23 32 35 11 5 1 22 13 23 33 24 26 7 20 6 12 6 6 35 23 32 16 24 13 19 17 9 38 8 35 22 5 37 20 18 16 26 37 19 25 9 38 6 27 1 29 15 35 22 1 17 14 14 26 23 38 24 18 3 17 4 32 1 23 3 9 34 34 11 21 35 18 30 19 19 18 2 34 6 23 38 21 31 27 21 27 21 10 3 35 17 21 6 9 17 23 12 21 27 32 20 31 2 37 16 35 6 31 30 7 23 24 13 30 2 11 24 32 34 31 25 25 35 5 5 17 39 15 25 37 11 15 26 38 6 7 35 32 34 10 21 10 20 7 19 35 23 32 15 12 13 20 21 8 12 14 26 6 38 22 34 26 10 23 39 0 23 15 18 11 20 9 10 26 31 21 10 19 25 36 1 3 6 37 17 28 27 4 10 6 4 35 20 2 20
3906 2587 3436 3997 4684 3806 4700 3982 3973 3590 3807 4654 3351 4719 3527 3206 4277 4507 4075 2683 3483 3009 4374 2971 3108 2897 4138 3510 4021 4032 3443 3804 3061 4533 4012 4558 2661 2581 3113 3546 3247 4131 4237 4988 4779 3824 3438 4094 3620 4346 3437 4267 4517 3153 4472 3560 4365 4441 3211 4351 2772 3449 3402 3949 4566 4646 4126 4834 3110 4520 3278 3963 3727 3595 3450 4230 4699 3931 4109 4322 3891 3108 4780 3712 3344 3699 3091 3990 3885 4260 2762 4997 3692 4906 2920 4353 3488 2996 2762 2888 3536 4635 4087 4922 2978 2762 4350 3999 4130 3621 3699 2773 4628 3515 4870 3372 3161 3507 3575 4212 4182 4296 3905 3524 4982 3460 4714 3403 4537 4826 3470 4111 3921 2840 4212 2956 3822 4461 4370 2584 3890 4092 4451 3504 2924 3246 3377 3895 4325 2958 3062 3922 3360 2794 4229 2548 3089 4050 4791 4999 3218 3046 2888 2785 4307 3043 4659 4683 3954 4670 4387 3309 4519 3815 2763 2538 3183 3425 4717 4686 3874 3023 2656 4916 3966 4400 4464 4536 3158 3876 4511 2987 4946 4321 3164 3359 2632 4467 2558 3431 4358 4094 3981 4541 3229 2992 4371 4263 4174 3215 3363 3653 22 37 12 10 18 19 9 28 13 37 24 22 24 28 34 33 14 21 24 28 19 11 24 11 12 9 35 4 4 1 24 21 1 21 33 4 27 39 13 22 3 1 28 34 13 34 9 17 19 26 35 13 21 33 33 19 28 23 8 6 6 13 30 38 6 15 6 34 32 35 19 37 30 3 1 18 25 11 1 18 2 34 30 7 19 28 13 39 37 26 36 34 21 32 17 3 11 6 15 35 15 35 31 28 27 28 6 17 38 17 5 20 24 22 32 29 14 35 13 16 9 26 26 28 24 2 32 32 7 33 38 9 11 4 11 16 18 39 14 38 33 15 24 34 30 13 7 31 5 5 23 39 33 38 5 9 37 10 30 12 21 1 15 33 15 39 32 32 4 34 25 25 37 38 34 36 32 39 2 23 28 20 23 7 0 32 37 24 9 18 10 3 33 15 30 29 24 32 23 21 27 32 39 32 8 14 33 20 10 12 28 8 2
4709 3990 4267 3928 4563 3309 4639 3605 3668 3623 3008 2549 3660 4002 4651 3400 3416 3728 4400 3640 3460 4831 3337 3109 2757 3550 2885 3348 2816 3222 4721 3058 2894 4084 4665 2849 4876 2734 4486 3477 3666 3746 4206 4283 4745 3012 2963 3861 4463 2568 4139 4519 3968 3192 4547 2626 3846 2577 3022 3591 4539 3505 4840 3362 3852 4433 3524 4858 4013 4902 2845 4643 4494 3526 3959 4030 3100 4131 3925 3193 2888 2760 3615 4484 2723 3774 3721 3296 4076 3527 4934 4274 2775 3691 3711 3471 4231 4700 4200 3260 2647 3574 3400 3619 2828 4393 4267 3815 3599 2950 3512 2556 3738 2680 3449 3313 3307 3447 3592 3606 4037 3780 3062 3337 3335 4582 4729 2548 4813 4542 4830 3116 3709 3156 3137 2975 2989 4596 4529 4443 3283 4321 4341 4742 3480 2542 2746 3842 4675 4305 4469 2946 3356 2553 3244 4445 3813 2789 3713 3422 3620 3534 4839 3523 4703 4189 3510 3615 3371 4246 2627 2609 2700 3458 3182 3820 2717 3929 2839 4733 4549 3378 4860 2744 3239 3093 3101 2701 4086 3684 3925 3462 4770 3186 4509 4005 4169 3948 4688 4789 3227 3821 3357 4502 2575 4809 3990 3835 2550 4606 4607 3112 27 13 8 2 36 27 5 2 17 30 36 16 26 33 22 28 22 13 17 27 18 32 19 27 26 14 16 38 14 22 21 37 26 13 19 25 27 12 28 19 22 38 19 11 36 15 36 5 28 39 5 16 39 14 38 9 6 36 28 17 18 2 26 22 9 28 10 6 1 27 7 20 32 28 7 5 15 15 28 37 13 22 2 28 7 12 13 34 3 9 23 39 5 22 1 27 23 38 24 7 32 39 24 6 16 26 17 39 29 25 28 22 5 21 4 13 7 2 39 24 2 15 36 16 17 38 31 39 18 36 34 28 39 14 23 13 39 6 35 8 11 28 23 2 24 9 17 17 30 28 39 35 13 16 4 26 24 19 3 17 16 38 5 14 27 4 27 31 14 19 19 13 30 5 18 29 36 29 12 34 17 12 7 8 8 0 1 18 7 32 7 2 8 31 6 37 36 7 15 12 21 23 13 28 34 28 17 2 15 5 34 4 25
3273 2823 3791 3803 3393 3961 3887 3834 4405 4723 4472 4057 2719 3822 4529 2500 4942 4720 2604 4544 4142 4517 3622 4602 3621 4897 3629 4384 3176 4388 4179 3504 3584 3406 4294 3333 4742 3518 4788 4439 3101 3092 2679 4906 4538 3639 2809 4111 2528 4498 4019 3815 3120 2510 2780 4309 2678 3942 4110 3079 3428 4240 4708 2877 3069 3899 3917 3995 3608 4061 2509 4148 2837 2934 4332 2831 4404 4614 3393 4554 4132 3434 3693 4958 3777 3240 3148 4762 3311 4658 2953 3205 4265 2639 2881 4230 3876 3732 3769 3610 4760 3761 4220 3736 4508 4703 2870 4463 4549 4355 3017 4400 4013 4462 3946 3993 3164 3168 4814 3909 3399 4446 4859 4875 3683 3509 3925 3091 4903 2671 3972 3502 2601 3078 2659 3722 3753 3341 3328 3507 4256 3181 3193 3373 3646 4702 3075 3774 4424 4905 4350 3128 3046 2930 2518 2974 2872 4794 4302 4950 3388 4341 2862 2778 4030 3289 3911 2501 3046 4766 3431 4893 3864 3495 4479 4970 3401 4382 3228 4115 3257 2665 3689 3859 3177 4877 3246 4313 4256 3276 3852 2904 4239 4959 3658 2748 3958 3556 3533 4682 2884 3441 4065 3072 4052 3540 3460 3182 4076 3908 4718 3113 35 35 22 13 18 32 8 6 19 26 8 3 30 10 13 14 30 36 13 10 8 19 26 9 1 35 12 33 6 22 13 12 32 11 38 4 7 10 28 5 30 38 25 6 13 17 32 32 5 9 11 15 39 19 17 27 27 16 18 7 16 10 11 7 25 25 11 13 22 14 14 16 7 23 22 12 32 16 22 16 33 5 26 4 19 31 2 8 17 2 33 6 10 32 33 7 7 35 17 11 14 4 20 23 27 38 31 28 2 32 28 6 33 2 28 5 19 23 26 23 33 14 32 1 36 31 1 2 31 23 13 4 18 31 12 7 6 7 3 11 38 26 34 25 33 20 27 38 31 17 13 30 21 23 38 31 23 39 17 24 23 6 38 20 9 24 18 9 14 26 13 14 34 16 2 16 31 37 22 22 35 35 29 4 11 7 0 9 4 31 37 13 22 11 3 4 8 15 25 4 19 19 18 17 21 4 1 16 6 27 16 3 6
3987 3939 4260 3056 4574 2998 4589 4682 3237 3265 4601 3736 3161 2967 4138 4827 3417 4934 3271 3157 3047 4272 3082 3113 3308 3569 3936 3346 3707 3062 3128 2795 3713 4160 3972 4547 4480 4827 4908 3704 3934 3715 4771 3328 3075 3453 4786 3995 2815 3995 3327 4434 3958 3137 4163 4087 3235 2679 3353 2684 4462 2767 2923 4448 4689 3469 3740 2995 4257 4203 2843 4307 3912 2637 3964 3800 3551 2699 2876 2623 3923 4530 2578 4334 3357 3969 3123 2768 3966 4405 4747 3521 2648 3640 4476 3539 2551 4682 2652 4060 3874 3599 2890 4368 4120 3153 3400 2739 4394 4976 2884 4512 3805 3867 4507 4704 3095 3279 4331 2620 3561 2716 3677 4785 4028 4748 3480 3868 4524 3495 2811 4556 4560 4580 2766 3691 2824 3239 4424 4955 4848 4939 3610 3451 2547 4143 2652 4320 2716 2542 3204 2711 4317 2558 3898 4351 3991 4398 2966 2903 2653 2529 2535 3485 4936 4082 3787 2836 3187 3865 4006 3874 4490 4403 3203 4628 3597 4981 3111 3439 3157 2877 2579 4908 3388 2569 3257 4732 2988 3448 3240 3796 3863 4062 4505 3714 19 4169 3151 3866 3721 3238 3204 3566 2552 3885 3213 4243 2719 4968 4787 4260 24 39 36 2 23 32 6 22 32 31 28 7 37 16 26 30 28 6 31 23 26 27 34 24 34 34 2 33 16 15 5 14 25 38 10 32 9 3 9 8 4 20 27 5 38 33 13 36 3 12 8 33 25 23 3 20 19 21 39 20 32 11 15 12 19 14 26 9 32 36 24 11 3 5 19 5 9 36 21 33 36 13 33 8 26 10 16 23 26 6 22 38 28 20 28 20 5 6 32 9 28 4 33 26 15 39 8 14 9 17 31 9 17 29 29 21 38 17 28 25 19 8 9 16 4 21 4 39 7 19 35 11 29 15 2 28 4 32 14 4 15 16 29 4 18 15 37 25 39 33 25 35 5 18 8 30 36 29 35 4 6 22 15 15 30 4 2 14 18 37 10 34 12 17 18 26 19 39 34 18 31 8 13 30 7 2 39 0 19 28 33 31 37 18 13 31 32 35 2 27 24 1 22 28 19 32 11 5 33 3 17 13 13
4265 3677 2840 2666 4508 2611 2525 3344 3130 4347 2832 4205 3502 4186 2985 4816 3239 2862 3064 4497 3391 3377 3855 2825 4793 4614 3046 4154 3698 3356 2526 2953 2969 3974 3723 3921 3556 4926 2500 3551 4960 2613 3146 4396 3394 3506 4279 2854 3084 3060 3376 3603 2622 3517 4300 4381 4473 3615 4198 3037 3956 3706 4577 2647 4226 3096 4672 4395 3341 2626 4227 4967 3578 4272 4061 4907 4189 2818 4925 4170 4346 4367 4189 4483 3003 3142 3923 4694 3853 4515 4131 3459 3457 4501 4423 2518 3236 4945 4541 3899 2614 4713 4438 4801 4583 4277 4462 2722 3766 3119 4975 3826 3062 4663 4784 4345 4677 2760 3258 2920 2598 4208 2629 4161 2502 4735 4012 3211 4387 3577 4271 4961 4528 4547 3810 4283 3299 3906 4392 3239 4598 3222 2721 3824 3504 3126 2851 4034 3152 3430 4379 3436 4705 3116 4608 3586 2505 4382 2808 3205 2857 4148 4712 3785 4576 4770 3929 3300 4294 3344 4701 4481 4103 4077 3568 4114 3400 4840 2514 4930 4846 3057 3209 4000 3789 4428 2545 2697 3850 2618 3313 3147 3725 3993 4861 2631 3567 4014 3587 3067 3557 3343 3319 2560 4740 3010 4517 4226 4658 2854 4084 3457 36 4 39 15 36 29 5 28 34 18 5 20 34 16 22 5 10 8 9 18 5 1 7 3 12 28 2 6 19 4 9 12 12 27 15 31 14 10 26 1 8 29 8 26 27 38 10 12 33 5 3 3 15 34 29 4 30 14 13 32 27 30 18 17 1 15 32 25 7 13 20 13 17 34 18 35 21 22 9 26 27 31 8 38 27 24 36 17 22 24 25 37 7 3 22 38 25 8 22 17 2 5 31 1 6 13 5 14 35 25 8 13 29 18 12 29 2 1 3 23 7 31 22 4 38 17 15 29 12 23 13 39 16 9 33 3 36 37 16 15 17 25 32 12 32 19 28 14 22 4 38 21 26 18 9 20 13 30 21 20 37 8 18 34 18 34 30 29 31 4 35 15 25 29 21 39 36 23 28 11 4 23 10 31 31 22 24 18 0 28 24 26 25 30 13 23 31 16 23 38 38 15 8 28 15 25 8 13 5 30 4 16 1
3968 4240 4229 3875 2577 4339 3669 3029 4075 4386 3490 3988 2891 4140 4791 3812 4955 3818 4489 2606 4671 3825 4181 3232 3347 3628 3070 3135 2541 4026 3742 4522 7 4259 3556 4856 4947 4026 4151 4371 3009 3678 4281 4551 4752 4117 2514 4099 4739 4700 2762 4716 2995 3927 2905 4705 2754 3107 2654 3637 3951 3358 3252 3994 2773 4561 2815 4365 3021 3055 4159 3194 3874 2797 3992 4605 3131 4673 4423 2981 3482 2689 4008 4347 4240 2573 3511 4408 4937 3158 4910 4378 2561 2516 4502 2785 4348 2680 4105 2817 2574 3709 3879 3697 3881 3669 4000 2627 2922 3398 4666 3161 7 4456 10 4725 4035 3112 4438 4747 2536 3089 4623 4921 4089 4793 4354 2503 3742 4743 4712 2921 3767 3346 3881 4879 3187 4800 3418 2607 3781 4607 3216 3306 4316 4153 2750 2740 3723 3785 4987 4657 3951 4431 4902 2836 2536 4662 4353 3856 3264 3438 4482 3451 4558 2721 4380 2543 4028 4706 3516 4195 2972 4674 3753 3771 4934 4612 3637 3389 3269 3415 3639 2710 4561 3105 3841 4346 2514 4553 4263 3469 2588 4483 4588 4913 2933 2773 2923 4989 2573 4202 2828 2508 4835 4468 4971 3247 2564 4465 4294 4964 23 4 14 36 20 3 16 28 31 21 27 38 16 20 15 18 26 36 27 3 32 13 14 15 14 24 32 33 25 36 26 16 37 29 5 33 5 29 8 23 11 32 35 35 22 2 3 28 10 7 38 33 8 27 14 22 21 8 37 1 22 37 29 15 26 13 24 7 38 16 23 21 30 19 14 27 4 26 19 10 38 39 26 27 12 34 22 12 22 5 39 2 32 6 15 18 23 20 8 39 20 6 12 15 1 17 24 29 22 14 11 11 11 1 4 38 19 9 9 4 11 3 15 7 19 20 12 35 38 30 21 30 17 5 9 22 18 17 23 25 7 24 17 11 31 8 29 17 18 7 17 8 38 1 25 21 3 7 30 17 39 19 33 18 9 15 7 22 17 34 25 7 38 38 30 4 15 5 31 4 29 31 8 2 39 13 5 23 25 0 25 27 28 37 18 13 25 15 8 28 26 37 14 26 26 16 35 29 34 5 4 35 24
4939 4042 2646 3869 4518 4540 3299 4944 2937 4585 4044 4459 3733 3091 3734 2626 3532 4957 3734 3799 3300 2876 2739 3836 3500 3455 3653 3915 2806 3999 4553 4531 4671 3457 3302 4024 3965 2831 3323 2615 4368 2749 4154 4735 3066 3059 3964 3387 2667 3950 3837 2872 2724 4911 4899 4788 4140 4814 4462 3627 4758 3370 2672 4965 3573 2650 3319 3792 2835 2877 3963 3844 3655 2822 2804 4517 4705 2969 2666 3579 4997 3751 4116 4357 3599 2896 3388 4998 3418 2737 4718 2576 4953 2589 4035 3019 3107 4153 4469 4235 4133 2791 4648 3347 4425 3763 3845 4129 4216 3791 4244 2879 4046 2943 4582 4243 3161 2925 3865 2732 4717 4824 3942 4334 3052 3509 2841 3154 3537 4049 2824 3285 3307 3926 2936 4901 3449 4145 2750 3735 4037 3221 4479 4628 2768 4117 3248 4281 4741 4502 3880 4785 4334 3857 4984 4662 4815 4452 4079 4189 3978 2757 4301 3610 3924 4027 4011 4369 4022 3814 4361 4303 4951 3494 3346 3351 3912 3997 3377 4214 3748 4372 3993 3264 4353 2847 2758 2974 3292 4950 3849 3348 4084 4086 3060 3745 2852 4679 3131 4548 4776 4887 3513 2933 3204 3723 4168 3288 3351 4863 4861 4923 6 4 30 28 1 11 16 1 34 10 1 33 32 33 15 39 22 27 37 24 4 25 16 31 6 38 23 8 38 26 10 8 26 34 11 34 18 29 31 12 4 31 25 4 16 5 26 13 10 6 34 2 30 39 24 33 39 37 32 26 25 39 15 29 20 18 26 36 28 28 39 25 15 16 22 6 21 22 8 17 26 29 11 18 6 5 28 7 13 9 34 11 23 15 26 39 15 27 30 4 22 38 3 15 29 6 11 31 12 22 19 6 9 25 29 7 24 26 33 22 25 21 22 39 26 36 17 23 26 11 7 21 38 8 30 7 8 10 33 33 8 19 33 6 25 5 1 17 25 15 11 15 26 15 26 1 25 6 4 11 36 23 26 25 28 1 34 24 10 20 13 31 15 21 4 26 27 5 21 21 21 22 9 2 35 12 12 7 14 12 0 9 8 34 30 16 8 17 29 1 8 4 17 19 6 28 12 34 35 4 15 37 31
2871 4849 4298 3536 3111 4007 3409 2640 4774 4172 3687 2988 3143 4310 2946 4412 3210 4794 2636 2911 3917 3851 3512 2641 3901 3282 2537 4660 3367 3470 4173 4887 4043 3749 3777 4759 3135 4912 4919 4594 3842 3798 4178 4227 3008 3386 3245 4360 4693 2773 4238 3510 3606 4773 4697 4991 3099 3686 4930 4887 3327 3481 3322 3613 2955 4540 4203 4009 3187 3466 2949 4920 2907 2931 3314 3658 2832 4144 4763 3402 2760 2795 4507 3555 4749 3330 2729 4586 3316 4338 4159 3551 4864 3229 4652 2661 2545 4586 4344 3586 4477 3203 3865 4888 3534 2645 2834 4284 4004 4708 2934 4232 2902 4073 2951 3233 3313 3843 3101 3497 4839 3094 3634 2522 3766 2809 3300 3582 2757 3028 3809 3494 3782 4493 4005 4272 3875 2938 4126 3794 3161 4563 4658 3018 4559 4629 4504 2842 3880 3073 3629 4154 3140 3755 10 3515 2865 4225 3733 3760 4256 3174 4497 4375 2879 3296 3976 3613 4605 4593 3182 3634 3030 4113 3496 3377 3640 4920 3230 3412 2680 4119 4210 3649 3944 3453 4529 2705 4116 3613 3378 3745 2722 2576 4089 3416 4684 3009 2760 4595 4887 4990 4020 3507 4505 3531 2643 4199 4834 3135 4879 4666 34 8 1 27 33 38 34 33 14 21 8 26 22 5 36 24 12 16 25 20 33 12 2 26 8 27 13 8 16 6 36 23 24 17 38 7 35 34 7 2 22 17 21 4 14 1 37 3 31 3 30 14 15 17 29 39 10 29 4 19 1 36 30 34 12 22 9 5 11 6 36 8 33 1 12 6 32 10 34 24 12 19 30 31 29 37 5 19 2 7 35 35 23 31 26 32 14 10 17 2 13 39 23 21 12 5 21 23 15 22 9 36 23 28 19 23 39 2 30 23 6 4 29 6 23 28 2 7 12 25 21 28 36 10 22 3 22 22 13 28 24 1 24 23 7 8 24 12 21 6 15 24 35 17 33 39 18 30 8 1 18 29 31 16 12 28 32 13 33 37 25 6 22 23 5 7 35 1 13 7 31 33 30 18 33 23 28 33 24 4 38 0 29 3 10 30 34 22 4 18 27 33 4 10 6 29 27 34 4 5 27 17 34
4765 3798 3003 3018 3158 3911 2875 4358 3700 2872 4405 3615 4974 2912 4423 4285 4468 4804 11 3139 2741 2578 3657 3127 2663 3187 2853 3307 3350 2814 3658 3939 4764 3223 3541 3251 3049 4800 4526 4306 4827 2578 2676 3124 3026 2866 2861 3379 4689 3628 4230 4458 4808 4226 3133 4021 4865 3357 4861 4231 2567 3830 4979 3728 3287 4190 3326 2621 2820 3467 4945 3872 4201 3777 4637 2944 3521 4993 4730 4334 3438 2576 2732 2918 4729 4832 3468 3912 2714 4303 4088 4115 4101 3105 4406 3034 3236 3582 4884 2521 3174 4288 4420 3592 4327 3838 4316 2744 2710 4628 3729 3586 3239 2947 4415 4624 3879 4727 2537 3782 3194 3978 4047 4832 2731 4992 3881 3690 3740 4604 4218 3550 2631 3210 3954 4070 4728 3899 4392 4314 4960 3516 4051 4882 4593 4160 3001 4908 3749 4453 4468 3005 4497 4267 4263 4706 3668 2717 4679 4174 4859 3890 2549 3011 3175 3970 3715 3368 4129 2856 3739 3622 3804 4492 4047 2599 4108 4469 4678 3940 4512 4588 4190 3417 2594 4676 2806 4233 3617 3006 3969 4935 4486 4507 3210 4980 4238 2505 4298 4754 3240 3143 4482 4127 4087 3748 4631 4609 4665 4263 4747 4994 12 25 5 2 17 20 38 37 18 10 15 35 19 9 34 31 33 22 37 15 38 29 24 22 27 25 17 10 24 16 22 30 27 11 4 31 4 27 13 27 12 15 25 14 31 10 11 11 27 12 8 35 8 15 15 33 36 5 36 2 29 4 20 4 23 22 26 9 5 36 1 11 29 34 22 28 19 29 36 25 24 30 14 1 32 16 27 32 30 11 39 2 17 2 30 19 9 9 12 11 35 14 6 11 12 11 21 37 26 13 25 6 24 12 5 9 2 23 6 5 6 17 33 5 18 2 28 18 17 13 27 32 10 36 20 30 20 26 20 23 4 18 25 20 28 23 39 5 18 24 18 39 10 38 6 24 17 39 36 17 19 19 3 11 33 16 26 15 14 17 7 37 36 8 6 30 10 10 14 34 29 15 33 36 20 6 21 36 22 9 35 9 0 7 30 18 23 33 10 26 31 22 30 16 14 3 31 33 11 19 1 19 10
3939 2756 2566 4750 2503 3955 4738 4788 3587 3791 2982 2600 3245 4810 3593 4101 3946 4637 4977 3135 4338 3956 3028 2532 3581 4049 4241 6 4271 4521 3512 4585 4514 4680 4756 3797 4260 4750 4306 3243 4619 4522 4040 2760 3954 3638 2776 3567 2948 3010 3653 4893 3764 4427 2708 3734 3402 4805 4574 4345 3433 3780 4302 4023 4680 4248 4713 4800 3568 3823 4578 3006 3480 3045 2510 4947 3746 2936 4462 2929 2550 4445 3492 3311 4619 2815 3225 4461 3468 3413 4069 4140 3098 2729 4241 4433 2901 2629 2916 4441 2640 3858 3684 3057 4115 4903 3364 4695 4503 3856 4275 3235 4812 3642 3073 4261 3035 2945 2841 4665 3003 3135 3807 2716 4623 2996 4976 4829 4984 2892 2655 4658 4715 3192 4158 4106 4408 3703 4077 2805 3813 4060 2991 4413 4443 3651 2716 3307 4922 4014 3730 3242 3380 2631 4118 3367 3448 2751 4273 3457 3901 4121 3597 2965 3234 4273 3136 3343 3528 3263 4881 4767 4980 3710 2751 3316 3759 3627 4605 4140 4298 2750 3222 3970 4270 4860 3535 3615 3981 4909 3129 4471 2501 2582 2576 3597 3821 3669 2667 2889 4189 3664 3210 4511 4659 3831 4864 3330 3438 2810 4186 4398 17 28 4 5 23 22 30 6 22 27 17 24 10 31 32 31 35 24 30 12 29 27 12 24 36 15 7 37 9 39 18 18 14 37 8 30 32 6 33 21 23 12 39 27 3 14 38 20 27 8 1 35 10 26 15 11 30 15 21 25 24 39 35 6 23 36 14 32 31 17 39 16 11 3 3 1 24 28 1 15 2 22 6 33 27 11 11 30 24 28 36 30 35 27 6 7 9 22 18 13 18 34 35 33 39 14 17 5 26 10 35 25 25 33 29 31 9 5 25 13 17 1 19 2 34 2 15 12 15 34 9 16 14 1 13 2 20 3 10 14 37 24 10 31 36 33 2 2 13 39 34 19 3 30 7 14 4 20 18 13 9 38 29 4 25 12 39 36 26 10 18 30 31 12 38 29 34 33 33 2 9 30 39 18 39 30 20 35 10 31 9 10 35 0 13 31 19 38 7 31 3 15 37 14 18 36 34 18 24 23 38 15 24
3924 4558 2935 4750 3333 3870 4452 4750 4911 3613 4355 4449 2501 3067 4787 4388 4385 4360 2746 4569 3581 3635 4770 4506 3472 3165 4666 3136 3597 4624 2956 3569 4532 3075 3840 4197 4413 3823 3128 2824 3636 3982 2909 3455 2603 2688 4096 4758 3582 4091 3507 4991 4389 3877 3050 3968 3809 3368 4402 3260 3280 3324 4599 2897 3124 2847 3729 4902 3133 4325 4334 2706 3701 2817 4190 4496 2500 3361 4251 3821 4276 4707 3689 3793 3977 3418 4179 4236 3488 4953 3882 2724 2840 4797 3733 4778 3175 4889 3567 2797 3989 4300 3540 4291 4516 3919 3080 2702 3185 4305 4344 3597 4916 2857 3400 3829 4026 4459 3206 3999 4482 4141 4855 4748 3738 3388 3192 3041 2965 4150 3901 4551 3903 3746 3960 3478 2558 4874 2500 4984 2696 2909 4817 3843 3956 4621 2694 2794 2672 4623 3978 4039 4999 4130 3385 2689 4240 3669 3252 4882 4083 4911 3897 3086 3198 4938 2508 3372 3749 4351 3911 3147 4802 3768 4257 4259 4052 3231 3995 4647 4844 3166 3419 4600 3361 3189 4004 4621 2712 4959 3263 4010 4605 4090 3826 4231 2987 4256 3856 2967 4265 4016 3071 3836 4119 3019 3073 2858 2695 4933 3904 3988 35 7 35 2 18 19 5 36 23 2 18 13 39 31 17 39 14 35 29 38 8 15 12 21 7 39 4 14 17 24 19 31 5 16 37 26 3 8 5 10 39 20 18 6 37 19 24 17 26 26 26 9 23 32 35 8 19 12 23 11 27 33 31 11 14 23 39 6 3 19 38 31 11 2 17 29 6 30 37 3 13 25 24 29 39 10 24 24 19 30 19 13 23 19 14 22 38 34 37 4 26 4 7 16 38 10 7 13 26 25 39 22 7 36 16 37 7 23 38 14 11 29 22 31 18 26 7 35 3 3 33 19 31 9 6 3 14 17 38 36 18 23 26 39 12 10 22 31 30 6 25 27 6 17 23 3 2 29 14 7 8 9 39 36 12 12 27 20 38 13 22 30 27 22 14 39 6 25 34 6 32 3 18 23 21 33 14 3 30 6 22 16 19 22 0 26 6 4 22 16 13 24 23 39 13 8 27 33 10 21 12 24 14
4723 4032 3797 3102 4665 3993 4956 3392 4393 3599 2545 4568 4917 2595 3671 3414 2586 2983 3349 4986 4557 3730 3900 3389 3559 3669 4463 2787 3924 2696 3474 4199 3323 4989 3144 2754 4128 3020 2808 3916 2833 4440 3194 2596 2759 3018 4921 4542 3155 3511 4971 16 3594 4680 3461 4934 3081 3097 3209 4143 3043 4740 2576 4383 4316 3131 3105 3285 2709 3367 2940 3932 3671 3353 4910 2577 2540 2739 2653 11 4733 4885 4430 3766 4032 14 3165 2619 4952 2594 4374 2549 3039 2716 3722 2854 4023 3726 4252 4965 3195 3271 4649 3866 3821 2870 3817 2518 3401 3889 4969 4497 3626 3491 3801 2693 2559 3648 3126 3193 4182 4763 3490 4481 3145 4405 2685 3108 3988 3814 4608 3447 3216 3302 2841 4497 2885 3836 2646 4013 4151 2573 3111 4153 4236 3497 2538 4360 4119 4226 3494 2915 3808 2829 4628 4628 4409 4600 2537 4438 4786 3763 3150 4910 4590 2921 3656 3076 2842 3371 3436 2880 4536 4904 3335 4369 4175 4734 3094 4482 4103 3032 3363 3896 4388 3193 3324 4764 4638 3577 2709 4581 4351 3635 4686 3858 2735 4167 4016 4972 3514 2797 3254 4960 3559 3250 19 2719 4770 2507 4227 4372 16 13 13 15 20 19 22 20 31 4 15 32 33 23 38 7 25 36 7 17 27 34 32 10 3 37 15 6 17 16 1 36 21 24 34 2 27 36 10 15 15 11 14 17 31 28 2 27 11 13 31 15 32 6 15 12 37 33 3 13 28 31 35 35 3 4 20 12 24 34 18 6 15 30 12 33 7 38 7 14 7 3 5 27 30 4 8 12 26 30 20 37 18 18 24 35 34 33 24 25 3 24 5 23 39 35 37 22 1 6 14 2 1 39 35 28 25 14 22 11 39 14 7 6 10 13 30 37 2 17 16 15 22 21 27 2 30 23 12 4 30 8 12 37 27 31 26 23 8 17 9 37 4 32 19 37 16 2 31 36 18 29 27 34 12 14 14 18 2 30 23 25 33 37 23 34 9 29 11 7 33 11 35 10 8 29 5 15 28 32 4 16 36 23 17 0 26 23 28 32 37 31 14 34 25 36 26 19 20 24 20 39 29
3787 3978 4682 2622 3636 4255 4347 3899 3707 4780 2846 4884 2999 4621 3137 2844 4262 3523 2849 4504 4354 2719 4887 3225 2988 4956 3376 2648 4410 3038 2772 3870 4441 4794 2530 2873 4377 3872 2748 4119 4422 3081 4459 3176 4788 3161 2582 4491 2645 4585 3684 3266 4289 3007 2830 3476 3061 3606 3422 3572 4129 4529 3344 4251 4831 4826 4428 3181 4483 4848 3801 4845 4710 4353 3754 3412 3103 4430 3119 3869 4660 3571 3129 4966 3766 3810 3576 3177 4211 3967 3001 3848 4111 4337 3376 4947 3828 4519 3957 3931 4690 4990 4826 3843 3052 2781 4214 3133 4077 4125 3786 4890 4656 3695 4291 3320 3296 4789 3306 3005 3828 4924 2685 2861 2982 3966 4540 3249 3917 3597 3045 4739 3349 3595 3105 4665 4280 3941 4906 4243 2664 3363 4765 4535 4706 3160 3193 4055 4299 4005 2649 4254 3291 2929 3760 2956 3941 4120 4723 2626 4087 2662 3948 4494 4312 3338 2982 3277 3841 3178 4585 3141 2771 2651 3490 3887 3219 3892 4040 3467 4434 3978 4608 2743 3058 3363 3129 2558 3452 4669 2921 2684 3303 3775 4716 2704 2769 4125 3908 2614 4126 4989 4756 3802 2845 4325 3773 2547 3464 4047 4549 3502 26 8 8 10 16 33 25 9 25 32 2 16 11 5 31 39 39 34 6 32 25 12 22 37 14 14 12 31 23 32 28 7 9 36 19 20 29 15 12 33 11 3 8 7 7 20 14 9 35 10 10 37 14 8 24 21 6 18 9 4 7 21 32 15 19 11 9 16 18 20 23 10 17 22 19 24 30 14 38 6 3 15 35 7 21 24 39 24 19 29 11 10 1 28 33 12 35 28 34 27 36 33 13 38 37 30 23 3 29 1 37 7 39 37 29 32 1 4 33 9 33 14 28 30 12 29 8 37 36 37 20 17 28 29 9 25 12 35 3 14 20 19 39 26 20 9 15 25 29 10 18 11 16 5 11 19 5 17 24 3 16 4 24 27 6 15 3 35 38 1 11 14 10 3 32 7 16 32 16 38 28 38 20 21 37 2 29 15 3 29 36 16 3 39 37 14 0 21 9 12 27 1 34 23 37 38 8 22 31 38 5 10 33
2941 3507 3051 4836 4923 3697 4141 4372 3883 4098 3286 4071 4303 3203 2725 2801 3345 2674 4228 4008 3512 3733 4746 4481 3486 4772 3674 3920 2665 2586 4374 3653 4031 4753 4236 4096 2952 4630 2554 3647 3303 2927 3450 2600 4696 3245 4244 3511 3801 4409 3240 4269 4748 4064 4139 4539 2931 4751 4685 4435 4072 2842 4548 4617 3327 3033 3541 3564 3255 3565 3012 4587 4043 4063 4018 2931 2805 3295 2937 3461 2596 3412 4130 3937 4674 3373 2731 3560 2985 3496 3891 2640 2710 2783 3502 4003 3952 3500 4016 4023 3704 3163 3606 3373 3927 3292 4904 4987 4508 3218 3926 3204 3129 2534 4458 4993 4168 4714 3548 3996 3046 2733 4321 3520 4798 3226 4916 3225 4083 3469 3131 3619 4168 2878 3950 2871 3134 3029 3761 2759 3362 3825 2604 3696 3893 2614 3226 4264 2512 2608 3610 3017 3231 4700 3262 4766 4873 3476 4770 2505 4515 4483 3575 4580 2666 2875 2664 3945 3113 4951 3100 3246 4960 3719 4692 4608 3511 2568 2884 2559 4109 4707 3024 3375 4152 4231 4777 3062 4680 3845 4766 3052 4169 4942 4591 2633 4256 3502 3580 3543 2559 3832 4747 3622 4286 18 4965 3624 4527 4692 3012 4108 12 10 12 7 8 36 2 5 36 23 37 28 14 36 7 30 12 35 7 35 26 17 36 7 24 18 8 10 18 24 13 4 25 35 20 21 12 10 15 37 1 32 3 23 35 25 17 33 17 4 13 32 7 22 3 18 1 34 30 9 38 1 15 35 20 23 4 12 34 10 2 16 30 12 9 2 6 33 21 36 20 6 33 34 18 17 21 12 14 20 4 38 35 9 8 4 5 11 13 12 6 20 15 24 21 1 5 37 27 25 37 9 35 20 14 23 35 15 21 19 25 1 3 15 28 25 9 8 22 1 13 1 6 31 31 15 32 27 28 36 34 18 12 24 1 18 8 16 22 20 7 2 7 15 22 8 22 34 14 36 26 15 25 10 10 33 3 38 19 21 9 36 3 7 6 20 31 11 35 31 19 9 10 16 24 12 2 14 21 31 13 36 16 7 32 29 33 0 39 6 22 30 28 33 16 12 16 9 36 5 26 2 22
2517 4814 3452 4124 3754 3834 3704 4259 3530 4127 3847 4625 3803 2828 3604 3528 3902 4600 3781 4716 3545 3263 3599 3713 4798 3587 3666 4972 3349 4332 4146 3602 2580 3400 4084 2513 4084 3472 3239 2667 4903 3418 4874 4956 4155 3759 3451 2650 3234 3782 3004 3705 2917 3790 4189 4803 4346 4543 4050 2790 2827 2787 2525 4485 2879 2572 3210 2563 2621 3201 4810 2675 2832 3344 3349 3897 3580 2687 4159 3903 4214 4764 2891 3963 2635 4755 3688 4791 4802 3706 3039 4917 3874 3983 3374 2933 3948 3202 4184 4223 4578 4633 2782 4666 4866 2753 3425 3830 3653 3212 4575 4687 3555 4332 4333 3220 3889 4373 4457 3665 3180 2638 2843 4436 4692 3261 3948 4731 3689 4647 4417 3597 2878 3849 2760 3402 2644 3314 4093 3983 2910 4051 4987 4176 4994 3247 4375 3547 2875 2611 3625 2561 3405 3558 2806 2809 4364 2596 2892 4783 3566 3776 4265 4590 4321 4973 3364 2611 3735 3038 4966 3076 3845 4669 4311 3660 3012 2775 4374 3153 4211 3354 4233 3069 4705 4073 4382 2786 4503 4849 4995 2775 3482 3454 2998 3557 4733 3268 3459 3808 4964 4163 2776 2721 2970 4908 4173 4372 3155 4772 3182 3624 29 13 21 29 28 21 10 18 35 1 15 12 11 23 21 31 34 16 13 3 34 15 9 10 28 32 25 23 7 7 22 21 17 6 38 9 35 29 21 6 9 32 1 18 24 2 24 30 18 15 7 12 39 30 37 38 36 6 26 20 16 20 23 8 34 26 20 6 4 16 16 35 13 12 25 7 33 1 25 10 6 2 30 35 33 16 19 33 32 27 27 39 25 6 32 24 12 29 28 3 30 20 26 28 37 18 6 38 9 5 18 23 11 34 22 32 32 13 13 37 17 13 23 21 29 34 30 34 30 35 18 30 25 10 38 35 19 25 2 13 3 1 15 20 21 11 24 24 34 29 30 25 17 37 31 6 22 18 11 28 2 25 21 8 3 38 21 30 28 28 25 1 21 8 4 34 13 25 31 22 1 31 27 30 37 23 31 12 23 28 29 38 21 4 7 8 24 15 0 13 15 32 5 27 24 23 8 12 21 10 12 19 10
4250 3357 2564 3769 4408 3906 4163 2828 4590 2503 3426 4235 4475 3089 4478 4256 4534 2897 4169 4619 4295 3826 4972 4425 4314 4377 3990 3518 2529 3961 4328 4883 4629 3419 3090 3150 4495 4345 3890 4806 3158 3211 4217 4235 3086 3394 4700 4337 3654 4008 4064 3089 4956 3054 3246 3078 3436 3670 4471 3912 3100 4526 4278 3439 3081 2827 4511 4269 3897 4873 3145 4612 3544 4365 4319 3241 4939 3111 2598 2941 3575 4839 4451 4938 4785 3552 4266 3485 4223 4779 4894 2986 4130 4713 3062 4740 4669 3199 4604 4544 4709 3360 3505 3061 4007 3973 3999 4366 3516 4961 3325 3120 4894 3477 3319 4364 3666 3294 4911 4911 4172 3758 3837 2892 4162 3106 3829 4247 3493 3597 4127 2860 4024 3260 2917 2844 3545 3368 4545 3934 3024 3963 4239 3695 2684 4532 13 3015 2646 4322 3567 3590 2881 4315 4514 3953 3738 3393 4348 2815 2560 3305 3544 4340 4780 4861 3228 4368 4863 3566 3188 4981 4087 3035 3812 4101 3731 3293 3167 2797 4555 4208 3407 4921 3499 3513 4788 3386 4675 2754 2907 4854 3300 2904 4629 4737 4457 4908 4788 4058 4791 4267 2929 4170 3964 2556 4399 3944 4825 4324 3029 3345 34 30 8 19 16 7 8 21 3 35 32 14 24 21 10 25 21 22 17 23 17 8 23 17 24 3 10 22 20 29 13 19 25 32 8 34 30 17 1 1 26 8 21 5 33 32 8 14 24 2 11 14 37 20 34 19 34 3 13 17 26 15 30 19 28 27 16 39 4 26 23 1 20 31 6 13 4 14 1 7 33 28 31 9 20 13 12 19 7 26 11 11 23 7 4 39 5 38 37 14 6 18 32 21 10 1 23 3 26 8 25 9 35 26 30 9 5 2 36 5 27 39 8 7 28 34 34 28 25 7 12 19 24 7 36 27 16 35 14 36 23 8 21 38 16 30 18 14 24 11 20 1 29 2 13 7 3 1 29 14 34 19 12 7 2 18 4 38 12 3 5 22 20 23 1 37 10 35 4 16 27 38 31 16 20 36 28 21 9 16 22 39 7 36 35 2 8 5 3 0 33 14 28 12 15 14 36 39 32 39 21 28 9
3421 4237 2505 4691 2501 4538 2979 2623 4276 4385 4945 3028 4210 3711 3626 3157 3041 3585 3085 4104 4035 4552 2571 2592 3390 3450 2787 2603 2780 2913 2901 3381 2902 4559 4695 4613 3982 4849 3023 3462 3867 2781 3828 3773 3955 2652 3595 4046 2937 4980 3668 4252 3052 3824 2777 2539 4745 3213 3246 4140 4130 3272 2886 3696 4026 3147 4913 3977 3913 2780 4253 3519 2512 3382 4381 4514 3180 4034 3429 3057 4343 3383 4683 4044 4414 4564 4292 3610 3349 4295 4754 3566 3452 3296 2675 3878 2861 4472 4572 4750 4719 4833 2539 4773 4009 4698 2883 2891 3362 4305 4674 3737 3550 4617 3947 2692 4055 4586 4187 19 2727 3472 2665 4306 4657 4604 4269 3737 2806 4025 3296 4229 4801 4799 3224 3874 3392 4233 2943 3987 2879 4083 4782 2921 4823 3628 4748 2517 3424 4247 3376 4514 4488 3997 4570 2834 3560 4678 4709 4224 3649 3206 4788 3600 4657 4143 4133 3237 4024 2868 3054 2847 4215 3261 3710 3167 3507 3171 3592 4644 4282 2942 3770 3051 3226 2662 3190 3089 3258 2789 3003 4001 4210 3040 3312 4305 4134 4931 2950 3029 3636 6 2853 4876 2789 3196 4474 4640 4358 4888 4725 2510 29 18 1 22 19 23 8 30 22 29 5 26 15 38 1 7 31 38 25 15 2 22 6 5 28 9 16 13 24 21 16 27 15 26 39 2 19 33 35 19 39 30 18 14 26 12 33 5 5 22 5 2 6 21 4 34 12 14 36 9 7 2 35 11 32 11 27 9 6 30 26 1 5 10 39 27 10 22 22 9 19 29 10 7 6 1 25 17 23 35 19 8 12 15 34 28 15 8 17 19 2 2 38 16 14 3 30 35 35 21 8 5 28 31 20 14 29 4 11 25 9 25 19 5 7 14 4 33 3 20 30 5 10 20 37 17 6 18 18 5 17 25 36 39 7 6 26 35 5 26 6 31 10 34 5 4 21 14 36 9 23 14 18 12 29 1 6 19 8 5 1 4 2 9 39 17 26 37 4 27 6 8 3 31 20 6 18 10 32 38 27 8 27 2 6 37 7 3 4 6 0 29 23 17 26 31 32 9 36 36 4 7 19
3591 3257 4672 4167 2910 2730 2605 4797 2639 3568 2616 4926 3707 3875 3455 3113 2585 4731 4223 4867 2535 3606 3090 4134 4680 3546 3634 3565 4420 4530 4309 2792 4869 3953 4678 4987 4997 3163 3486 3440 4763 4573 3405 4331 4134 3409 3451 2768 3392 3938 4957 3276 3694 3299 3464 3420 3060 2546 4816 3632 4040 4397 2697 4293 3771 2646 2603 3508 3852 3250 2624 3372 3882 3226 4182 3329 2985 4972 3288 2590 2571 4783 3160 3180 3092 3962 3481 4129 3300 4524 3127 3865 2633 4980 4575 3941 4167 4473 4568 4620 2997 4582 4593 2621 3116 4600 3197 2872 4828 4925 4002 18 3876 4440 4545 4986 2589 4274 3460 2970 2792 4520 3888 3632 3425 4595 4482 4839 3353 4740 4319 4634 3470 4300 2756 3490 3245 3297 3578 3753 3641 4905 2674 3176 3576 3600 2574 3716 3005 3262 3827 3784 3174 3316 3043 4283 4512 4432 4057 4452 2954 4317 4142 3098 4020 4965 4869 3842 2848 4881 3489 3946 4094 3679 2690 4200 2740 2602 2746 4179 4141 3531 4284 3832 4817 3366 4842 4389 3519 2835 3001 4739 3445 3272 3346 3272 4659 4951 4631 2606 3606 3269 2889 4949 4803 4965 3139 3733 2741 3875 2570 2786 23 22 1 12 31 26 11 13 13 6 23 19 18 8 18 2 18 6 14 15 23 27 29 25 23 38 10 18 21 35 2 9 28 21 6 20 16 20 23 25 16 31 30 14 25 28 38 16 13 4 39 20 21 30 32 34 21 28 21 38 25 20 37 30 9 23 6 28 12 6 24 11 8 1 11 34 1 18 38 25 17 22 27 32 24 11 6 14 13 36 15 23 12 34 28 16 20 18 13 22 12 3 4 9 1 28 31 33 22 31 34 12 3 10 38 17 33 30 34 35 32 28 29 27 32 37 13 14 16 18 6 12 31 34 6 10 10 39 12 6 16 23 39 27 2 13 11 31 13 37 19 14 23 9 22 21 28 5 27 9 8 4 30 39 16 32 4 1 1 15 36 14 25 18 1 5 9 19 30 10 27 32 11 31 8 35 9 6 8 1 16 18 35 3 6 23 35 28 4 34 25 0 21 32 24 25 32 27 30 28 36 5 32
3738 3206 3340 3931 2661 4287 4788 4139 3389 2659 4499 3442 3446 3865 4989 4667 2740 3601 2856 3627 2988 3376 4320 4620 3820 2704 11 4173 4540 2982 3433 4045 2982 3725 4799 2718 4623 3834 4466 3828 3010 3133 3486 3351 4784 2830 2896 2522 3432 3951 2590 2913 4987 4139 4679 4104 4883 3196 3770 4002 3215 3934 3790 3718 2584 3248 4108 3910 2824 3307 3728 3715 4967 4053 3166 3870 3981 4307 2958 3796 4930 3825 3273 3176 3896 2535 3749 2845 3058 4536 4728 4092 3489 4620 3571 3817 3468 3506 2965 4993 4796 4816 3811 2585 2674 4290 3069 4548 4020 3967 4406 3285 3655 4278 2796 3214 3730 3355 2756 4175 3203 2751 3602 3759 4770 3866 4783 4509 4003 4299 2507 4107 4678 4654 4527 2532 4627 3182 4352 3262 2700 4622 4577 3952 2666 3622 2820 3824 3292 3349 2689 3542 3576 4151 4723 4943 3267 2952 4104 2608 4208 2606 4601 3439 4390 3928 3050 3291 3759 4207 4781 3808 4360 3832 4078 4116 4645 4640 3934 4161 3410 4846 4582 2715 3052 3906 2613 3374 3162 4209 4322 4077 3853 3117 2544 3593 4185 3029 3172 3148 2703 3598 2963 3992 4455 2998 2602 3644 3453 3945 4159 3184 15 39 38 19 20 14 20 28 19 1 39 28 9 26 33 20 8 8 16 36 7 36 13 23 8 34 21 29 20 16 27 14 13 12 1 8 15 2 8 15 10 22 27 16 4 11 18 25 33 26 11 1 39 18 16 23 6 26 8 19 23 20 20 16 23 26 11 15 22 7 23 10 6 9 24 17 33 19 17 30 3 7 20 1 4 14 22 33 27 14 19 39 21 36 20 23 39 13 14 32 2 18 32 31 24 26 37 21 28 9 23 21 5 14 20 13 13 12 18 29 25 4 30 35 35 28 38 20 14 31 39 17 2 20 11 16 27 22 15 2 4 1 22 14 7 22 28 8 24 21 17 38 12 2 22 21 30 7 17 25 27 22 9 19 34 39 27 34 39 11 33 2 5 13 9 36 39 20 32 34 37 17 12 6 27 20 14 18 9 38 8 32 14 24 19 25 12 21 10 24 3 20 0 29 21 4 20 26 1 29 23 15 6
3809 4738 4468 4923 3049 4367 3802 4887 3239 4616 4736 4915 4438 3284 2635 2813 3116 3797 3418 4593 2839 4095 2999 4101 2840 4898 4488 2805 3495 4201 3854 4980 3117 3050 2770 4548 4524 4083 2745 4554 4707 3722 3316 2864 3258 4470 3420 12 4628 2706 3395 2539 4309 2988 3196 3684 3448 3538 2751 3860 2590 3565 3621 4646 3309 3478 4128 4689 2512 3089 2843 3930 3413 4296 3401 3062 3824 4538 3596 2661 2535 3551 3292 4890 4481 2729 2849 3974 4624 2939 4313 3224 4502 3463 3803 3010 2636 2694 4460 2594 3904 4295 3753 3642 4658 4200 3149 4278 2888 4398 4316 3815 3873 4857 4513 2518 3811 4624 4901 4279 2737 4515 4691 3014 3210 3811 4016 3317 3407 2694 3402 2769 4129 3059 4404 3779 4576 2934 2651 4749 4547 3198 4469 3256 3006 2934 3084 2549 2737 2565 4404 4312 2642 2737 3845 4699 3997 4736 3392 2857 3254 3137 4214 2915 4326 3310 2630 3204 4450 3783 2690 7 3496 4090 3860 4483 3184 4746 3438 3631 3585 3657 4131 3047 3398 4273 4258 4936 4516 2873 3373 2677 4774 2869 4532 2561 3805 4574 3816 4901 2637 2657 3994 4657 3109 4500 4934 4688 3577 3079 4502 4768 21 9 6 2 31 2 16 33 27 9 19 14 29 10 28 16 35 29 1 35 24 30 30 30 39 35 17 9 13 27 20 20 28 21 32 39 1 15 24 34 18 39 4 34 3 19 16 25 34 24 27 8 30 10 35 1 3 3 28 11 5 25 33 29 33 18 37 7 2 15 1 36 14 18 20 17 25 24 25 39 2 21 36 30 22 14 3 17 1 37 36 8 20 29 14 34 39 24 4 5 9 28 33 32 31 37 27 10 3 17 22 23 4 25 9 8 31 1 4 5 12 14 27 22 30 8 9 9 10 38 37 32 18 36 28 18 18 38 14 11 32 2 15 3 14 8 11 32 5 10 12 24 35 22 18 31 15 19 14 35 5 25 14 14 20 10 7 37 36 21 24 29 16 10 20 9 37 26 27 30 34 39 5 25 34 26 3 27 2 22 13 29 7 37 5 3 32 28 10 7 11 20 34 0 31 20 38 22 7 3 22 15 26
3258 4126 2599 4119 3335 3382 3168 4597 4900 4829 3146 2770 2694 4695 2653 4157 4779 3603 4202 4732 4765 3472 2996 4523 3377 2917 2873 4150 3208 4403 4168 4479 2920 4634 2639 3242 3098 4082 2720 3338 4801 4835 4968 2587 4758 3883 2791 4101 3718 2904 3651 4899 4035 2566 4757 4565 3294 4761 3563 4906 3746 2553 3088 3286 4501 3916 2655 4868 4371 4001 3713 2617 2939 4823 4691 4439 3402 2768 4992 4481 3647 2801 3020 3342 3720 4746 4037 4360 3740 4343 3611 3534 2568 3573 4903 4784 4189 4784 2706 3377 4926 4048 3102 4350 4334 4102 4379 4508 3606 4994 4191 4973 3224 2567 3090 2936 2647 4171 4381 3428 3162 4567 3283 4803 4787 4089 4588 2924 3466 4493 4260 4999 4354 4474 3919 4475 3034 3420 2971 3016 3727 2510 3889 3425 3095 4873 4519 3815 2568 3990 4930 2883 3263 4152 3800 3833 3860 3413 3933 3578 3696 3293 3075 3957 3518 3805 3847 4329 4703 3076 3547 3643 3229 2585 4317 4750 3143 3397 4486 4521 3494 4029 3582 4630 3066 2551 4698 3706 4037 3964 3818 2542 2732 4519 2794 4934 4863 2824 2581 3842 3593 4377 2679 4624 3996 2999 3699 2764 3203 3451 2738 2696 23 36 5 2 37 2 27 33 7 23 4 4 22 39 22 4 33 11 6 8 15 9 4 9 3 27 13 36 30 26 24 31 37 16 38 4 35 22 9 19 12 36 5 36 20 24 2 24 10 7 11 16 13 17 25 8 19 14 39 17 1 10 33 30 13 32 38 3 33 9 36 21 18 30 16 13 7 22 25 31 31 22 16 2 21 2 9 1 30 37 12 23 16 12 36 15 26 14 36 8 26 29 7 3 14 17 8 21 37 10 36 2 8 28 14 16 3 32 15 2 10 13 20 30 38 12 2 37 17 32 39 9 2 1 24 30 15 18 33 19 10 19 33 23 1 28 4 13 18 24 4 9 30 20 23 10 9 6 30 35 39 13 5 23 36 17 32 37 16 36 29 33 7 18 23 16 27 30 23 29 29 12 30 14 14 37 37 7 12 8 13 25 3 28 38 1 14 19 38 26 2 37 4 23 0 8 15 5 15 10 37 20 36
3754 3596 3394 3310 4457 3363 3615 4367 3437 2731 2826 4413 2787 3179 2829 2632 3723 3027 3677 3276 4253 3087 3206 4374 2856 2649 3281 2654 4901 3975 4296 2511 3046 2912 3398 3973 3134 4947 4601 2760 2626 4608 4273 2723 3467 3236 4519 3736 4407 4677 3602 4639 3234 4026 2565 4689 3959 4321 4644 4358 4312 2673 3872 4621 3591 2651 2803 4386 4638 2996 3830 4060 4456 3314 4789 3248 4574 3820 3859 4803 3571 3261 3987 4210 4210 2568 2577 2778 3798 4491 2503 4137 3526 4217 4782 2973 4589 4491 2518 3855 4591 4366 4814 4377 3792 4302 2776 8 3320 4741 3936 4117 3424 4309 4150 3080 3839 4323 3337 3273 4478 2857 4153 3478 3399 4764 3013 2773 2848 3854 2660 2961 2958 4161 4001 4064 4700 2678 3699 4442 3507 4431 4511 2733 2602 3985 3583 3872 2689 4469 4438 3263 4921 3187 3696 3483 2838 3145 4840 3804 3052 3884 2873 2746 3902 3801 4336 3782 4152 4870 4017 19 4872 3350 4229 2758 2554 3934 4463 4578 3652 4010 4784 4206 2736 3005 4583 4661 3951 4574 2997 3478 3692 3202 4266 2846 3781 2843 3621 3501 4629 3332 3733 3505 2545 3325 4344 2891 4473 3252 3455 2777 34 6 32 7 32 4 27 32 34 29 11 24 37 29 17 9 1 12 19 16 9 25 37 34 37 4 24 13 32 24 35 29 18 39 1 32 29 16 32 38 5 35 5 25 33 11 12 19 38 23 10 27 20 21 38 37 34 23 7 4 25 29 25 12 23 26 27 15 7 23 19 31 34 35 19 36 2 33 15 39 16 19 37 32 21 3 10 5 13 39 37 14 12 35 31 3 14 39 19 35 33 9 30 33 22 8 30 23 4 27 3 21 1 2 9 1 39 16 27 5 18 14 24 32 35 35 34 10 33 29 14 10 21 19 35 7 18 16 14 14 15 6 2 19 26 6 10 10 11 29 5 10 18 17 1 15 9 1 23 18 5 31 10 34 18 7 6 23 20 34 9 2 12 3 37 36 30 34 33 20 8 32 22 19 31 1 22 12 32 30 39 23 36 2 32 20 14 24 29 5 9 24 34 10 18 0 23 17 11 11 22 11 2
4534 4818 3120 4304 4889 2837 3620 4918 2826 4633 3616 4063 3375 4802 4477 4219 3500 4975 3698 2567 3081 2799 2568 3893 4684 18 3612 2861 4224 3450 2966 2665 3853 4896 3247 3540 3348 4408 3344 3488 3473 3784 4186 4461 3990 4191 2908 4983 2764 3297 4069 3148 3367 3138 3478 3916 4434 4485 3150 4971 2514 4990 2827 2580 4302 4135 3163 2747 3129 2957 3402 4170 2854 3141 4083 2892 3581 2572 3434 4502 4326 2642 2870 3479 2623 4086 2802 4344 4652 2968 4839 4005 3892 3459 4613 2775 2678 3594 4571 3642 3965 2844 3684 4181 2998 3168 3514 4437 3830 3745 4377 4640 3025 2802 2584 4376 4264 4948 3740 4809 4929 3654 4848 3958 3723 4892 3959 4534 3504 4815 4013 3496 3989 10 4951 3063 2634 2577 4806 3062 3904 3379 4317 4756 3324 3380 3630 3052 3020 2905 3490 3716 3140 4448 3109 2945 3364 2571 4312 3295 3696 3643 3915 3147 3292 4229 3392 2696 2572 3099 2750 3241 4849 3865 3250 4662 2769 3417 4074 4011 3485 4311 2778 3862 4203 4538 3950 4601 3484 3756 3244 2667 3833 2560 3416 4358 4434 2964 4372 2541 4756 3289 2556 3153 2562 3677 4736 4999 3047 4386 2984 4690 5 33 34 13 2 36 1 35 15 6 38 36 37 20 5 14 38 37 8 5 8 31 25 27 4 24 21 19 30 3 13 28 2 36 34 35 2 14 26 29 30 16 37 30 13 28 37 19 27 13 20 5 30 11 10 34 23 34 10 30 29 11 11 22 21 32 24 14 11 2 30 19 39 23 3 23 27 28 7 18 26 5 31 39 9 8 38 14 36 26 27 27 19 31 2 19 6 27 5 27 33 29 1 27 21 39 37 25 26 5 22 7 10 17 9 21 8 14 38 17 33 5 16 1 3 35 13 33 17 15 2 11 7 16 11 24 27 28 14 12 2 17 6 25 27 31 14 7 32 14 14 27 22 2 6 28 28 18 34 18 19 31 9 5 3 27 20 24 2 1 24 16 5 12 8 20 26 20 29 21 4 16 24 30 24 34 3 31 19 18 34 3 26 19 29 1 34 28 29 33 2 34 34 27 2 28 0 2 12 20 14 35 20
3477 3357 2783 4074 4474 3834 3738 4831 3512 3873 2529 3229 3531 3487 4039 3810 3108 3203 4562 3785 3081 3588 2693 4011 4366 4063 4707 4453 3636 4133 3457 3134 4730 3056 2968 2887 3518 4512 3016 3963 4331 2643 3807 2822 2521 3878 2986 4087 3573 4126 3373 3726 3337 3486 3200 3888 3430 3883 4761 3659 4116 3886 2741 4890 2667 3418 4953 3236 4250 3555 2517 4588 4254 3788 3614 4143 2862 4937 4246 4070 3452 4076 3873 3489 2659 4700 3104 2732 3993 3180 3680 4383 4294 2931 2857 4693 3206 4670 2594 3675 3862 3716 4472 4790 4981 2892 3285 4695 3788 4727 3423 3283 4420 3357 3455 3693 2927 4905 2834 4836 4807 3845 4166 4152 4331 4412 3476 3960 2902 4357 3406 4161 4151 4903 3367 2540 4300 4487 3864 2715 3484 3159 2564 3065 3887 4971 2909 2784 3687 4619 2662 4923 3762 4968 4290 2862 4911 4707 4695 2989 3577 4045 4820 3256 4516 2977 3277 4656 3798 3627 4133 4639 4883 2548 3110 3689 3289 4208 2930 3229 4903 3728 4627 3031 4462 4295 4371 3613 2955 3160 3370 4290 2866 4258 2844 3440 3387 3628 4773 4663 3548 3310 2584 4526 3605 4255 3452 3708 4970 3345 4348 2972 11 23 25 30 17 13 38 35 21 34 18 39 5 15 32 38 14 29 23 22 15 20 19 7 5 1 36 21 37 5 11 26 28 17 2 16 4 12 20 38 36 22 31 24 9 39 7 25 10 14 2 7 32 30 9 36 36 13 9 7 10 19 39 8 15 18 5 34 8 23 37 20 16 7 33 36 35 9 14 27 22 29 33 16 33 32 33 37 16 32 10 39 3 18 13 31 38 15 13 24 28 30 1 35 31 22 39 10 13 32 35 14 8 17 30 29 9 21 38 28 22 39 4 21 14 25 3 27 24 22 19 31 37 23 37 5 38 19 2 37 20 30 12 15 16 9 34 32 26 27 14 10 37 1 22 23 2 27 11 5 4 19 37 4 9 29 30 10 25 8 25 14 6 25 8 19 29 32 18 33 16 38 19 15 21 35 13 9 3 1 22 17 37 38 24 26 38 25 11 31 34 37 15 39 26 11 3 0 6 9 15 39 5
4021 4399 3170 4680 4954 2886 4675 4393 4442 4641 4484 4827 3856 4135 4203 4392 4898 3349 4985 4574 4348 4036 2900 3338 2707 4308 3042 3174 4913 4913 3138 3515 2949 3724 4693 4831 3812 2969 3428 4393 3633 2841 2760 3448 3661 4462 2573 2791 2893 4190 2763 3640 3254 4902 3440 2944 3749 4481 2984 2716 4367 4552 3747 4695 4899 2724 3203 4857 3190 4431 3871 2723 3036 3772 2708 4116 3947 4283 4559 3867 3128 3311 3327 3075 3784 4055 3889 4466 3269 3277 3837 3636 3742 4014 4617 3523 3750 3662 3179 3132 4436 3440 3967 3015 2597 2534 4671 3356 3674 3289 3951 3320 3706 4431 2748 4898 3628 4460 4453 3391 3169 2994 3919 3607 4597 2780 3486 3639 4105 3227 4176 4400 3962 4130 2709 4066 3434 4003 4874 3037 4237 4354 3535 9 3322 2786 2811 3205 3513 3772 4141 2887 4288 4378 3164 4665 2974 3229 3981 2902 3285 4938 3060 3381 4809 3848 3488 2899 3258 3644 4975 2656 2865 2968 2997 3343 4538 3117 4992 2838 2689 3063 4907 4474 3792 3674 3843 4094 4464 4141 3782 2588 2666 2589 4966 3672 2545 4428 3794 2924 4951 4893 3446 4634 3877 2894 4709 4679 4731 4696 4484 4405 26 36 29 17 25 17 16 20 31 4 3 7 6 39 13 14 28 33 30 37 21 16 25 25 11 36 22 17 36 4 23 5 35 38 35 9 29 36 11 16 10 16 4 36 6 11 33 1 11 1 31 32 22 7 17 4 25 8 29 26 17 11 1 23 34 27 26 1 24 36 28 36 9 3 2 31 23 11 35 1 5 13 7 24 13 28 12 17 35 29 13 23 14 8 9 13 26 19 22 19 19 26 36 4 30 19 3 23 7 17 35 10 2 15 36 25 28 8 13 18 39 15 37 7 31 10 24 20 25 23 21 31 31 13 21 2 10 12 28 20 24 34 18 8 11 1 16 14 8 8 39 8 32 26 5 2 4 15 6 17 7 12 33 4 11 1 35 20 31 31 6 22 23 36 13 37 21 3 28 36 29 13 20 33 13 22 16 17 7 11 19 31 8 9 19 15 37 16 14 19 36 20 21 17 12 26 14 11 0 29 25 34 35
2816 2700 4599 2881 3453 3573 3625 3606 3267 4908 2788 3587 4000 4673 3645 2698 2910 3862 4382 2807 4141 4499 4034 4924 2937 2938 4506 2813 4214 2660 3141 2759 4737 2630 4521 2795 4410 2904 4663 2520 2573 4784 2707 4105 2970 3229 4287 3633 3811 3132 4041 3556 3138 3146 4473 4392 3085 2632 3261 3357 4667 4827 2616 4447 3458 3939 4110 4301 2684 4413 3049 3763 3913 3015 4510 4794 2915 4065 3221 3730 3129 3624 4964 4608 3912 4104 3654 3770 3646 4342 3578 4039 3434 4271 3504 4841 3080 4562 2585 3156 4405 3164 4899 4811 4905 2599 4427 3765 4258 3048 3826 3746 4015 4387 2831 4104 3774 3193 4550 3426 3978 3517 3719 3794 3012 4782 3921 4823 4389 4315 3736 3679 4976 4696 2802 3714 3154 3727 4322 2815 3622 2811 3736 2643 3481 2805 4222 3087 2501 3034 3907 3769 3933 3981 3838 4221 4242 3365 4053 3299 3692 3858 3745 4341 4178 4955 3071 3127 3292 4993 3353 3220 3721 3743 4157 3498 2767 4634 4282 4262 3404 4904 3354 4375 4081 3965 2855 3427 3693 3732 3438 4861 2756 3057 4227 3478 4466 3913 3837 4655 3362 3786 3855 4189 4798 4442 4188 4756 2985 3708 4009 4957 19 37 32 4 12 11 28 21 30 30 30 26 16 15 2 5 11 35 11 10 28 35 2 9 16 19 29 7 36 26 22 39 20 7 37 38 29 38 18 33 30 34 6 20 36 25 35 24 20 31 29 38 17 11 4 36 22 12 31 1 19 8 25 11 28 22 19 39 13 39 23 29 37 15 16 8 25 32 20 11 28 8 36 5 28 16 33 32 17 5 13 14 7 6 22 25 25 27 25 11 28 4 1 38 18 38 6 15 33 2 10 35 38 3 39 20 19 39 9 39 21 23 1 39 8 38 10 17 28 16 8 36 32 36 27 35 6 7 32 25 22 39 17 16 24 37 27 8 20 36 33 22 5 20 16 19 6 6 3 34 4 2 1 8 13 32 17 38 16 35 37 13 33 6 15 3 7 17 11 19 9 17 19 18 24 14 39 29 38 1 27 12 18 30 18 2 23 4 23 35 19 29 26 11 14 31 23 15 25 0 17 23 17
4075 4717 4915 3463 3193 3784 3571 2796 2949 4840 3224 3036 4384 3695 3696 3775 3291 3556 4866 2682 4510 3378 4200 3127 2695 4396 2858 2967 3584 4037 3296 3699 3806 4619 4051 4294 3124 3977 4676 2539 4832 2841 3387 4971 4185 4590 2692 3859 4306 2747 3773 4114 4141 4630 2528 4593 4272 4972 3771 2608 3184 3737 4873 4755 3596 3513 3338 4573 3168 2787 3453 3585 4364 4818 4755 3011 2946 3657 4709 3816 2673 3412 3354 3188 4113 3472 4420 4865 4356 4762 4931 2942 3604 3406 4701 3837 2977 3198 2790 3615 3151 3941 4116 4176 4792 3232 4224 3712 3810 4929 4555 3406 4457 4030 2671 3564 4223 4117 4305 2911 3708 4251 2941 2909 2799 3724 4072 4292 3827 3289 3832 2807 4185 3873 3433 3850 3242 4338 3207 4274 4199 2584 2959 2711 4269 2947 3707 3882 3062 4157 4667 3265 4398 4354 3667 4079 2554 3764 3091 4812 3162 4602 4049 3348 3636 2724 4705 2520 4062 4329 2759 3372 4780 3626 2733 3188 2566 3163 2584 2877 3982 4461 3275 4979 3692 4127 3250 4965 3337 3096 4989 4298 4339 2753 2824 4294 2827 2549 4871 4277 2887 4704 4261 3488 4894 3781 2838 3763 3284 2562 3086 2595 11 36 35 39 30 25 14 32 19 33 26 18 23 12 2 27 27 37 35 28 12 25 4 24 33 25 23 9 8 19 1 21 13 15 10 33 21 20 9 4 10 34 28 7 7 20 9 35 30 31 19 19 35 17 17 33 8 18 25 11 25 14 35 8 26 34 26 14 2 14 23 37 2 12 33 17 25 18 28 22 24 21 13 35 35 8 29 22 13 8 30 10 33 11 39 29 13 13 35 39 34 2 21 8 35 26 11 18 16 19 29 39 21 27 14 9 23 39 24 3 18 6 27 20 21 3 12 31 19 11 35 3 30 21 13 15 17 25 4 8 31 15 1 18 7 5 1 31 29 11 26 35 5 38 39 26 29 13 37 31 11 4 7 4 3 4 5 33 24 17 23 39 12 4 10 11 2 38 1 10 15 27 9 15 14 4 16 12 19 31 25 13 3 16 28 20 15 33 28 7 30 27 8 1 23 8 6 2 12 7 0 7 26
4378 3338 3718 3202 3075 3727 3820 2818 4224 4985 4422 4439 2870 4494 3182 3846 3968 4882 2894 2895 4544 4657 2745 3786 4332 3949 4213 2731 4534 2715 3001 3036 2733 4826 3606 4490 4962 2989 3839 4990 2823 4387 4090 2768 2747 2899 2525 4327 4180 3759 2998 4469 2680 4142 3735 4215 3739 4503 3881 3433 3048 3101 3054 4198 4853 2567 3249 4115 3668 4039 3145 4793 3781 3781 3040 4474 3539 3102 2964 3363 3152 3333 3681 3744 4797 3208 2858 4845 3912 4955 3468 4189 2969 4346 3840 3944 3293 4533 3591 2896 3114 3531 3489 2952 4380 2618 3010 3914 3299 4370 4630 3511 4372 2908 4275 3940 3931 2931 3554 4306 4742 3513 4400 2625 4659 2714 4651 4168 4462 4552 2786 11 2706 4841 4162 4580 2505 3746 3871 4249 2797 3652 2715 3439 3516 2831 4781 3102 3927 4864 4920 3484 3521 4923 4576 4700 4386 4647 4551 3615 2581 2938 3344 4278 3451 2717 4067 4025 3638 4015 4398 4600 2685 4054 4474 3042 3333 2590 3756 2785 3954 4980 3829 4706 3899 4311 4447 4783 4118 4946 4517 2592 3585 3109 4638 3377 3909 3227 4147 3673 3454 4249 2720 4558 2609 3884 4884 2652 4412 2895 3811 4795 35 27 12 26 33 10 6 21 19 7 15 34 17 39 28 32 32 15 5 39 14 18 14 6 8 32 35 27 34 26 34 7 25 23 13 39 26 22 10 18 14 33 39 6 18 18 9 3 37 6 23 10 35 29 6 3 30 19 36 37 35 24 12 38 32 17 35 23 5 18 35 12 6 31 22 24 11 30 31 36 32 37 37 24 4 1 25 39 2 3 19 28 12 26 10 16 13 5 25 16 11 4 12 21 39 1 9 28 19 36 11 11 9 12 11 22 36 8 22 16 37 36 34 22 5 27 16 37 13 39 5 16 13 39 28 16 6 25 34 33 35 13 11 25 34 2 23 11 28 18 10 35 29 38 21 30 34 39 23 26 34 24 8 35 34 30 17 1 14 35 33 15 8 37 21 1 3 4 39 29 1 29 21 27 8 30 12 27 2 14 27 5 3 29 34 15 23 1 7 29 20 39 20 20 7 9 16 39 34 9 3 0 12
3632 4118 4378 2862 4274 3920 4142 4879 2701 3442 4092 2878 3317 3021 4952 4207 2877 4452 3511 3605 4286 4344 3528 3048 4541 3703 4498 2821 4796 3135 3023 3916 4900 3762 4437 4298 2612 2976 2872 3371 2565 4973 3320 4003 3569 4910 2882 3746 4690 3160 4527 2613 4105 3434 4761 4075 4517 4374 4814 3097 3592 3317 3504 4865 3126 3980 2832 4250 4782 2791 2882 4436 2804 3806 4392 2647 4583 3863 3624 3480 3560 4635 3077 3992 4974 4070 4648 2797 3166 4109 3695 3024 2913 3295 3486 4830 4093 3249 4365 3172 2667 4959 3553 3245 3752 3686 3532 4049 2810 4184 4883 3788 2847 3765 2817 2527 4249 3317 4580 4377 3962 4845 4968 3628 4048 3486 2505 4900 4440 4252 4469 2568 3874 3394 4722 3390 3931 3299 4090 3099 2922 3451 2600 3716 3019 3645 3006 4501 3553 3361 2683 4306 4603 2699 4559 3112 3038 4244 2657 2898 2713 2998 4253 4041 3742 2933 4516 4675 2932 4763 2895 4719 3490 4589 4610 3224 4048 2830 4390 2896 3117 2839 3583 4234 4748 3919 4916 4731 4711 4567 4636 4238 3841 3683 2627 3353 3599 3816 4371 3932 3647 4527 3792 2841 4049 3683 3528 2583 3770 4168 2998 4860 30 22 11 9 7 2 38 13 9 4 21 35 38 21 4 34 21 15 2 33 7 12 27 23 1 8 12 22 18 7 12 38 5 22 33 16 11 21 29 2 37 18 12 17 8 34 20 28 22 33 31 27 2 27 14 29 18 11 14 34 39 18 8 13 19 3 37 7 31 27 21 4 5 33 35 26 4 36 9 27 4 39 26 8 9 14 3 38 29 14 7 39 37 32 6 33 28 16 14 15 25 12 12 16 24 15 3 14 12 25 14 22 37 14 7 23 6 2 29 16 36 8 22 3 30 36 33 21 2 28 32 26 26 31 22 39 29 19 5 14 28 3 25 12 23 17 23 36 24 11 20 7 22 26 15 25 36 9 19 4 25 24 17 23 11 15 10 26 1 14 18 34 7 33 32 32 17 12 20 21 8 16 11 39 14 30 25 15 36 22 3 6 33 31 19 26 3 25 36 35 24 34 16 20 28 21 18 31 16 9 14 17 0
EOF
