NAME: christofides_hard_n125_s0
TYPE: TSP
COMMENT: christofides_hard generated explicit tsp
DIMENSION: 125
EDGE_WEIGHT_TYPE: EXPLICIT
EDGE_WEIGHT_FORMAT: FULL_MATRIX
EDGE_WEIGHT_SECTION
0 28 18 31 14 7 26 23 7 28 25 9 30 23 8 28 24 39 1 36 18 27 11 26 2 5 6 10 22 39 21 27 16 37 26 25 9 37 38 8 9 39 26 33 12 26 35 19 3 30 15 13 14 3 14 23 1 29 23 19 34 39 4993 4376 3493 3520 4509 3986 4775 4230 4911 3236 4180 4867 4142 3758 3605 3090 2905 3629 10 2940 2610 2782 3816 3390 2794 3147 3304 3679 2944 3739 3862 3416 4025 3659 4889 4399 2713 3653 3415 18 2778 3931 4918 3235 3486 4841 2562 4988 3337 4067 3637 4754 3245 3331 2643 2872 4756 4733 4617 3463 3217 3041 2694
26 0 16 20 30 15 1 31 27 10 17 12 21 26 26 6 23 23 9 36 13 21 35 23 11 32 39 20 37 6 13 4 15 35 32 18 4 39 23 30 9 27 18 12 21 9 29 30 31 19 35 13 10 8 21 10 30 22 9 28 36 10 4591 3680 2863 3511 4530 3560 4254 3778 3926 3701 4898 3832 4084 4992 4157 3827 3238 3198 4459 4146 2522 3278 3304 2585 2648 2707 3755 4961 4613 4840 2821 2635 4712 4187 4692 3096 4859 3157 4394 4826 2855 2940 3173 4456 4867 3149 3280 3127 2839 3251 3333 3523 4181 4803 2635 4032 4145 2889 3476 4014 4442 3724 3066
12 17 0 5 16 32 25 10 24 10 22 34 14 31 26 4 12 8 10 16 18 17 38 33 18 35 24 39 1 7 38 2 22 22 15 7 17 20 1 13 14 31 27 3 31 15 21 24 39 27 5 16 15 37 1 34 3 38 25 8 27 2 4636 4492 4982 4780 4551 4990 2561 3327 4685 3697 3944 2581 4046 3766 4611 4199 3009 4946 3959 3801 3840 4012 4566 2820 3508 4975 4606 3214 2931 4759 4311 4334 2607 2594 2923 4554 4611 4645 4477 4514 3403 4738 4554 2614 4031 4612 3649 4850 4046 2588 2943 3004 3029 4614 4062 4036 4004 4918 4876 3079 16 3862 2567
6 20 29 0 14 6 28 3 14 17 7 23 30 35 24 31 22 39 24 37 6 29 39 8 21 29 26 2 10 35 20 37 29 28 31 25 18 12 22 3 28 28 14 15 23 27 39 8 17 31 14 29 36 3 11 20 26 15 20 26 23 19 2970 3032 4718 3080 2812 3363 3642 2561 4143 3254 4486 4591 3972 2915 2697 4599 3064 4846 3140 3106 3956 4618 4454 4354 3153 3967 2562 4561 3151 3492 4268 13 3550 3112 4017 2900 2511 2522 4925 4827 3747 4253 4580 4226 3305 4540 4639 3229 2685 4490 3891 4551 4146 4038 2679 4874 3583 4101 4800 4725 4436 4054 3588
13 21 26 2 0 31 34 4 26 38 37 15 7 14 16 11 15 38 19 3 16 2 7 21 17 6 36 37 12 39 8 28 23 5 28 12 34 18 24 39 22 1 18 1 14 39 33 14 32 18 6 34 20 5 6 34 24 28 36 35 23 33 4883 3688 4100 4512 4961 2759 3678 2819 2880 3808 4588 3293 4356 4265 3407 4727 3914 4934 4048 4657 3965 3528 3276 3072 2618 3698 4733 4206 3451 4208 3764 2512 3808 2729 2679 4521 2799 2587 4015 3548 3693 3415 2854 2692 2526 3870 3246 4365 2714 2547 3309 3871 4571 2996 3136 4792 3142 4805 3918 3415 4385 3053 3825
16 5 13 12 23 0 28 38 26 27 23 16 4 25 26 3 17 4 7 34 33 20 7 23 38 15 32 13 27 33 33 31 17 9 27 1 30 34 18 23 26 15 25 21 19 34 3 18 29 19 7 21 19 26 20 33 11 34 4 34 38 2 2718 4478 4319 4365 4968 4319 4592 3213 3094 3802 4516 3367 3841 4258 3260 2647 3500 3254 3869 13 3544 4445 3483 4341 4608 4833 4895 2706 3405 3374 3279 3743 4133 2686 2725 4407 3517 4712 7 4843 2630 3382 3753 4657 4904 3326 3806 3331 3564 4788 4670 2906 4368 4705 6 3270 3766 3640 4445 3131 3907 3951 3560
27 16 30 8 11 32 0 7 24 25 23 26 27 28 14 28 19 11 4 37 13 20 16 28 12 28 28 36 8 25 29 27 17 8 7 17 22 29 28 11 1 9 25 27 4 3 5 32 2 3 9 1 10 23 12 31 21 5 8 5 3 34 4737 3403 2657 2739 4897 4570 2548 3002 3455 3925 3189 4609 3170 3440 4805 3883 3639 2963 2863 3121 4693 3670 3657 3364 3568 2703 2513 4668 3491 3672 4138 3584 3703 4209 4368 4055 2515 3952 4079 3802 4448 3335 4197 3509 2941 3223 10 3569 4504 3484 4685 3446 3948 2611 3830 4670 3052 3331 4400 2933 3817 4633 4563
4 11 5 39 29 19 19 0 18 37 18 5 10 31 8 17 37 38 17 1 22 21 8 14 32 5 24 26 6 15 26 29 33 18 31 17 5 14 33 11 19 8 26 27 3 19 21 37 10 7 16 3 15 33 4 31 8 2 24 8 24 9 4281 2808 2839 3485 4309 2934 3482 2951 4596 4459 3935 4220 4140 3325 4006 4803 3433 2801 4465 8 2750 3996 3766 4935 3448 4127 2726 3664 3709 2889 4473 4692 4360 2620 3918 2839 4543 4803 4524 3635 3340 3888 2897 2623 3933 3398 4652 4395 4481 3458 4214 4203 3320 3180 4001 4841 3251 3025 3764 4185 3015 3455 3397
22 38 4 37 36 2 30 31 0 29 19 8 26 18 15 33 21 16 8 13 30 15 7 2 2 11 30 29 17 2 6 26 9 4 12 18 36 9 12 6 27 13 20 6 34 16 38 19 31 26 38 35 2 3 22 16 27 32 17 31 11 18 2611 4562 3539 3104 3302 3741 4981 4062 3159 4108 3719 2871 3647 3740 3744 3939 2883 2546 4072 3447 4783 2945 4205 4887 4333 2757 3286 2916 2505 4016 4256 2514 2584 4838 4984 3131 2913 4960 3635 2642 2919 4880 4116 4301 3152 4054 4538 4888 3191 3607 3069 4205 3700 4162 4958 3784 3451 3425 4409 3914 4810 4885 3818
7 29 17 23 32 39 35 24 6 0 33 39 7 36 26 11 21 36 30 4 10 38 14 17 18 19 19 29 12 18 23 19 12 16 20 4 3 39 11 29 35 27 9 34 6 18 15 2 6 17 26 30 6 21 18 29 19 19 9 30 27 26 3532 3926 4521 2986 2788 3145 3203 3388 4556 3763 3580 4211 3111 4393 3251 4331 4228 2529 3305 3759 2953 2971 4167 2848 2540 4696 2770 2898 4844 3538 4072 3801 2798 4661 4920 4102 3242 4263 4143 3313 4567 3292 4846 3389 4897 3738 2945 2959 3093 4464 3303 4368 2633 3941 3992 4202 2687 3335 4050 4142 2542 4718 3613
37 14 5 8 27 4 19 26 36 8 0 22 17 19 13 34 14 16 13 10 24 13 17 4 8 32 16 4 3 21 35 11 33 13 32 15 26 8 12 17 39 12 29 39 28 22 12 24 26 1 9 9 16 8 17 30 31 37 14 10 23 31 2968 2847 4152 2664 4642 2639 4935 3309 4531 3396 4747 2951 3607 3159 3020 4612 3215 2756 2974 3496 2773 3587 3902 3196 4287 3586 3306 4526 4498 2608 3648 4638 4048 3622 4158 3219 4557 4004 4049 2954 4369 4984 3014 2977 3572 4525 3398 4243 4375 3219 4333 4789 3724 3316 2774 4652 2741 2577 3726 4628 3873 2960 3332
20 3 14 18 9 25 30 32 19 31 16 0 2 6 35 25 22 30 29 19 32 10 26 15 39 8 38 24 1 6 10 5 4 5 18 13 34 36 38 36 5 13 8 9 11 13 7 34 28 29 15 8 29 32 20 12 36 30 11 7 33 3 3722 4175 3747 3828 4019 4489 3385 2506 9 4883 3250 4826 4352 2893 6 2715 3122 3904 3656 3832 2701 4826 2948 4442 4121 3621 2737 3361 4339 3884 3975 4478 4619 2951 3698 3377 3162 3489 3472 4703 4154 4052 4829 3447 2988 3755 4108 4513 3037 3114 2640 3144 4059 4607 2563 4187 2980 3699 2994 4706 3881 2636 4491
39 24 2 18 37 6 2 25 4 25 14 34 0 10 28 29 24 7 35 15 21 6 30 22 4 30 27 22 35 15 10 29 15 17 11 15 11 21 24 33 37 31 26 31 18 33 33 36 1 27 33 22 6 4 5 25 17 32 6 19 5 21 2830 12 3420 3468 2748 3640 4194 4876 4502 3923 3540 3325 4077 4034 3300 2953 3952 4185 3278 4459 3776 2700 3017 4477 3642 3063 3584 2618 2626 4359 2919 9 4230 3303 3816 3776 3222 3609 3279 3833 4270 2645 3327 4237 3636 8 4517 4231 4075 4737 3957 2588 4553 3504 2937 4089 2929 4439 3307 2852 3793 2926 4536
30 16 34 3 34 24 3 23 3 24 39 26 36 0 28 33 39 27 3 28 33 22 30 37 7 8 2 8 3 27 16 21 16 27 1 7 30 6 26 14 15 33 38 33 20 22 7 31 26 3 18 33 18 34 20 4 28 20 11 20 13 14 4031 3315 3926 3642 3502 3020 3219 2722 4414 3177 3617 2549 3277 3847 4487 4658 3306 2710 2992 4505 2665 3775 3408 19 3614 4695 4350 4610 4923 4660 3526 4281 4824 4961 4869 2564 3001 3601 3516 4842 3319 3137 4751 2931 2602 4695 3838 3202 4878 3140 3107 4337 3839 3113 2714 4982 4637 2514 4214 3698 2578 2634 3498
23 36 25 21 10 14 15 16 29 7 21 12 29 7 0 8 37 16 39 22 10 19 9 21 38 35 35 39 12 20 25 17 31 17 15 28 12 28 23 38 34 37 38 1 7 31 22 36 8 3 25 39 4 10 32 13 5 2 21 37 27 2 4550 2675 3175 5 4951 3717 3691 3204 4139 2716 4956 2991 4301 3103 4754 4830 4110 4188 4042 3799 3954 4561 3225 2550 3191 3937 4836 4381 2858 3736 3934 4439 4041 3719 3865 2845 2914 2956 2900 4227 3441 2511 2994 4573 4113 3355 3455 4734 2774 4343 4689 3061 3183 3541 2726 4508 3086 2987 2877 3421 3377 3543 3411
13 13 23 28 15 39 7 35 1 36 28 8 37 24 1 0 6 8 13 13 9 23 34 14 18 36 29 2 21 9 11 35 24 30 4 10 35 33 5 24 38 28 18 7 38 20 12 36 7 10 7 39 27 31 15 8 20 24 16 8 29 9 3773 3139 3299 4903 4073 2622 4838 3438 2763 4743 4485 2906 2918 3085 4360 4123 2528 4406 4405 4155 4066 4606 4504 4577 3478 3714 3015 4225 2894 3811 4450 2609 4872 4077 3428 4762 8 3400 3026 4262 2852 4727 2833 3078 3098 2722 3470 2619 4127 15 4382 4544 3038 3039 3607 4309 3376 4762 4934 3805 4777 4657 2794
10 7 29 22 20 23 30 10 30 14 9 15 23 3 2 38 0 38 29 23 3 12 28 35 25 26 18 3 38 36 2 8 12 24 10 18 31 7 16 7 29 3 21 8 7 34 35 26 29 32 15 29 21 39 17 26 35 35 36 16 7 38 4992 3060 3924 3377 4077 4466 2727 3709 4535 3117 4596 2792 3906 4751 3034 4846 3219 3115 3615 4891 4160 3337 3691 3824 4745 3676 4211 4195 3725 2843 3533 3620 4599 3091 4603 4352 3529 3803 4960 2717 3662 4756 2611 4139 3567 4870 3427 4726 4232 3029 4472 4214 4578 3849 3157 3528 4890 4643 2597 4410 4643 4536 3033
23 32 19 19 2 23 5 15 16 36 2 4 37 11 30 38 23 0 38 10 24 26 30 34 10 2 21 4 17 36 31 24 9 24 23 1 23 26 25 4 39 3 33 9 36 20 11 30 7 33 27 11 35 37 3 10 33 10 16 13 2 22 2939 2769 4906 4115 3991 2774 2516 4911 2778 4839 4627 3139 2624 4386 3285 2863 3119 3755 3925 2558 3244 4136 2942 4198 4362 4954 4628 3989 4675 4646 4323 4232 4440 4892 4771 2787 3089 3624 3849 2794 4187 2672 4714 4803 4311 4207 4659 4788 3896 3867 3044 3866 4209 4425 3289 3362 3517 4018 4269 2988 4551 2615 4938
5 35 19 20 18 1 16 20 7 18 4 8 24 30 20 6 2 31 0 30 1 9 16 9 27 27 5 8 37 29 33 30 10 13 27 12 23 10 35 32 10 7 36 35 10 15 12 3 3 39 27 18 23 6 8 35 29 31 23 21 35 28 3355 3956 2552 3317 3363 4025 3689 4872 4978 3759 4562 4568 3651 2726 4562 3588 4594 2690 4775 4268 3646 3424 3569 4664 2741 2789 4493 2653 4797 2727 3012 3376 4650 4203 3468 4605 3993 3676 4612 4625 3512 18 3191 2848 3421 3171 4783 2829 3969 3602 4659 3523 4634 4350 4627 3240 4097 3348 4121 3727 3656 3418 3556
11 6 21 23 13 4 17 13 3 15 6 20 28 13 18 17 10 14 5 0 2 34 35 33 16 1 2 10 39 36 5 16 30 30 35 29 15 12 32 39 37 5 7 1 29 9 22 33 26 15 20 38 9 14 1 14 30 22 32 13 33 35 3380 3683 3265 4997 3860 4106 4855 4458 4894 3999 2832 3429 3679 3738 3833 2610 4509 4815 3201 4602 3578 4722 4313 3484 4039 3231 2634 3017 3315 2954 4198 4218 2922 3570 2927 3677 3131 3065 3759 3831 3176 4396 3665 2758 2756 4503 2790 3936 3421 4612 3717 3649 2544 3797 3312 3999 2866 4318 2771 4746 2860 4761 3860
36 25 37 39 14 30 33 19 37 33 6 35 19 16 18 2 34 19 14 27 0 7 16 7 27 37 11 23 24 1 10 21 34 31 12 27 9 19 39 25 3 23 12 4 25 37 34 6 30 12 31 6 38 21 29 28 1 10 17 4 36 27 4486 4733 2695 4032 2527 4966 4254 3155 2863 3022 4484 4790 4760 4799 3897 3897 4858 3569 3812 3049 2755 3154 4552 2587 4457 4992 3464 3260 4415 3882 2990 4050 2957 2981 3934 3570 3483 3128 4189 3286 3893 3838 4382 4542 3958 3906 4122 2769 3183 2761 3693 4773 4681 4910 3032 3919 3454 3313 4623 4785 3190 3723 4116
12 12 32 8 39 11 10 21 36 26 25 10 22 22 24 16 31 1 12 34 18 0 19 11 25 28 20 8 29 11 28 24 1 3 31 34 6 25 20 19 31 37 29 19 6 19 13 27 19 39 29 39 5 28 16 21 18 18 7 10 26 18 4297 3096 4108 3838 3546 2626 3022 3941 3498 3475 4897 4100 4833 4436 3567 2717 4548 2825 3425 4383 4032 4159 4491 4925 4869 4005 3550 2673 3754 4404 4050 4420 4998 4684 3262 4629 4340 2739 4594 3828 3666 3929 4353 4954 3437 3270 2615 3877 4542 2523 4881 4354 3562 3203 3229 4540 4420 2645 4724 3254 4242 3985 3081
12 11 35 4 33 18 13 1 2 19 4 33 34 36 27 12 28 8 6 30 38 36 0 14 33 22 28 28 33 27 10 5 27 17 27 22 17 3 18 24 17 10 17 18 11 24 39 33 12 11 15 1 13 29 18 12 6 22 26 22 35 25 3538 2964 4641 3728 2721 2967 3837 4881 2562 4196 2840 4129 2611 4762 4227 10 4464 3830 3738 2966 2956 4773 4882 3259 4527 3101 2699 3332 10 2517 4086 3070 4589 3981 4601 4636 4888 4005 2766 2766 4498 4783 3409 4196 4957 2790 3439 3848 3200 3111 2701 2662 2820 4680 4173 2790 4296 3426 4571 4433 4357 4945 3403
20 21 20 39 18 35 39 38 35 8 24 15 6 35 33 33 33 2 33 23 27 38 36 0 23 34 8 23 30 16 13 19 23 1 27 11 28 22 4 18 16 16 8 3 5 4 15 6 33 5 5 14 19 6 7 9 12 38 15 13 15 20 2555 4334 3597 2897 3894 4263 3712 4346 2923 3624 3385 3770 3625 4451 4930 4388 3720 3304 2624 2595 4481 3365 4283 3557 3832 3625 4519 2674 4529 4973 4903 4259 3824 4221 3250 4332 2859 2914 3944 4179 3932 2967 3443 3300 2563 4019 4192 4197 4916 3372 4387 2622 2727 4769 4100 4561 4657 3685 2656 4841 3572 4606 4841
12 30 5 15 17 23 26 5 38 8 18 27 4 20 29 24 15 24 7 35 20 28 22 7 0 32 22 20 32 36 12 16 32 10 14 36 14 31 5 14 32 27 31 19 17 33 34 24 22 13 32 16 1 10 26 34 22 24 11 2 27 10 2819 3172 2510 3443 3748 4159 2929 4764 3652 2903 3465 4406 3724 3042 4221 4000 3997 2617 4081 4488 3056 3218 4692 4883 2761 4544 2669 4589 4749 3119 2670 4884 4523 2503 3195 2788 4695 3997 2908 3836 4195 3615 4871 4437 4055 3960 2517 17 3582 3774 3439 2892 4563 3876 3994 4201 3811 4964 3606 4255 3084 2630 3316
38 28 32 28 37 3 21 22 37 8 29 4 20 29 23 34 35 31 1 18 17 37 36 12 17 0 5 26 23 28 31 5 9 15 25 24 17 22 5 39 13 23 34 39 7 1 28 26 9 22 25 27 25 35 9 15 2 27 32 25 33 6 4659 4200 2885 3717 4343 3740 4600 4630 3263 4064 3543 4514 4803 4603 4770 4166 4676 3355 4720 4933 3001 4793 3350 4179 2996 4925 3756 4917 3457 2625 3627 4751 4465 3505 4678 4858 3490 2952 10 2965 3774 3877 4605 3564 4205 4455 3901 2567 3453 8 2798 4654 2686 2617 3938 2539 4004 4869 3199 3699 2741 4840 2749
36 26 15 30 32 26 6 39 2 17 38 29 27 5 29 5 16 10 21 27 9 17 36 38 35 30 0 16 36 38 39 34 25 2 14 30 21 17 21 24 16 32 18 25 8 2 4 20 4 3 33 33 23 9 37 24 9 38 17 27 15 32 3759 4368 3868 3550 4479 4081 3461 3692 3636 2553 3123 4146 4462 4388 4171 3023 3266 4976 3014 4711 4646 3244 3910 14 3154 3317 3351 3662 2718 3837 4208 3410 4144 2827 3518 4344 3818 3251 4620 4891 3198 4226 3396 4792 2599 2723 4308 2963 3597 4498 4251 3903 3146 3125 4661 3665 3501 3854 4763 2969 3626 4729 3377
3 36 7 34 6 28 24 9 10 38 11 10 33 34 2 37 30 20 4 28 2 17 29 3 8 38 6 0 13 6 4 37 31 8 34 34 13 7 24 17 15 11 33 38 8 32 13 39 35 15 32 33 4 14 23 32 25 36 2 21 39 27 4329 3953 4115 4060 4408 2842 3166 4393 4148 2965 4746 4612 11 2689 2878 2719 3201 2917 3114 4549 4958 4698 4803 2946 4828 3399 3617 4197 2641 3623 4484 4664 2819 3148 3590 4051 4254 4379 3613 4014 3599 4790 3872 2775 3761 4382 3458 4319 3550 3101 3094 4610 3960 4644 3139 16 2770 4937 4587 2684 2937 4972 4514
24 30 30 36 6 23 9 29 36 22 12 17 4 3 33 25 10 1 3 32 14 18 14 13 24 9 30 32 0 35 10 37 15 7 21 8 13 39 29 38 11 8 25 35 11 30 29 12 2 25 20 21 7 9 38 13 36 18 26 17 19 25 3087 2785 4122 4620 3929 2709 2527 3315 4259 4877 3584 4580 2838 3760 2542 4552 4593 3853 3459 4968 2738 3608 4892 3185 4740 4096 3950 3010 4592 2585 2772 4508 4108 4400 4695 4715 13 4261 4490 2531 2927 3071 2527 2780 3006 3156 3615 3193 3505 4720 2521 4198 4083 4328 4520 4382 4164 3706 3725 4061 3799 3323 4093
34 17 20 34 33 6 31 12 19 18 39 10 26 15 16 1 19 37 24 11 10 22 7 31 20 36 37 28 10 0 33 22 19 39 17 27 22 12 18 25 16 14 32 26 28 27 34 11 27 16 19 11 13 4 31 18 5 2 12 28 26 5 14 3370 4035 3740 3190 3110 3899 2607 4412 4434 4987 4495 2672 4511 2919 3704 2976 4784 3992 2628 2706 4282 3902 3899 4944 4161 3576 3913 4768 3997 3895 4908 4273 2509 4690 3609 2853 4126 4166 3996 3472 4198 3234 4515 2954 4191 3713 4687 3283 3250 3180 3159 6 3518 4971 3878 4659 4190 4892 4190 3895 3082 4424
14 10 7 20 2 30 39 8 27 4 2 20 1 39 2 20 33 2 21 31 39 3 1 12 36 17 32 3 17 19 0 22 1 23 38 4 27 24 30 25 21 8 20 4 37 2 22 39 38 22 7 19 33 7 4 27 17 9 12 19 10 31 3801 3815 4969 4812 4815 3125 3214 3201 4840 3146 3936 4810 3142 4008 4088 3664 4532 3519 4360 3498 4416 4090 4135 2536 4545 2855 2737 2613 4146 3348 2708 3406 3354 4646 4856 4536 3194 2847 3526 3256 4727 4501 4873 4581 3195 3616 4228 4349 2823 4675 4404 4620 4141 4993 4316 3986 3424 3875 3743 15 2805 3262 3239
33 26 30 16 25 1 20 13 37 3 2 30 19 30 36 18 17 2 5 4 21 6 37 11 7 2 17 10 39 11 20 0 16 20 24 9 26 21 23 39 18 33 38 15 18 3 27 5 39 37 22 18 1 9 12 36 5 33 11 25 18 19 4028 3018 2884 4591 4524 2965 4042 3164 3334 4768 4618 4655 3868 4959 4764 3648 4606 4416 4391 3887 3213 3526 3542 3235 4927 4221 3030 3984 2612 4045 3367 4160 2725 2990 4824 2993 4937 4807 4883 4095 3649 3017 4543 3949 3407 4621 2637 4572 4955 2884 3920 3224 4300 3895 4053 4201 4764 2559 2961 2864 3100 3570 4050
32 8 10 34 15 38 1 7 20 33 20 27 2 5 30 33 25 20 19 39 29 13 7 2 13 19 7 35 31 8 3 13 0 2 25 36 17 4 14 27 39 23 12 2 4 30 26 34 14 7 22 17 18 37 14 14 3 18 14 36 17 24 4516 4536 4195 4036 3652 3872 4466 2617 3795 4752 2794 2983 3688 2848 2505 4039 4876 2967 3008 3832 3379 4936 3791 3253 2573 3859 4449 3935 4528 4209 3819 4511 3076 3730 2507 4604 4419 3119 4438 3918 3808 3471 2559 4787 3793 4131 3002 3603 2833 3137 3609 4163 3004 2694 3502 4009 3484 3332 3156 3932 4982 4067 3964
20 7 25 24 33 37 7 5 11 2 35 15 3 26 16 17 7 32 23 22 38 21 31 32 29 22 25 24 1 13 22 36 23 0 25 26 1 7 31 27 2 7 20 17 37 7 29 2 25 27 29 19 26 21 26 6 29 20 37 2 34 7 2967 4742 4813 4977 3280 4360 3649 2822 4136 3092 2913 4401 3806 4354 3958 2731 2869 2560 4918 4333 3736 3265 3843 3018 3655 4890 4014 3118 2892 3235 3605 3981 4493 2997 2641 3165 3337 4898 3955 3486 3751 4248 3057 3407 3791 3160 4372 3782 4945 3763 3612 4195 3107 4403 3510 4619 3586 4594 3153 9 4094 3790 2763
35 6 3 36 27 4 38 33 31 36 22 38 39 38 18 28 30 20 24 20 15 13 38 33 19 14 10 25 9 2 23 14 17 35 0 12 7 14 29 31 10 24 13 27 9 12 35 37 25 33 18 6 15 7 19 16 17 1 19 23 2 38 3778 4398 3855 2699 3625 4210 3585 2835 4922 4601 3497 4271 4166 3870 4721 4818 4637 4219 4427 4962 3037 4013 4838 4351 3270 6 4882 4022 3325 3018 19 4844 3440 3319 4111 3550 4840 3415 4127 3909 3043 4401 2957 3848 4827 3291 3223 2986 3852 2718 3449 4357 3418 4601 4609 3357 4363 3091 4196 3276 2612 4439 2915
15 2 26 31 21 36 1 30 30 30 1 30 4 36 15 39 2 22 30 30 27 11 24 26 20 39 10 12 2 3 33 32 27 28 21 0 17 21 26 37 10 6 13 39 26 36 11 10 5 6 12 1 9 7 11 1 4 3 15 15 28 21 3223 3399 4426 3401 3908 3469 4752 4060 4922 4844 3654 4514 2559 2577 4442 3702 2561 3280 3733 2589 4633 4130 4190 2773 3019 4346 3753 2673 3231 3767 3603 3970 3186 4001 2725 4372 2592 3831 4067 4350 4546 4408 4998 4924 4479 3327 3615 3790 4307 2711 3200 3404 3451 3382 4948 2646 4892 3405 3632 2774 3576 4058 4538
18 16 28 25 10 15 34 3 31 13 32 25 35 29 6 22 30 21 34 10 18 2 19 30 32 27 1 25 16 27 31 17 17 39 6 7 0 18 34 16 21 34 10 11 19 9 35 14 28 33 18 24 26 23 21 28 29 4 35 22 34 8 3303 2716 4648 4135 3688 3720 4888 4306 4904 4379 4482 4307 3641 3344 4655 3466 3724 2958 4145 3771 3236 3765 4547 3007 3561 2766 4994 3899 2874 3892 3005 4677 3408 2741 3881 2772 3132 4923 3201 4854 2508 4533 2524 4014 4178 4011 4354 3974 3091 3516 4406 4815 2553 3930 2958 2633 4109 3483 4586 3970 3366 4350 4072
4 19 21 4 2 24 16 37 23 11 3 6 24 38 8 27 19 36 28 15 38 31 3 22 15 27 35 3 39 11 27 21 1 27 33 6 6 0 4 39 11 22 30 4 35 31 3 6 31 6 20 9 39 24 18 15 19 12 10 26 12 18 3967 3006 3624 3310 3107 3195 4832 4265 4227 4555 4124 4812 4775 4423 4812 2827 4962 3704 4878 3517 3804 4338 3173 2503 3878 2566 2887 2598 2966 2962 4289 4771 2588 3853 3502 4661 4592 3065 3939 3648 3930 4901 2694 3366 4812 4615 2736 4859 2778 3332 3472 2752 4898 3049 3391 2941 4164 4625 7 3277 4448 3334 3719
38 1 4 27 38 25 28 3 17 33 30 34 21 30 6 36 11 15 26 14 25 4 10 4 37 29 35 12 20 12 38 14 2 28 5 17 10 38 0 1 16 38 10 30 39 26 34 24 6 12 26 23 30 11 33 35 30 4 25 19 21 24 4752 4669 4214 3202 3029 3683 3622 3304 3612 3834 3712 2688 2561 2520 4445 2583 3805 3785 3662 3510 3678 2697 2632 2899 2590 3652 3626 2526 2858 4728 4440 4915 3971 3181 2758 3048 4004 4481 4179 2752 3266 3051 3765 3786 4141 3642 3116 2709 4150 3093 2943 2934 3505 4186 4949 4665 4573 2511 3109 3720 3575 4929 3392
29 38 6 27 9 1 35 30 9 22 38 22 1 11 18 12 1 25 2 30 5 17 9 19 6 26 16 15 12 20 33 12 2 4 11 5 35 37 17 0 31 1 31 1 37 20 28 1 3 26 37 28 34 23 36 1 35 13 38 21 22 24 4763 4407 4533 3421 4554 3001 2952 3995 3573 3292 3569 4828 4257 3562 4517 2594 4638 4136 4747 4943 4383 2734 3302 3539 3285 4958 4429 3463 4085 4815 2547 4710 3385 3192 2995 3890 4248 2644 3878 4236 2597 3436 3948 3158 3789 4878 4214 4572 3840 4994 3368 3401 3550 3395 2660 2824 3193 2576 4269 3418 3004 3751 3793
9 24 35 37 13 5 31 17 8 16 32 25 18 11 27 4 39 2 16 39 23 7 37 5 20 7 27 4 23 26 14 26 28 35 32 9 35 9 34 32 0 20 26 15 39 22 25 13 28 20 17 27 5 30 39 29 31 37 16 11 18 31 2887 3981 2939 2724 3476 3839 2857 3200 4666 4771 4317 4355 3312 4573 4190 2886 4649 4989 3442 4615 4631 2592 4904 4868 3384 3337 3350 3667 4080 4462 2973 4725 2714 3232 4444 2608 4127 3348 2992 4897 3142 3748 2659 4122 4405 3937 4411 4617 3590 3747 2893 3593 2756 3123 4963 3940 3692 4261 4220 3787 4622 4114 2980
8 34 33 8 36 8 10 20 34 7 34 36 10 35 2 20 2 8 3 8 21 26 1 38 35 2 7 24 36 36 13 32 13 19 11 31 24 14 21 27 2 0 11 19 36 31 30 19 26 19 22 4 24 14 31 20 36 34 33 34 35 14 4486 3704 3710 3569 3008 3166 4270 2692 2653 4167 4423 2516 3423 3453 3028 4772 3176 3602 3432 4983 2552 4965 2697 4123 2848 3376 3050 2637 2536 4755 4838 2831 4663 4391 3972 4816 3474 4835 2908 3268 3302 2724 2645 3043 3520 4733 2686 4504 3356 4061 4390 4311 3882 2703 4827 4034 2763 4296 3829 2500 2735 3074 4282
10 5 33 34 39 18 8 22 34 2 23 7 18 4 27 9 39 38 13 19 17 25 10 5 20 21 15 15 6 6 25 36 34 21 25 4 9 2 2 12 4 1 0 35 38 8 4 16 28 34 12 13 6 33 26 16 31 12 9 10 11 33 4535 3215 3648 3172 15 3625 3972 4576 3597 4369 4893 4422 2885 4836 3686 2541 4787 3622 4961 2703 4457 3232 3015 4229 3092 3784 2516 4471 3655 3763 3845 3867 3203 4936 4202 3939 2691 3879 3173 3244 2983 4788 3872 4823 2789 4172 2645 4669 4165 4080 3136 2552 2509 3645 4599 4321 3604 3135 3045 2903 4187 4780 3066
24 1 15 26 7 38 20 2 35 35 11 22 28 9 24 6 33 19 17 29 4 16 23 11 35 34 19 19 18 23 37 12 39 38 29 26 15 20 19 13 10 27 27 0 35 4 39 19 30 23 28 26 27 24 3 14 38 30 31 28 11 19 4588 2687 4409 2897 2825 2926 2988 2534 3043 2697 3625 4319 2867 4843 3279 4178 3535 4956 4454 3738 4334 3267 3398 3174 4090 3569 4319 4850 3761 4463 4183 2526 2976 3943 2847 3333 4143 4992 4693 3308 3114 4199 2985 4765 3893 2797 4163 4456 4748 4620 3301 3767 4959 2527 3308 3770 4395 3326 3148 3885 3541 4992 2671
12 27 22 15 7 25 32 34 15 6 2 37 18 26 1 7 5 7 5 14 35 20 30 22 8 38 28 26 38 32 19 2 28 11 29 22 28 1 3 35 38 12 15 24 0 19 36 1 25 11 24 34 16 34 5 19 1 36 3 21 26 38 17 4282 4844 3094 2581 2564 4027 3480 2771 3005 4917 3405 3170 2549 3989 4796 3911 3169 2713 2853 17 4504 3879 2892 4315 3155 4172 3077 3860 3928 2937 3489 3891 3107 4835 4151 4632 2741 3150 4652 2619 4413 4010 12 4100 3461 4322 4644 4016 3235 4508 3275 3594 4762 2668 3518 2615 3392 4079 4131 4424 3007 4060
14 10 26 12 29 11 7 9 30 29 33 22 8 23 20 11 9 33 2 27 30 11 7 8 20 1 30 17 5 33 38 4 1 12 24 35 13 36 18 13 8 32 16 30 12 0 39 28 17 20 16 5 7 6 32 18 12 13 32 24 19 19 4482 4930 3189 3351 4655 4368 2847 3967 3367 2519 2728 2586 4734 3388 3318 4978 2700 3367 3218 4499 3848 2589 4286 2658 3446 3054 2970 3375 4151 2640 2891 4301 3461 4481 3490 2657 3340 2604 4459 4108 4573 4057 3267 4638 3288 4160 3832 4495 3484 3623 3165 3997 3713 3651 4883 3354 3968 4710 3837 2926 3691 4276 2953
24 24 37 15 22 20 25 19 23 11 20 38 22 31 20 29 19 31 28 1 4 6 3 5 23 11 26 6 22 34 21 24 18 10 13 29 34 21 39 39 38 10 17 17 6 6 0 15 19 16 14 39 12 7 10 26 16 33 8 10 23 32 3914 4969 4962 4342 4335 4843 3178 3014 3464 3174 4146 4304 4379 4871 2929 4429 3806 3670 3912 3196 4778 4003 4107 4212 2955 3813 3587 3783 4881 4652 2540 3396 4935 4153 4612 4009 4189 3131 3072 3929 4567 4505 3580 4381 4637 4577 3569 3034 2993 3378 3603 4217 4978 4889 3250 4611 4653 2988 4372 3584 3493 4867 3905
14 35 31 27 22 7 23 24 37 19 29 9 4 23 9 10 32 1 19 27 24 2 23 13 12 27 27 13 29 14 26 35 33 7 3 31 15 5 34 11 38 12 10 7 11 39 33 0 19 18 22 27 7 6 15 37 13 33 3 8 30 35 3665 4248 4181 3405 3891 2922 3810 3112 3203 3730 4865 4810 3123 3969 3065 3354 3124 4989 4852 4686 4236 2704 2638 3467 3460 2636 3902 2548 4608 2502 3362 4615 3195 4048 2870 3709 2675 3347 3166 3969 3364 4811 4529 2822 4533 4610 3527 3709 4822 2586 3614 2641 4975 4862 2625 4629 3758 4844 3328 2875 4409 4934 3564
16 32 18 25 38 20 6 33 33 14 11 33 9 4 4 2 33 25 2 18 1 30 32 2 37 38 19 38 14 8 28 32 7 34 2 11 31 6 37 36 26 18 36 20 38 11 13 39 0 23 35 17 11 29 28 2 20 33 22 30 33 26 2791 2641 3395 4450 3481 2572 4518 4679 2815 4294 2505 2971 4091 6 4836 11 4211 2602 2984 3267 4592 3344 4689 3508 3724 3869 3988 3162 3938 4141 4203 4627 3701 4322 2961 4626 4967 3218 3514 4799 3373 2830 3225 4775 4067 4172 4997 2826 2705 2642 4052 3921 3652 3930 4552 3900 2802 3266 2943 3639 3594 4222 4993
17 32 11 25 2 34 16 2 27 20 1 5 27 25 20 35 10 4 31 1 3 16 12 4 30 26 28 18 21 18 20 28 11 15 30 34 25 22 18 12 1 11 21 2 1 5 15 1 17 0 33 26 39 33 11 3 19 37 2 21 33 21 3527 3219 4615 4893 3947 3531 3874 3363 3442 3069 3992 3369 4373 3087 3317 4324 3433 3074 3022 4809 2712 3322 3951 2597 3770 4006 2533 2866 2939 2932 4147 4913 4682 2507 3647 3311 2601 3297 3190 4430 4733 4046 3923 3992 4285 3210 3876 4829 2508 3083 3472 2691 2844 3220 3762 3608 4233 2748 4641 3774 4838 4228 3281
34 28 3 18 34 26 10 3 36 20 29 13 34 27 39 8 22 39 25 29 5 30 6 22 24 25 38 26 27 31 10 33 11 39 11 4 7 18 19 1 4 2 3 13 21 9 25 16 3 1 0 7 33 26 6 39 3 17 12 15 39 33 3525 3093 3443 4758 3777 3779 3160 3893 3508 2698 3118 4763 3719 3594 2840 3126 4499 2732 4966 2951 3851 3380 3114 3525 3021 3283 3284 2723 3039 3709 4938 2717 3374 19 2950 4173 3491 3878 4740 3652 4345 3358 3402 2863 4026 4579 4225 2873 2876 3696 2746 3803 3466 3722 3690 2987 3812 4988 3548 3766 4501 4260 3656
20 13 15 33 10 11 15 25 1 20 7 33 12 30 29 22 25 19 8 3 10 18 11 5 13 5 28 10 9 24 37 1 25 27 29 21 3 25 17 12 23 16 8 23 36 29 3 23 32 20 18 0 9 30 27 19 2 9 22 21 21 7 3284 2903 2724 3894 3884 2709 3282 4458 4032 4500 3984 3876 4616 4401 4015 4166 3250 4289 4464 4014 4660 4014 4853 4243 4026 4009 4319 3188 4534 4896 3823 2559 3864 3943 2644 3917 3236 2501 3915 4611 2964 4518 3131 4870 4706 3795 4495 3752 2518 2513 4318 3899 4343 3863 2976 3403 4279 3019 3599 4131 2621 3408 3328
20 8 39 6 33 26 7 36 7 19 35 9 39 35 8 36 39 3 37 20 25 22 29 13 2 35 7 16 21 23 3 3 12 21 1 6 34 28 22 26 27 21 23 3 22 12 8 30 1 25 20 18 0 15 30 21 34 36 7 34 8 16 3814 4503 3428 4037 2883 4127 2597 2623 2561 4159 4902 7 4097 2700 4246 4030 4152 4882 4610 2723 3339 3804 4343 2651 3991 4585 4273 4245 4370 3848 4626 4765 3268 3568 4526 4893 2739 2965 2704 2735 14 4752 4551 14 3270 3666 2915 4751 4562 2610 4101 4417 3147 3038 4229 3174 4608 2503 3012 4277 3271 3154 4805
32 34 21 23 19 18 38 6 32 20 24 1 24 19 12 31 12 14 26 38 34 1 17 36 9 14 37 36 28 21 24 33 20 35 9 8 22 6 28 29 39 16 18 1 9 7 22 22 28 13 10 27 32 0 3 37 8 11 18 7 21 3 4019 4602 4690 3661 3098 4893 3989 3372 3606 14 3290 4026 2929 2684 3150 4431 3237 3537 3973 3647 3055 2536 3828 3111 3911 4701 3866 2779 4328 4026 2940 4010 2885 4850 3218 3807 3486 3231 4747 4326 2644 3729 3732 4243 4849 4622 4299 3827 4092 4729 4428 3801 2834 4279 4748 3644 2551 3323 4571 2558 4824 3581 4103
34 28 18 28 5 15 4 35 10 33 26 7 7 12 37 39 10 2 35 8 36 35 16 22 39 31 29 14 33 1 1 27 25 33 3 39 18 25 28 37 1 21 20 3 21 37 1 3 5 14 36 33 33 39 0 18 37 32 1 16 2 1 2975 3697 3585 4801 4899 4363 4336 4586 3675 3160 2871 3105 4095 3351 2734 2899 4953 3498 2847 3144 3900 2949 4565 3261 2706 2829 4135 3213 3727 3915 3929 6 3689 3812 7 4331 2596 4422 3316 4823 4036 4484 2607 2949 2829 2965 4509 2629 3720 4895 3841 2687 3630 3642 2737 3456 2703 3178 3847 3689 4648 3423 3824
4 4 34 9 23 12 11 17 18 8 13 22 15 25 31 19 19 30 24 30 11 22 15 25 19 22 6 33 22 21 1 33 38 27 33 7 13 8 28 15 23 5 31 16 38 13 36 31 3 22 20 15 2 2 6 0 2 16 16 25 7 19 4231 4700 4350 4220 2522 4293 3523 3223 2899 2627 3286 3296 3037 2660 3425 3726 4852 3610 3338 4341 3594 4273 3120 2619 2666 3554 2742 4987 4940 2603 3630 3868 3434 3643 2697 4447 2609 3399 4777 4130 2807 3483 3369 4088 3234 3347 4337 3391 4111 4118 4741 4361 3966 3559 2863 3379 3910 3770 3364 3415 4219 2951 2711
38 29 27 38 23 29 38 19 10 24 17 24 22 10 13 6 11 31 13 2 20 29 19 33 19 35 6 15 27 28 26 9 29 34 23 13 37 2 34 5 13 11 15 5 16 20 10 7 26 20 26 5 20 23 36 29 0 11 13 13 16 4 3644 4447 2924 3878 3311 3532 4951 4018 2682 3140 4637 4948 3685 3713 3576 3635 4679 4125 4443 3740 4638 4000 4273 4396 3793 2867 4078 4510 3350 4143 3790 3518 4748 3143 4194 4497 4175 2936 4422 4667 3753 4783 4852 15 4385 3772 3981 3642 4954 3173 4634 8 4612 4264 3083 2562 2672 2632 3497 4246 3787 2871 4742
21 29 29 2 8 9 30 12 20 16 25 27 12 31 32 24 9 8 3 34 15 21 10 31 33 17 26 11 12 27 19 12 21 21 14 30 9 22 2 7 18 14 1 11 13 36 30 38 33 15 1 33 28 39 11 8 36 0 4 26 24 35 3212 4285 3450 2537 4288 3381 4052 3994 4707 11 4599 4157 2996 2815 3338 3051 4642 3223 13 3382 4398 4658 3779 4975 3462 2550 3661 3533 4608 3599 4069 3921 4670 4060 3601 4996 3802 2969 3056 3182 3921 2806 2953 3597 2924 3029 4425 4515 3250 3392 2849 9 2879 4183 3066 3732 3988 3574 2984 4358 3020 4984 2830
32 31 20 37 35 39 11 25 24 11 28 20 15 36 33 10 24 26 25 31 11 29 26 37 8 33 13 33 35 7 9 33 38 17 32 5 17 16 9 2 4 17 29 6 37 35 23 21 11 35 11 17 24 14 15 12 34 2 0 28 34 12 4747 4806 3149 4948 4955 2620 2728 3157 2722 4823 2633 8 4830 3925 2615 4263 7 4899 4976 3592 4926 3638 4094 4728 3738 3801 2839 4887 4133 4009 2920 3371 3666 3192 2681 2791 2863 4319 2953 2660 2526 4572 3721 4497 3460 2807 3974 3263 4767 2520 3124 3494 4088 4392 3350 4174 4154 3460 3286 5 3511 3967 4463
1 3 7 15 1 27 33 32 33 24 36 31 13 34 28 7 6 23 31 37 11 26 17 20 9 13 23 10 11 28 37 18 18 34 25 11 7 5 29 33 19 1 20 30 1 27 8 16 37 32 34 28 14 8 9 8 33 29 29 0 30 39 4863 3745 4655 2772 3581 3186 4079 4883 4142 2508 3926 2704 2934 2587 4552 4005 3393 3472 3135 3580 4592 4316 3561 2950 3108 3777 3504 3384 4553 4640 2801 2995 3995 4684 2822 4930 3358 4334 4162 3407 4877 4720 4117 2778 3010 4114 4009 2647 3306 4997 3584 2503 4813 4300 3204 4247 4662 2501 12 3814 4432 4016 3582
22 32 26 4 12 36 11 30 33 4 18 31 16 32 20 35 37 15 21 33 33 17 3 30 12 31 3 36 24 39 16 38 12 1 18 32 8 9 35 5 24 9 28 13 31 33 31 37 22 20 34 16 36 32 18 5 27 16 6 31 0 9 2540 2819 12 4148 2931 3199 3795 4064 3611 4517 4901 3536 4121 3503 3741 4380 4906 3198 2591 4642 2863 3213 3714 4138 2976 2909 3909 4314 4246 4050 3090 2711 2927 4139 4359 4868 3322 3955 3174 4922 2510 2729 2805 4138 4471 3949 3594 3648 4582 3064 3890 4127 4437 3647 4606 3101 3978 3484 2587 4155 4066 3979 3531
32 6 5 20 24 19 33 23 6 15 31 16 1 14 25 9 21 12 21 1 25 9 2 24 33 27 39 1 11 36 2 7 37 26 20 12 15 33 11 12 19 4 18 21 11 13 10 3 2 32 16 30 5 14 39 8 5 18 39 31 4 0 4829 11 4056 3762 3994 4241 4225 2808 4627 4114 2675 3793 4812 3070 2757 2803 3149 4393 3292 5 4484 3172 3978 4595 3083 3533 3061 3489 3001 3686 3212 3997 3751 3208 3079 2624 3576 4576 4118 4660 3455 2664 9 3206 3345 3197 3080 3063 3139 4359 4926 4051 3230 4770 4979 4410 4411 3634 4110 4654 3886 3269 2830
4993 4591 4636 2970 4883 2718 4737 4281 2611 3532 2968 3722 2830 4031 4550 3773 4992 2939 3355 3380 4486 4297 3538 2555 2819 4659 3759 4329 3087 14 3801 4028 4516 2967 3778 3223 3303 3967 4752 4763 2887 4486 4535 4588 17 4482 3914 3665 2791 3527 3525 3284 3814 4019 2975 4231 3644 3212 4747 4863 2540 4829 0 5 5 14 31 33 34 27 9 4 17 35 26 32 34 4 9 12 19 16 39 32 39 22 16 17 24 22 30 12 33 2 12 7 7 36 19 23 38 18 27 23 28 21 32 27 15 25 24 10 12 2 14 12 4 18 37 36 23 15 25 6 17
4376 3680 4492 3032 3688 4478 3403 2808 4562 3926 2847 4175 12 3315 2675 3139 3060 2769 3956 3683 4733 3096 2964 4334 3172 4200 4368 3953 2785 3370 3815 3018 4536 4742 4398 3399 2716 3006 4669 4407 3981 3704 3215 2687 4282 4930 4969 4248 2641 3219 3093 2903 4503 4602 3697 4700 4447 4285 4806 3745 2819 11 37 0 6 6 3 37 39 12 7 16 28 1 33 1 37 11 37 9 36 28 4 27 12 30 15 21 4 29 10 39 1 6 36 28 2 17 15 7 25 31 2 38 17 8 17 36 1 32 33 37 34 21 38 28 20 34 28 25 30 24 5 6 12
3493 2863 4982 4718 4100 4319 2657 2839 3539 4521 4152 3747 3420 3926 3175 3299 3924 4906 2552 3265 2695 4108 4641 3597 2510 2885 3868 4115 4122 4035 4969 2884 4195 4813 3855 4426 4648 3624 4214 4533 2939 3710 3648 4409 4844 3189 4962 4181 3395 4615 3443 2724 3428 4690 3585 4350 2924 3450 3149 4655 12 4056 22 29 0 33 25 3 13 1 15 29 38 12 18 38 14 19 34 22 23 22 3 26 16 19 8 23 15 23 19 22 29 11 10 32 8 1 35 27 10 6 6 32 4 36 17 14 9 26 14 30 3 5 16 29 11 17 8 14 31 28 23 7 24
3520 3511 4780 3080 4512 4365 2739 3485 3104 2986 2664 3828 3468 3642 5 4903 3377 4115 3317 4997 4032 3838 3728 2897 3443 3717 3550 4060 4620 3740 4812 4591 4036 4977 2699 3401 4135 3310 3202 3421 2724 3569 3172 2897 3094 3351 4342 3405 4450 4893 4758 3894 4037 3661 4801 4220 3878 2537 4948 2772 4148 3762 7 22 6 0 21 26 15 18 6 37 6 3 17 18 29 6 5 33 27 13 4 7 39 23 26 1 8 36 37 30 26 21 26 15 7 8 26 38 38 24 5 38 4 1 4 19 22 6 1 18 11 9 21 18 27 37 21 13 16 13 7 13 4
4509 4530 4551 2812 4961 4968 4897 4309 3302 2788 4642 4019 2748 3502 4951 4073 4077 3991 3363 3860 2527 3546 2721 3894 3748 4343 4479 4408 3929 3190 4815 4524 3652 3280 3625 3908 3688 3107 3029 4554 3476 3008 15 2825 2581 4655 4335 3891 3481 3947 3777 3884 2883 3098 4899 2522 3311 4288 4955 3581 2931 3994 19 28 31 13 0 22 22 15 32 16 9 1 10 16 23 29 25 21 28 19 36 12 16 33 24 38 38 21 25 28 20 36 17 1 31 5 25 29 10 12 15 13 19 26 14 33 7 10 22 26 38 32 4 20 18 23 7 23 4 16 34 25 28
3986 3560 4990 3363 2759 4319 4570 2934 3741 3145 2639 4489 3640 3020 3717 2622 4466 2774 4025 4106 4966 2626 2967 4263 4159 3740 4081 2842 2709 3110 3125 2965 3872 4360 4210 3469 3720 3195 3683 3001 3839 3166 3625 2926 2564 4368 4843 2922 2572 3531 3779 2709 4127 4893 4363 4293 3532 3381 2620 3186 3199 4241 7 34 32 32 26 0 32 2 23 23 9 30 13 14 39 26 2 18 39 7 12 22 33 4 5 30 34 8 23 24 16 14 4 23 23 14 29 10 12 3 22 11 16 6 11 19 9 1 28 19 9 28 25 37 16 3 32 5 14 21 38 4 18
4775 4254 2561 3642 3678 4592 2548 3482 4981 3203 4935 3385 4194 3219 3691 4838 2727 2516 3689 4855 4254 3022 3837 3712 2929 4600 3461 3166 2527 3899 3214 4042 4466 3649 3585 4752 4888 4832 3622 2952 2857 4270 3972 2988 4027 2847 3178 3810 4518 3874 3160 3282 2597 3989 4336 3523 4951 4052 2728 4079 3795 4225 19 25 39 38 19 20 0 18 30 11 27 39 7 5 4 30 17 39 19 11 18 28 20 27 5 3 14 5 18 2 17 10 39 27 7 37 15 2 26 17 17 31 38 15 10 22 36 9 36 33 38 8 14 19 23 8 14 25 20 34 13 10 22
4230 3778 3327 2561 2819 3213 3002 2951 4062 3388 3309 2506 4876 2722 3204 3438 3709 4911 4872 4458 3155 3941 4881 4346 4764 4630 3692 4393 3315 2607 3201 3164 2617 2822 2835 4060 4306 4265 3304 3995 3200 2692 4576 2534 3480 3967 3014 3112 4679 3363 3893 4458 2623 3372 4586 3223 4018 3994 3157 4883 4064 2808 10 11 33 6 16 24 38 0 20 5 26 20 22 36 33 32 21 38 12 39 36 34 22 27 7 11 23 6 32 29 4 35 12 3 13 37 19 35 27 35 34 23 10 17 12 11 16 29 10 38 9 24 28 5 12 16 29 9 12 10 19 33 18
4911 3926 4685 4143 2880 3094 3455 4596 3159 4556 4531 9 4502 4414 4139 2763 4535 2778 4978 4894 2863 3498 2562 2923 3652 3263 3636 4148 4259 4412 4840 3334 3795 4136 4922 4922 4904 4227 3612 3573 4666 2653 3597 3043 2771 3367 3464 3203 2815 3442 3508 4032 2561 3606 3675 2899 2682 4707 2722 4142 3611 4627 6 11 7 37 17 8 25 8 0 13 39 22 35 3 18 4 17 19 7 39 5 37 26 13 12 13 18 26 13 34 18 32 36 3 22 7 32 27 29 21 13 19 32 12 19 22 9 18 28 37 34 36 9 29 28 1 6 18 4 39 25 21 13
3236 3701 3697 3254 3808 3802 3925 4459 4108 3763 3396 4883 3923 3177 2716 4743 3117 4839 3759 3999 3022 3475 4196 3624 2903 4064 2553 2965 4877 4434 3146 4768 4752 3092 4601 4844 4379 4555 3834 3292 4771 4167 4369 2697 3005 2519 3174 3730 4294 3069 2698 4500 4159 14 3160 2627 3140 11 4823 2508 4517 4114 31 2 11 15 25 2 11 31 7 0 32 16 30 31 13 31 28 32 20 22 2 22 32 31 3 17 37 18 39 29 15 8 31 37 33 1 9 23 19 38 17 30 17 33 32 23 13 24 21 25 16 11 12 25 34 38 8 32 11 15 33 29 4
4180 4898 3944 4486 4588 4516 3189 3935 3719 3580 4747 3250 3540 3617 4956 4485 4596 4627 4562 2832 4484 4897 2840 3385 3465 3543 3123 4746 3584 4987 3936 4618 2794 2913 3497 3654 4482 4124 3712 3569 4317 4423 4893 3625 4917 2728 4146 4865 2505 3992 3118 3984 4902 3290 2871 3286 4637 4599 2633 3926 4901 2675 11 26 39 28 9 27 34 37 35 7 0 8 30 25 19 9 23 35 35 16 3 2 9 19 19 11 36 34 6 30 1 18 36 35 19 30 10 5 19 35 1 38 38 4 19 26 13 30 5 25 16 27 31 3 21 35 10 19 36 12 33 6 9
4867 3832 2581 4591 3293 3367 4609 4220 2871 4211 2951 4826 3325 2549 2991 2906 2792 3139 4568 3429 4790 4100 4129 3770 4406 4514 4146 4612 4580 4495 4810 4655 2983 4401 4271 4514 4307 4812 2688 4828 4355 2516 4422 4319 3405 2586 4304 4810 2971 3369 4763 3876 7 4026 3105 3296 4948 4157 8 2704 3536 3793 19 1 16 4 30 20 15 14 19 35 23 0 12 14 26 13 14 13 10 27 6 18 2 23 13 39 28 10 31 3 22 10 16 28 10 30 13 8 5 15 9 17 29 17 28 28 20 38 10 9 21 19 36 19 21 7 11 21 23 9 7 23 9
4142 4084 4046 3972 4356 3841 3170 4140 3647 3111 3607 4352 4077 3277 4301 2918 3906 2624 3651 3679 4760 4833 2611 3625 3724 4803 4462 11 2838 2672 3142 3868 3688 3806 4166 2559 3641 4775 2561 4257 3312 3423 2885 2867 3170 4734 4379 3123 4091 4373 3719 4616 4097 2929 4095 3037 3685 2996 4830 2934 4121 4812 13 25 13 1 19 26 37 26 35 27 27 3 0 39 7 14 1 2 15 14 17 18 1 19 7 33 3 13 15 21 19 34 17 8 34 36 5 6 15 27 28 38 23 24 38 27 19 30 28 10 10 4 12 18 29 23 36 11 15 2 32 33 1
3758 4992 3766 2915 4265 4258 3440 3325 3740 4393 3159 2893 4034 3847 3103 3085 4751 4386 2726 3738 4799 4436 4762 4451 3042 4603 4388 2689 3760 4511 4008 4959 2848 4354 3870 2577 3344 4423 2520 3562 4573 3453 4836 4843 2549 3388 4871 3969 6 3087 3594 4401 2700 2684 3351 2660 3713 2815 3925 2587 3503 3070 30 3 37 13 6 1 2 8 29 21 34 39 9 0 39 15 29 34 23 1 31 11 18 6 11 37 17 2 2 21 7 28 15 19 29 11 12 13 14 9 37 34 29 1 14 5 7 34 17 39 14 18 23 31 26 35 32 33 36 17 36 35 8
3605 4157 4611 2697 3407 3260 4805 4006 3744 3251 3020 6 3300 4487 4754 4360 3034 3285 4562 3833 3897 3567 4227 4930 4221 4770 4171 2878 2542 2919 4088 4764 2505 3958 4721 4442 4655 4812 4445 4517 4190 3028 3686 3279 3989 3318 2929 3065 4836 3317 2840 4015 4246 3150 2734 3425 3576 3338 2615 4552 3741 2757 18 10 28 34 39 14 14 14 15 27 29 17 30 25 0 4 36 9 10 16 4 17 7 6 35 6 19 12 1 30 34 20 12 10 6 8 3 3 33 18 23 39 8 11 16 25 1 19 14 22 7 9 7 31 20 29 33 30 20 23 24 4 22
3090 3827 4199 4599 4727 2647 3883 4803 3939 4331 4612 2715 2953 4658 4830 4123 4846 2863 3588 2610 3897 2717 10 4388 4000 4166 3023 2719 4552 3704 3664 3648 4039 2731 4818 3702 3466 2827 2583 2594 2886 4772 2541 4178 4796 4978 4429 3354 11 4324 3126 4166 4030 4431 2899 3726 3635 3051 4263 4005 4380 2803 32 34 1 37 10 11 16 34 12 1 20 8 15 28 13 0 14 11 35 3 34 17 35 2 39 4 27 7 37 13 10 39 20 32 31 1 32 29 16 7 29 7 28 30 15 8 34 17 13 23 26 29 16 28 16 15 21 21 18 12 36 27 17
2905 3238 3009 3064 3914 3500 3639 3433 2883 4228 3215 3122 3952 3306 4110 2528 3219 3119 4594 4509 4858 4548 4464 3720 3997 4676 3266 3201 4593 2976 4532 4606 4876 2869 4637 2561 3724 4962 3805 4638 4649 3176 4787 3535 3911 2700 3806 3124 4211 3433 4499 3250 4152 3237 4953 4852 4679 4642 7 3393 4906 3149 17 1 32 18 39 4 15 5 16 19 32 18 12 26 13 8 0 22 26 15 18 5 29 12 12 39 11 18 19 34 15 5 14 18 39 5 31 29 27 13 9 36 30 14 29 39 37 20 16 39 12 17 18 13 20 31 35 15 5 14 1 35 26
3629 3198 4946 4846 4934 3254 2963 2801 2546 2529 2756 3904 4185 2710 4188 4406 3115 3755 2690 4815 3569 2825 3830 3304 2617 3355 4976 2917 3853 4784 3519 4416 2967 2560 4219 3280 2958 3704 3785 4136 4989 3602 3622 4956 3169 3367 3670 4989 2602 3074 2732 4289 4882 3537 3498 3610 4125 3223 4899 3472 3198 4393 25 38 19 4 30 21 12 38 7 25 33 20 10 29 8 2 13 0 7 6 24 35 8 19 28 7 3 20 3 17 27 18 2 1 36 13 18 33 14 22 12 30 32 20 26 7 4 4 16 9 8 30 24 18 7 10 25 9 34 34 12 27 9
10 4459 3959 3140 4048 3869 2863 4465 4072 3305 2974 3656 3278 2992 4042 4405 3615 3925 4775 3201 3812 3425 3738 2624 4081 4720 3014 3114 3459 3992 4360 4391 3008 4918 4427 3733 4145 4878 3662 4747 3442 3432 4961 4454 2713 3218 3912 4852 2984 3022 4966 4464 4610 3973 2847 3338 4443 13 4976 3135 2591 3292 1 5 38 20 31 34 32 22 4 30 26 8 15 2 17 3 17 36 0 17 19 2 24 5 32 34 3 2 32 27 24 36 7 24 2 14 25 6 2 32 2 17 26 21 21 20 7 35 29 29 12 24 8 38 30 31 31 13 14 17 26 22 4
2940 4146 3801 3106 4657 13 3121 8 3447 3759 3496 3832 4459 4505 3799 4155 4891 2558 4268 4602 3049 4383 2966 2595 4488 4933 4711 4549 4968 2628 3498 3887 3832 4333 4962 2589 3771 3517 3510 4943 4615 4983 2703 3738 2853 4499 3196 4686 3267 4809 2951 4014 2723 3647 3144 4341 3740 3382 3592 3580 4642 5 30 32 20 28 32 18 8 9 32 29 31 27 15 23 6 31 28 8 30 0 32 10 20 26 37 23 13 26 14 24 28 12 13 32 19 21 23 22 18 38 39 13 18 8 9 9 2 18 10 4 13 15 17 15 21 6 19 14 9 18 13 4 20
2610 2522 3840 3956 3965 3544 4693 2750 4783 2953 2773 2701 3776 2665 3954 4066 4160 3244 3646 3578 2755 4032 2956 4481 3056 3001 4646 4958 2738 2706 4416 3213 3379 3736 3037 4633 3236 3804 3678 4383 4631 2552 4457 4334 17 3848 4778 4236 4592 2712 3851 4660 3339 3055 3900 3594 4638 4398 4926 4592 2863 4484 27 31 30 9 20 31 30 37 16 9 12 15 9 7 12 7 11 36 35 7 0 25 16 35 14 2 23 32 26 2 35 11 30 19 6 35 17 4 11 27 23 22 36 17 7 10 6 14 12 16 29 38 29 2 39 38 16 11 38 2 39 22 2
2782 3278 4012 4618 3528 4445 3670 3996 2945 2971 3587 4826 2700 3775 4561 4606 3337 4136 3424 4722 3154 4159 4773 3365 3218 4793 3244 4698 3608 4282 4090 3526 4936 3265 4013 4130 3765 4338 2697 2734 2592 4965 3232 3267 4504 2589 4003 2704 3344 3322 3380 4014 3804 2536 2949 4273 4000 4658 3638 4316 3213 3172 29 2 26 26 37 6 24 22 30 13 29 39 33 8 22 31 1 17 29 8 15 0 31 24 9 37 12 6 1 38 29 34 35 2 13 12 7 27 18 13 31 22 12 17 34 37 26 20 13 36 37 28 13 27 8 22 24 38 34 30 23 1 9
3816 3304 4566 4454 3276 3483 3657 3766 4205 4167 3902 2948 3017 3408 3225 4504 3691 2942 3569 4313 4552 4491 4882 4283 4692 3350 3910 4803 4892 3902 4135 3542 3791 3843 4838 4190 4547 3173 2632 3302 4904 2697 3015 3398 3879 4286 4107 2638 4689 3951 3114 4853 4343 3828 4565 3120 4273 3779 4094 3561 3714 3978 34 6 4 2 25 15 19 16 16 35 7 27 33 11 24 3 27 6 20 18 5 39 0 12 35 29 2 32 25 32 6 12 1 39 31 30 31 29 7 33 35 24 31 21 6 39 32 4 15 6 15 38 26 18 10 16 18 34 11 34 33 25 16
3390 2585 2820 4354 3072 4341 3364 4935 4887 2848 3196 4442 4477 19 2550 4577 3824 4198 4664 3484 2587 4925 3259 3557 4883 4179 14 2946 3185 3899 2536 3235 3253 3018 4351 2773 3007 2503 2899 3539 4868 4123 4229 3174 2892 2658 4212 3467 3508 2597 3525 4243 2651 3111 3261 2619 4396 4975 4728 2950 4138 4595 14 18 34 38 5 22 26 13 30 4 22 26 23 25 39 12 24 8 18 34 34 1 8 0 29 7 20 32 9 32 3 7 2 15 3 20 12 23 15 4 22 8 5 26 2 5 32 12 9 8 28 2 7 20 22 31 14 21 14 3 11 36 36
2794 2648 3508 3153 2618 4608 3568 3448 4333 2540 4287 4121 3642 3614 3191 3478 4745 4362 2741 4039 4457 4869 4527 3832 2761 2996 3154 4828 4740 4944 4545 4927 2573 3655 3270 3019 3561 3878 2590 3285 3384 2848 3092 4090 4315 3446 2955 3460 3724 3770 3021 4026 3991 3911 2706 2666 3793 3462 3738 3108 2976 3083 34 23 6 39 9 20 18 22 22 5 8 17 3 39 33 29 29 14 34 6 12 22 1 17 0 20 33 17 10 18 4 32 13 28 39 27 13 17 26 17 36 14 6 31 5 21 32 37 16 11 17 13 26 31 35 1 26 14 18 39 3 16 13
3147 2707 4975 3967 3698 4833 2703 4127 2757 4696 3586 3621 3063 4695 3937 3714 3676 4954 2789 3231 4992 4005 3101 3625 4544 4925 3317 3399 4096 4161 2855 4221 3859 4890 6 4346 2766 2566 3652 4958 3337 3376 3784 3569 3155 3054 3813 2636 3869 4006 3283 4009 4585 4701 2829 3554 2867 2550 3801 3777 2909 3533 2 21 18 7 9 4 9 37 30 36 10 14 8 15 18 10 34 25 35 10 32 24 7 27 29 0 35 19 9 34 39 38 7 29 16 10 7 2 10 22 1 19 9 38 13 27 19 11 21 3 35 2 33 39 7 24 30 8 4 20 13 7 34
3304 3755 4606 2562 4733 4895 2513 2726 3286 2770 3306 2737 3584 4350 4836 3015 4211 4628 4493 2634 3464 3550 2699 4519 2669 3756 3351 3617 3950 3576 2737 3030 4449 4014 4882 3753 4994 2887 3626 4429 3350 3050 2516 4319 4172 2970 3587 3902 3988 2533 3284 4319 4273 3866 4135 2742 4078 3661 2839 3504 3909 3061 27 28 7 15 23 6 25 13 38 30 18 31 37 33 1 30 34 24 28 36 14 5 31 17 39 6 0 18 22 11 22 30 6 2 32 33 29 27 10 31 16 18 15 14 21 14 31 30 23 38 38 22 19 7 2 25 28 6 1 24 8 3 16
3679 4961 3214 4561 4206 2706 4668 3664 2916 2898 4526 3361 2618 4610 4381 4225 4195 3989 2653 3017 3260 2673 3332 2674 4589 4917 3662 4197 3010 3913 2613 3984 3935 3118 4022 2673 3899 2598 2526 3463 3667 2637 4471 4850 3077 3375 3783 2548 3162 2866 2723 3188 4245 2779 3213 4987 4510 3533 4887 3384 4314 3489 23 27 33 38 18 14 24 31 20 21 22 16 32 32 16 5 11 19 10 12 25 21 33 6 22 2 27 0 39 11 14 27 19 7 31 5 23 1 32 2 24 18 32 29 20 15 10 19 18 24 15 1 18 9 25 1 3 30 4 1 39 33 10
2944 4613 2931 3151 3451 3405 3491 3709 2505 4844 4498 4339 2626 4923 2858 2894 3725 4675 4797 3315 4415 3754 10 4529 4749 3457 2718 2641 4592 4768 4146 2612 4528 2892 3325 3231 2874 2966 2858 4085 4080 2536 3655 3761 3860 4151 4881 4608 3938 2939 3039 4534 4370 4328 3727 4940 3350 4608 4133 4553 4246 3001 26 30 26 14 32 23 21 36 39 17 34 34 9 8 1 11 22 19 37 25 35 12 13 37 7 10 8 16 0 18 22 35 7 19 2 37 6 21 33 2 28 24 22 35 28 32 1 35 1 35 35 17 22 3 10 10 35 38 2 14 14 30 30
3739 4840 4759 3492 4208 3374 3672 2889 4016 3538 2608 3884 4359 4660 3736 3811 2843 4646 2727 2954 3882 4404 2517 4973 3119 2625 3837 3623 2585 3997 3348 4045 4209 3235 3018 3767 3892 2962 4728 4815 4462 4755 3763 4463 3928 2640 4652 2502 4141 2932 3709 4896 3848 4026 3915 2603 4143 3599 4009 4640 4050 3686 37 3 7 5 4 12 20 38 28 11 4 30 23 17 33 28 22 13 19 21 7 23 4 22 30 25 13 15 26 0 3 14 25 19 32 7 23 9 10 7 38 17 31 15 33 3 8 28 19 3 33 15 26 9 17 32 13 3 38 15 3 20 28
3862 2821 4311 4268 3764 3279 4138 4473 4256 4072 3648 3975 2919 3526 3934 4450 3533 4323 3012 4198 2990 4050 4086 4903 2670 3627 4208 4484 2772 3895 2708 3367 3819 3605 19 3603 3005 4289 4440 2547 2973 4838 3845 4183 2937 2891 2540 3362 4203 4147 4938 3823 4626 2940 3929 3630 3790 4069 2920 2801 3090 3212 22 12 12 23 6 15 30 17 18 2 31 25 13 23 19 7 8 14 22 2 19 12 13 21 29 21 34 22 26 6 0 16 23 22 30 37 6 12 22 16 17 26 10 23 9 38 7 8 28 6 22 9 6 24 31 3 16 25 1 16 26 19 22
3416 2635 4334 13 2512 3743 3584 4692 2514 3801 4638 4478 9 4281 4439 2609 3620 4232 3376 4218 4050 4420 3070 4259 4884 4751 3410 4664 4508 4908 3406 4160 4511 3981 4844 3970 4677 4771 4915 4710 4725 2831 3867 2526 3489 4301 3396 4615 4627 4913 2717 2559 4765 4010 6 3868 3518 3921 3371 2995 2711 3997 23 7 34 23 13 26 26 35 31 20 1 1 15 23 36 7 6 31 18 38 16 12 15 17 16 7 18 22 30 9 17 0 37 37 32 31 28 33 28 10 33 20 5 15 39 5 29 26 4 33 34 24 19 39 38 9 37 25 3 26 30 36 34
4025 4712 2607 3550 3808 4133 3703 4360 2584 2798 4048 4619 4230 4824 4041 4872 4599 4440 4650 2922 2957 4998 4589 3824 4523 4465 4144 2819 4108 4273 3354 2725 3076 4493 3440 3186 3408 2588 3971 3385 2714 4663 3203 2976 3891 3461 4935 3195 3701 4682 3374 3864 3268 2885 3689 3434 4748 4670 3666 3995 2927 3751 8 32 28 30 31 13 39 24 1 10 11 7 37 5 20 19 24 39 35 27 5 37 39 16 20 16 16 16 30 7 22 25 0 18 24 2 14 19 32 27 27 18 24 6 3 20 22 5 23 34 6 4 36 8 33 4 7 30 11 33 36 13 15
3659 4187 2594 3112 2729 2686 4209 2620 4838 4661 3622 2951 3303 4961 3719 4077 3091 4892 4203 3570 2981 4684 3981 4221 2503 3505 2827 3148 4400 2509 4646 2990 3730 2997 3319 4001 2741 3853 3181 3192 3232 4391 4936 3943 3107 4481 4153 4048 4322 2507 19 3943 3568 4850 3812 3643 3143 4060 3192 4684 4139 3208 29 37 39 23 37 28 38 6 9 28 22 3 24 29 10 2 4 31 18 30 36 3 3 20 21 29 30 28 30 22 35 27 10 0 24 15 35 9 39 36 30 21 6 27 37 14 23 38 27 3 38 2 9 21 23 29 12 12 31 17 32 35 6
4889 4692 2923 4017 2679 2725 4368 3918 4984 4920 4158 3698 3816 4869 3865 3428 4603 4771 3468 2927 3934 3262 4601 3250 3195 4678 3518 3590 4695 4690 4856 4824 2507 2641 4111 2725 3881 3502 2758 2995 4444 3972 4202 2847 4835 3490 4612 2870 2961 3647 2950 2644 4526 3218 7 2697 4194 3601 2681 2822 4359 3079 17 17 15 12 30 2 34 28 14 4 32 38 20 32 28 4 36 38 17 9 3 14 32 33 3 20 19 4 35 4 9 12 15 5 0 25 12 25 16 39 5 18 30 7 39 26 22 14 31 32 21 5 6 39 26 10 35 3 15 33 10 30 35
4399 3096 4554 2900 4521 4407 4055 2839 3131 4102 3219 3377 3776 2564 2845 4762 4352 2787 4605 3677 3570 4629 4636 4332 2788 4858 4344 4051 4715 3609 4536 2993 4604 3165 3550 4372 2772 4661 3048 3890 2608 4816 3939 3333 4151 2657 4009 3709 4626 3311 4173 3917 4893 3807 4331 4447 4497 4996 2791 4930 4868 2624 8 4 1 29 39 21 11 3 38 31 20 38 33 3 35 5 6 34 25 17 20 34 7 14 33 36 27 14 19 37 14 33 37 3 24 0 16 11 4 13 27 21 2 7 24 19 12 3 22 2 3 10 12 15 36 4 11 5 16 4 26 25 33
2713 4859 4611 2511 2799 3517 2515 4543 2913 3242 4557 3162 3222 3001 2914 8 3529 3089 3993 3131 3483 4340 4888 2859 4695 3490 3818 4254 13 2853 3194 4937 4419 3337 4840 2592 3132 4592 4004 4248 4127 3474 2691 4143 4632 3340 4189 2675 4967 2601 3491 3236 2739 3486 2596 2609 4175 3802 2863 3358 3322 3576 30 22 38 26 11 3 39 39 6 21 27 25 9 1 29 39 17 32 15 11 37 22 13 7 32 23 39 24 1 30 37 14 5 15 32 15 0 6 26 18 30 26 22 37 29 20 6 13 20 27 3 21 3 18 1 35 5 15 5 3 17 36 26
3653 3157 4645 2522 2587 4712 3952 4803 4960 4263 4004 3489 3609 3601 2956 3400 3803 3624 3676 3065 3128 2739 4005 2914 3997 2952 3251 4379 4261 4126 2847 4807 3119 4898 3415 3831 4923 3065 4481 2644 3348 4835 3879 4992 2741 2604 3131 3347 3218 3297 3878 2501 2965 3231 4422 3399 2936 2969 4319 4334 3955 4576 20 3 4 33 3 31 19 12 6 26 11 38 27 18 13 39 23 3 28 26 15 21 16 4 3 27 12 22 36 37 39 35 26 32 32 3 15 0 22 7 19 17 30 2 18 19 26 19 25 5 32 17 22 4 1 26 19 10 28 38 33 5 10
3415 4394 4477 4925 4015 7 4079 4524 3635 4143 4049 3472 3279 3516 2900 3026 4960 3849 4612 3759 4189 4594 2766 3944 2908 10 4620 3613 4490 4166 3526 4883 4438 3955 4127 4067 3201 3939 4179 3878 2992 2908 3173 4693 3150 4459 3072 3166 3514 3190 4740 3915 2704 4747 3316 4777 4422 3056 2953 4162 3174 4118 24 39 5 16 16 1 27 11 21 21 17 6 35 38 15 2 36 28 21 36 9 7 17 33 11 25 21 13 3 30 20 27 20 14 30 31 4 31 0 27 37 8 28 15 15 20 16 24 4 22 31 39 37 5 20 10 31 36 39 20 19 23 23
18 4826 4514 4827 3548 4843 3802 3635 2642 3313 2954 4703 3833 4842 4227 4262 2717 2794 4625 3831 3286 3828 2766 4179 3836 2965 4891 4014 2531 3996 3256 4095 3918 3486 3909 4350 4854 3648 2752 4236 4897 3268 3244 3308 4652 4108 3929 3969 4799 4430 3652 4611 2735 4326 4823 4130 4667 3182 2660 3407 4922 4660 6 15 39 8 27 17 27 34 27 5 5 8 27 6 7 15 24 27 14 20 6 35 2 27 31 29 1 34 12 19 11 35 11 28 9 14 23 1 19 0 20 3 2 23 13 12 23 12 18 9 10 26 13 38 27 17 9 26 24 9 17 8 14
2778 2855 3403 3747 3693 2630 4448 3340 2919 4567 4369 4154 4270 3319 3441 2852 3662 4187 3512 3176 3893 3666 4498 3932 4195 3774 3198 3599 2927 3472 4727 3649 3808 3751 3043 4546 2508 3930 3266 2597 3142 3302 2983 3114 2619 4573 4567 3364 3373 4733 4345 2964 14 2644 4036 2807 3753 3921 2526 4877 2510 3455 32 15 34 16 25 30 10 38 7 25 21 36 27 3 18 34 9 19 36 18 15 38 29 15 1 4 16 16 33 10 32 22 27 6 37 28 38 2 4 10 0 22 8 31 6 1 33 11 15 13 6 33 21 11 21 1 35 37 2 13 37 4 25
3931 2940 4738 4253 3415 3382 3335 3888 4880 3292 4984 4052 2645 3137 2511 4727 4756 2672 18 4396 3838 3929 4783 2967 3615 3877 4226 4790 3071 4198 4501 3017 3471 4248 4401 4408 4533 4901 3051 3436 3748 2724 4788 4199 4413 4057 4505 4811 2830 4046 3358 4518 4752 3729 4484 3483 4783 2806 4572 4720 2729 2664 31 2 22 21 39 34 14 28 17 15 17 25 27 9 36 19 12 8 3 5 19 37 38 13 29 38 18 3 19 32 20 11 15 22 4 5 26 39 19 37 28 0 33 12 32 32 15 37 34 15 24 19 31 1 39 18 34 8 28 27 23 6 28
4918 3173 4554 4580 2854 3753 4197 2897 4116 4846 3014 4829 3327 4751 2994 2833 2611 4714 3191 3665 4382 4353 3409 3443 4871 4605 3396 3872 2527 3234 4873 4543 2559 3057 2957 4998 2524 2694 3765 3948 2659 2645 3872 2985 4010 3267 3580 4529 3225 3923 3402 3131 4551 3732 2607 3369 4852 2953 3721 4117 2805 9 2 36 31 7 21 6 34 30 9 14 4 35 32 36 15 3 34 21 14 1 25 12 1 15 16 6 14 27 39 22 26 39 17 5 29 33 27 29 33 30 13 36 0 23 23 14 38 16 20 22 36 12 13 1 8 38 38 18 38 18 19 2 35
3235 4456 2614 4226 2692 4657 3509 2623 4301 3389 2977 3447 4237 2931 4573 3078 4139 4803 2848 2758 4542 4954 4196 3300 4437 3564 4792 2775 2780 4515 4581 3949 4787 3407 3848 4924 4014 3366 3786 3158 4122 3043 4823 4765 12 4638 4381 2822 4775 3992 2863 4870 14 4243 2949 4088 15 3597 4497 2778 4138 3206 11 25 21 35 18 23 22 11 10 14 23 36 13 6 23 12 2 27 9 28 17 22 26 24 14 9 26 10 14 30 36 4 37 9 8 8 39 19 28 20 27 23 14 0 17 16 29 26 1 2 14 28 1 1 10 23 9 38 29 10 31 31 2
3486 4867 4031 3305 2526 4904 2941 3933 3152 4897 3572 2988 3636 2602 4113 3098 3567 4311 3421 2756 3958 3437 4957 2563 4055 4205 2599 3761 3006 2954 3195 3407 3793 3791 4827 4479 4178 4812 4141 3789 4405 3520 2789 3893 4100 3288 4637 4533 4067 4285 4026 4706 3270 4849 2829 3234 4385 2924 3460 3010 4471 3345 29 3 19 14 33 4 2 12 17 3 39 5 21 11 17 8 2 9 14 22 21 32 16 5 23 35 12 31 10 10 7 5 27 25 20 17 36 24 14 39 31 35 27 7 0 34 13 25 28 21 29 19 26 16 9 10 15 26 34 37 24 32 24
4841 3149 4612 4540 3870 3326 3223 3398 4054 3738 4525 3755 8 4695 3355 2722 4870 4207 3171 4503 3906 3270 2790 4019 3960 4455 2723 4382 3156 4191 3616 4621 4131 3160 3291 3327 4011 4615 3642 4878 3937 4733 4172 2797 3461 4160 4577 4610 4172 3210 4579 3795 3666 4622 2965 3347 3772 3029 2807 4114 3949 3197 8 2 16 8 39 26 8 1 18 20 30 17 38 33 1 39 14 16 24 24 6 18 33 38 5 24 22 8 16 22 25 29 16 32 18 6 34 34 8 2 17 39 32 5 19 0 32 29 13 19 9 39 8 12 39 24 22 26 35 15 9 13 4
2562 3280 3649 4639 3246 3806 10 4652 4538 2945 3398 4108 4517 3838 3455 3470 3427 4659 4783 2790 4122 2615 3439 4192 2517 3901 4308 3458 3615 3713 4228 2637 3002 4372 3223 3615 4354 2736 3116 4214 4411 2686 2645 4163 4322 3832 3569 3527 4997 3876 4225 4495 2915 4299 4509 4337 3981 4425 3974 4009 3594 3080 33 2 38 33 25 10 37 13 1 37 39 15 6 38 25 29 34 17 3 30 39 38 24 36 12 25 39 12 5 2 1 35 28 2 11 18 7 24 4 6 37 13 12 22 22 33 0 31 30 35 6 4 29 4 31 27 38 37 9 27 5 26 4
4988 3127 4850 3229 4365 3331 3569 4395 4888 2959 4243 4513 4231 3202 4734 2619 4726 4788 2829 3936 2769 3877 3848 4197 17 2567 2963 4319 3193 4687 4349 4572 3603 3782 2986 3790 3974 4859 2709 4572 4617 4504 4669 4456 4644 4495 3034 3709 2826 4829 2873 3752 4751 3827 2629 3391 3642 4515 3263 2647 3648 3063 35 31 31 8 1 37 20 34 3 14 22 6 23 27 15 28 5 21 4 23 12 6 36 29 35 17 3 16 6 11 15 2 2 24 21 19 17 11 21 13 22 24 20 37 15 1 33 0 35 22 1 21 1 27 26 29 17 24 34 28 33 29 27
3337 2839 4046 2685 2714 3564 4504 4481 3191 3093 4375 3037 4075 4878 2774 4127 4232 3896 3969 3421 3183 4542 3200 4916 3582 3453 3597 3550 3505 3283 2823 4955 2833 4945 3852 4307 3091 2778 4150 3840 3590 3356 4165 4748 4016 3484 2993 4822 2705 2508 2876 2518 4562 4092 3720 4111 4954 3250 4767 3306 4582 3139 17 7 30 21 34 36 2 26 22 14 2 32 13 2 1 3 5 29 21 34 26 22 23 29 9 36 12 26 12 11 30 34 35 18 12 19 15 20 3 11 24 2 31 16 37 21 15 5 0 31 20 22 5 2 34 15 28 21 21 38 1 25 18
4067 3251 2588 4490 2547 4788 3484 3458 3607 4464 3219 3114 4737 3140 4343 15 3029 3867 3602 4612 2761 2523 3111 3372 3774 8 4498 3101 4720 3250 4675 2884 3137 3763 2718 2711 3516 3332 3093 4994 3747 4061 4080 4620 3235 3623 3378 2586 2642 3083 3696 2513 2610 4729 4895 4118 3173 3392 2520 4997 3064 4359 33 33 29 17 33 22 4 36 21 14 8 33 28 20 37 30 10 9 2 21 25 20 26 20 7 6 16 25 19 32 2 39 38 34 5 6 2 30 8 35 19 37 24 27 32 26 8 19 34 0 12 28 24 18 13 28 7 29 39 39 20 35 30
3637 3333 2943 3891 3309 4670 4685 4214 3069 3303 4333 2640 3957 3107 4689 4382 4472 3044 4659 3717 3693 4881 2701 4387 3439 2798 4251 3094 2521 3180 4404 3920 3609 3612 3449 3200 4406 3472 2943 3368 2893 4390 3136 3301 4508 3165 3603 3614 4052 3472 2746 4318 4101 4428 3841 4741 4634 2849 3124 3584 3890 4926 29 19 15 8 15 22 28 23 31 1 9 34 36 3 6 26 17 36 26 32 12 39 20 12 17 33 20 38 19 22 31 6 24 20 35 17 35 30 32 13 9 5 31 36 22 37 37 5 11 7 0 28 36 12 29 30 31 8 17 17 11 19 39
4754 3523 3004 4551 3871 2906 3446 4203 4205 4368 4789 3144 2588 4337 3061 4544 4214 3866 3523 3649 4773 4354 2662 2622 2892 4654 3903 4610 4198 3159 4620 3224 4163 4195 4357 3404 4815 2752 2934 3401 3593 4311 2552 3767 3275 3997 4217 2641 3921 2691 3803 3899 4417 3801 2687 4361 8 9 3494 2503 4127 4051 6 21 39 20 21 31 4 24 3 36 30 8 14 20 1 29 26 8 27 7 22 3 16 27 27 2 9 9 32 20 4 27 12 12 19 23 5 32 28 7 33 27 35 32 4 3 26 27 17 5 9 0 1 36 35 31 17 17 39 23 37 22 24
3245 4181 3029 4146 4571 4368 3948 3320 3700 2633 3724 4059 4553 3839 3183 3038 4578 4209 4634 2544 4681 3562 2820 2727 4563 2686 3146 3960 4083 6 4141 4300 3004 3107 3418 3451 2553 4898 3505 3550 2756 3882 2509 4959 3594 3713 4978 4975 3652 2844 3466 4343 3147 2834 3630 3966 4612 2879 4088 4813 4437 3230 27 27 34 29 27 24 30 6 7 15 18 15 37 22 29 23 19 12 25 17 11 32 1 14 2 4 8 20 15 6 37 10 35 11 4 16 4 31 11 25 27 39 10 34 31 8 10 20 9 26 5 13 0 28 15 3 20 2 6 3 22 10 14
3331 4803 4614 4038 2996 4705 2611 3180 4162 3941 3316 4607 3504 3113 3541 3039 3849 4425 4350 3797 4910 3203 4680 4769 3876 2617 3125 4644 4328 3518 4993 3895 2694 4403 4601 3382 3930 3049 4186 3395 3123 2703 3645 2527 4762 3651 4889 4862 3930 3220 3722 3863 3038 4279 3642 3559 4264 4183 4392 4300 3647 4770 28 1 31 8 6 10 33 22 33 10 15 37 10 39 19 38 10 13 13 16 8 11 32 8 25 13 6 31 23 19 16 12 37 8 37 35 23 24 33 8 11 12 5 33 34 25 16 19 22 30 30 21 38 0 31 15 12 9 34 1 8 21 4
2643 2635 4062 2679 3136 6 3830 4001 4958 3992 2774 2563 2937 2714 2726 3607 3157 3289 4627 3312 3032 3229 4173 4100 3994 3938 4661 3139 4520 4971 4316 4053 3502 3510 4609 4948 2958 3391 4949 2660 4963 4827 4599 3308 2668 4883 3250 2625 4552 3762 3690 2976 4229 4748 2737 2863 3083 3066 3350 3204 4606 4979 3 29 20 34 25 36 10 8 13 4 32 37 19 14 24 36 6 16 30 1 29 15 6 26 39 3 3 9 30 3 8 33 38 10 21 17 23 4 28 28 39 10 6 30 34 27 37 35 3 12 21 26 24 20 0 27 25 9 11 12 8 25 3
2872 4032 4036 4874 4792 3270 4670 4841 3784 4202 4652 4187 4089 4982 4508 4309 3528 3362 3240 3999 3919 4540 2790 4561 4201 2539 3665 16 4382 3878 3986 4201 4009 4619 3357 2646 2633 2941 4665 2824 3940 4034 4321 3770 3518 3354 4611 4629 3900 3608 2987 3403 3174 3644 3456 3379 2562 3732 4174 4247 3101 4410 10 34 38 29 39 30 28 2 14 6 37 13 28 18 32 29 17 1 30 7 1 3 9 37 13 32 36 12 12 1 23 18 28 5 37 35 11 19 1 8 9 11 16 22 7 2 25 23 17 22 2 10 38 26 36 0 28 6 21 20 17 29 4
4756 4145 4004 3583 3142 3766 3052 3251 3451 2687 2741 2980 2929 4637 3086 3376 4890 3517 4097 2866 3454 4420 4296 4657 3811 4004 3501 2770 4164 4659 3424 4764 3484 3586 4363 4892 4109 4164 4573 3193 3692 2763 3604 4395 2615 3968 4653 3758 2802 4233 3812 4279 4608 2551 2703 3910 2672 3988 4154 4662 3978 4411 38 3 12 14 13 14 17 8 37 18 19 37 28 37 28 28 33 8 22 7 1 8 2 7 22 32 38 12 37 14 36 33 23 24 6 26 9 39 26 20 13 6 21 37 5 27 5 20 24 6 2 14 18 34 21 1 0 26 7 35 33 11 9
4733 2889 4918 4101 4805 3640 3331 3025 3425 3335 2577 3699 4439 2514 2987 4762 4643 4018 3348 4318 3313 2645 3426 3685 4964 4869 3854 4937 3706 4190 3875 2559 3332 4594 3091 3405 3483 4625 2511 2576 4261 4296 3135 3326 3392 4710 2988 4844 3266 2748 4988 3019 2503 3323 3178 3770 2632 3574 3460 2501 3484 3634 20 9 6 18 5 38 5 9 31 26 19 16 32 1 26 16 37 9 22 5 2 15 5 37 13 35 13 10 17 38 13 32 38 2 23 39 18 18 16 21 19 24 35 2 11 28 8 22 32 29 18 16 11 15 32 28 18 0 33 26 22 31 12
4617 3476 4876 4800 3918 4445 4400 3764 4409 4050 3726 2994 3307 4214 2877 4934 2597 4269 4121 2771 4623 4724 4571 2656 3606 3199 4763 4587 3725 4892 3743 2961 3156 3153 4196 3632 4586 7 3109 4269 4220 3829 3045 3148 4079 3837 4372 3328 2943 4641 3548 3599 3012 4571 3847 3364 3497 2984 3286 12 2587 4110 7 33 27 3 26 26 38 34 33 8 36 10 34 39 11 7 37 29 18 15 39 39 14 13 23 25 21 33 28 38 31 38 37 9 11 29 39 12 36 12 21 5 21 5 17 29 1 13 37 29 15 23 10 9 1 10 31 35 0 14 12 38 35
3463 4014 3079 4725 3415 3131 2933 4185 3914 4142 4628 4706 2852 3698 3421 3805 4410 2988 3727 4746 4785 3254 4433 4841 4255 3699 2969 2684 4061 4190 15 2864 3932 9 3276 2774 3970 3277 3720 3418 3787 2500 2903 3885 4131 2926 3584 2875 3639 3774 3766 4131 4277 2558 3689 3415 4246 4358 5 3814 4155 4654 4 12 30 4 16 37 24 26 9 19 11 17 37 30 24 16 27 10 30 30 16 21 32 12 12 14 35 36 33 3 36 25 36 2 2 13 9 26 38 7 37 19 32 4 20 38 15 3 33 6 2 7 4 2 24 11 37 11 26 0 27 22 14
3217 4442 16 4436 4385 3907 3817 3015 4810 2542 3873 3881 3793 2578 3377 4777 4643 4551 3656 2860 3190 4242 4357 3572 3084 2741 3626 2937 3799 3895 2805 3100 4982 4094 2612 3576 3366 4448 3575 3004 4622 2735 4187 3541 4424 3691 3493 4409 3594 4838 4501 2621 3271 4824 4648 4219 3787 3020 3511 4432 4066 3886 39 34 32 16 2 6 16 21 33 8 39 2 17 17 17 12 7 19 1 28 16 31 36 6 12 6 2 5 3 8 31 24 8 2 25 22 16 26 26 15 7 25 6 7 22 16 32 18 10 2 7 22 13 32 1 34 2 16 31 4 0 36 3
3041 3724 3862 4054 3053 3951 4633 3455 4885 4718 2960 2636 2926 2634 3543 4657 4536 2615 3418 4761 3723 3985 4945 4606 2630 4840 4729 4972 3323 3082 3262 3570 4067 3790 4439 4058 4350 3334 4929 3751 4114 3074 4780 4992 3007 4276 4867 4934 4222 4228 4260 3408 3154 3581 3423 2951 2871 4984 3967 4016 3979 3269 39 25 33 30 5 3 28 21 19 21 38 1 28 6 26 6 14 7 26 21 5 13 30 32 7 24 1 1 22 10 10 1 35 34 32 37 30 18 35 22 36 25 32 10 6 32 37 19 1 12 3 7 25 1 7 4 14 14 27 36 1 0 31
2694 3066 2567 3588 3825 3560 4563 3397 3818 3613 3332 4491 4536 3498 3411 2794 3033 4938 3556 3860 4116 3081 3403 4841 3316 2749 3377 4514 4093 4424 3239 4050 3964 2763 2915 4538 4072 3719 3392 3793 2980 4282 3066 2671 4060 2953 3905 3564 4993 3281 3656 3328 4805 4103 3824 2711 4742 2830 4463 3582 3531 2830 17 13 20 7 7 5 20 16 15 34 34 18 24 24 8 4 15 6 18 8 25 33 32 11 15 13 38 20 10 9 10 33 1 1 15 17 9 37 19 1 1 13 38 27 36 28 27 11 13 16 20 36 13 17 11 30 11 14 6 20 30 38 0
EOF
