NAME: christofides_hard_n150_s0
TYPE: TSP
COMMENT: christofides_hard generated explicit tsp
DIMENSION: 150
EDGE_WEIGHT_TYPE: EXPLICIT
EDGE_WEIGHT_FORMAT: FULL_MATRIX
EDGE_WEIGHT_SECTION
0 7 29 39 39 20 35 30 29 19 15 8 15 22 28 23 31 1 9 34 36 3 6 26 17 36 26 32 12 39 20 12 17 33 20 38 19 22 31 6 24 20 35 17 35 30 32 13 9 5 31 36 22 37 37 5 11 7 28 36 12 29 30 31 8 17 17 11 19 39 6 21 39 20 21 4297 10 2752 4229 2990 4148 4249 4300 2756 4379 3798 4744 2765 3197 4173 3339 4552 3398 2689 3536 4589 2708 3847 3535 2893 3474 2784 3491 2772 4748 4499 4210 3189 4101 3527 2810 4447 3592 3639 4840 8 3118 16 4036 3341 4486 2688 2882 2654 4417 3479 3703 4928 4473 3846 4535 4190 4618 3398 3931 4799 4166 4670 4929 2809 4963 3128 2506 4295 4988 4891 4385 3313 3500 3483
31 0 4 24 3 36 30 8 14 20 1 29 26 8 27 7 22 3 16 27 27 2 9 9 32 20 4 27 12 12 19 23 5 32 28 7 33 27 35 32 4 3 26 27 17 5 9 1 36 35 31 17 17 39 23 37 22 24 27 27 34 29 27 24 30 6 7 15 18 15 37 22 29 23 19 3826 4479 3046 4155 3299 3149 3631 2811 4076 4593 4454 3928 2917 4701 4296 3160 3094 4951 4688 3887 4528 2529 3159 3609 3443 4349 2936 3022 3964 3584 4554 2655 3342 3887 4771 4302 3820 4368 4538 4516 2682 3014 3392 3243 3404 3332 4909 3135 4745 3640 4682 2987 4153 4258 4370 4302 2894 3326 3918 4218 3253 3742 4666 3821 2799 2887 2679 3325 4047 3415 4934 3288 4028 3577 2750
12 25 0 17 11 32 1 14 2 4 8 20 15 6 37 10 35 11 4 16 4 31 11 25 27 39 10 34 31 8 10 20 9 26 5 13 28 15 3 20 2 6 3 22 10 14 28 1 31 8 6 10 33 22 33 10 15 37 10 39 19 38 10 13 13 16 8 11 32 8 25 13 6 31 23 4302 3997 3196 5 3480 3797 3181 4016 3109 3220 2758 2528 3285 2780 4652 3631 3769 2570 3238 2792 3905 4554 4118 3477 2669 2666 4416 3247 4702 3818 2870 3682 2992 2530 2853 3028 4708 3642 4281 2790 3293 3785 3406 3373 2920 4007 4867 4451 3320 3488 3261 4793 4130 3103 3321 3604 2653 4632 2918 3058 4411 2529 3470 3227 3498 8 4104 3864 2632 3355 4962 3145 2975 3682 3790
19 16 12 0 37 8 37 35 23 24 33 8 11 12 5 33 34 25 16 19 22 30 30 21 38 31 15 12 9 34 1 8 21 4 3 29 20 34 25 36 10 8 13 4 32 37 19 14 24 36 6 16 30 1 29 15 6 26 39 3 3 9 30 3 8 33 38 10 21 17 23 4 28 28 39 3208 3635 4348 3784 4737 4994 8 3934 2683 4456 3535 2826 3040 3487 4053 3762 2930 2947 4059 2983 3260 2890 3607 3727 4613 3551 4060 2580 3549 4498 2734 3472 3984 4271 4135 2858 2620 4338 3594 3756 2898 3411 4141 4890 2989 3332 2809 2902 4186 3995 3626 3936 3595 4306 3914 3718 3839 4843 4050 2772 2967 3324 2731 3376 3785 3407 4600 3705 2917 2610 3072 4467 3060 3715 3766
10 6 30 34 0 27 37 35 3 12 21 26 24 20 27 25 9 11 12 8 25 3 10 34 38 29 39 30 28 2 14 6 37 13 28 18 32 29 17 1 30 7 1 3 9 37 13 32 36 12 12 1 23 18 28 5 37 35 11 19 1 8 9 11 16 22 7 2 25 23 17 22 2 10 38 3626 2906 2692 2717 4330 3096 4014 2819 4980 4483 4260 2744 4332 4316 4652 4190 3089 2591 2555 3473 4113 3976 3399 4007 4378 2904 3893 4750 4434 4811 2745 4460 2589 3834 3947 3919 4001 4793 2536 3750 2509 4076 2704 4061 2766 4579 4003 2721 3776 4094 3040 2552 4074 2516 3328 4270 3317 4397 3722 3897 4419 3703 2687 2561 4423 4016 2999 2931 4643 3673 16 3506 4392 3026 2643
26 36 28 6 21 0 20 17 29 4 38 3 12 14 13 14 17 8 37 18 19 37 28 37 28 28 33 8 22 7 1 8 2 7 22 32 38 12 37 14 36 33 23 24 6 26 9 39 26 20 13 6 21 37 5 27 5 20 24 6 2 14 18 34 21 1 26 7 35 33 11 9 20 9 6 2861 3110 3580 4599 2569 4010 4647 3037 4636 4498 4758 4139 4805 3864 4065 4007 3031 3914 2531 2801 3757 3317 2709 2939 3402 4866 2569 3730 3564 3869 3873 3379 4838 4775 4775 3320 3841 2505 3283 2625 4676 4579 4152 3877 4575 4070 4749 3326 3872 3013 2594 3542 3996 3689 2862 2690 3865 4178 3039 3519 4561 15 4822 2533 3093 4879 3380 3391 2566 4150 2728 4299 4944 3756 3938
18 5 38 5 9 31 0 26 19 16 32 1 26 16 37 9 22 5 2 15 5 37 13 35 13 10 17 38 13 32 38 2 23 39 18 18 16 21 19 24 35 2 11 28 8 22 32 29 18 16 11 15 32 28 18 33 26 22 31 12 7 33 27 3 26 26 38 34 33 8 36 10 34 39 11 4537 3513 4367 3647 2608 3122 2733 3453 3162 2791 4510 3335 4467 4244 2986 4747 2821 3364 3171 4460 3095 3260 2794 3073 3310 2997 3365 2968 3178 3779 4240 2716 4281 3316 3077 4792 4053 4746 3228 4460 4389 3549 4180 4219 4505 4257 4570 2801 4582 3764 17 3768 4113 3999 4505 4332 4985 4405 3967 2827 4601 4784 2551 4426 3012 3480 4446 2697 3391 2654 2562 4139 3023 4082 3783
7 37 29 18 15 39 39 0 14 13 23 25 21 33 28 38 31 38 37 9 11 29 39 12 36 12 21 5 21 5 17 29 1 13 37 29 15 23 10 9 1 10 31 35 14 12 38 35 4 12 30 4 16 37 24 26 9 19 11 17 37 30 24 16 27 10 30 30 16 21 32 12 12 14 35 2767 3791 3132 3113 3494 4300 3417 4477 2750 2733 4771 3705 3866 2978 4390 3539 2653 2996 3476 3425 3256 4972 4068 3682 3232 3713 4494 2681 3675 3203 2677 3262 3682 2892 17 3913 4376 4929 3049 4744 3431 2509 2506 3558 4090 3686 2555 4662 2904 2836 2780 3926 4446 2862 4161 3998 2942 4937 3002 4595 4995 3210 4050 3662 5 4405 2721 4534 3471 2961 4938 4525 4354 2931 3480
36 33 3 36 25 36 2 2 0 13 9 26 38 7 37 19 32 4 20 38 15 3 33 6 2 7 4 2 24 11 37 11 26 27 22 14 39 34 32 16 2 6 16 21 33 8 39 2 17 17 17 12 7 19 1 28 16 31 36 6 12 6 2 5 3 8 31 24 8 2 25 22 16 26 26 4904 2716 4923 2683 2642 4846 3630 3289 2711 2869 4129 4453 6 3568 3823 3616 3799 3774 4643 3810 4808 4694 2527 4832 3945 2659 3399 4105 3979 4731 3129 4893 4282 3666 4804 2667 4791 4633 3719 4791 3014 2580 4172 4464 3832 2878 4998 3828 4711 3574 3273 3900 4025 4466 3711 3879 2728 4587 3371 3320 4333 2557 4903 3857 3306 4950 4114 3275 8 4475 4952 2662 4299 2729 3569
15 7 25 6 7 22 16 32 18 0 10 2 7 22 13 32 1 34 2 16 31 4 36 3 39 25 33 30 5 3 28 21 19 21 38 1 28 6 26 6 14 7 26 21 5 13 30 32 7 24 1 1 22 10 10 1 35 34 32 37 30 18 35 22 36 25 32 10 6 32 37 19 1 12 3 3493 3817 2622 3735 4252 4310 2974 3055 3000 4359 4710 4173 2749 3024 4534 4262 3264 3050 4933 2649 2890 2769 3031 3489 3185 3736 4334 3320 2923 4027 3140 3154 2505 2948 3616 3990 2649 4627 4445 3051 2974 4585 3914 3243 3705 3216 3373 4475 3604 3934 3285 2666 3124 3155 4964 3609 4617 3419 4428 3923 4089 4862 4095 4829 4712 4377 4384 3058 4644 4196 3718 4259 4379 3723 2680
7 25 1 7 4 14 14 27 36 1 0 31 17 13 20 7 7 5 20 16 15 34 34 18 24 24 8 4 15 6 18 8 25 33 32 11 15 13 38 20 10 9 10 33 1 1 15 17 9 37 19 1 1 13 38 27 36 28 27 11 13 16 20 36 13 17 11 30 11 14 6 20 30 38 39 4737 3740 4697 3492 3459 4909 3394 3610 2779 3349 3541 3463 2967 2589 2600 2714 2928 2924 4299 4582 4855 3985 3456 4564 3500 2599 4804 2894 4207 2804 3322 3718 3533 4317 2774 2661 2575 3094 3399 4729 2988 2942 4475 3897 2597 2876 3627 3458 3085 4415 3667 2644 4100 4261 4049 3956 2723 4969 4430 4703 4978 3604 4035 2932 2525 3290 4311 4250 2983 3634 2594 4139 2970 3346 3359
30 16 16 32 24 36 27 38 12 27 37 0 26 20 18 10 7 18 30 7 2 5 21 14 5 11 13 19 7 20 22 15 24 19 38 30 4 18 15 21 5 23 38 12 16 37 1 39 14 25 18 36 12 13 3 6 36 35 34 16 12 9 4 33 19 6 16 32 17 28 20 23 19 38 21 2581 3503 4510 4661 3035 3284 4384 3143 2896 4709 2996 4080 4279 3679 4084 3793 3943 3311 3994 3213 3858 4953 3310 4990 4501 4625 2739 4314 3188 2993 3363 4091 3496 4440 4037 3097 4118 2680 3612 4233 4522 3466 3625 3917 4862 3140 2909 3477 4087 3988 3343 4883 2738 3821 4156 4010 4751 4072 3774 4714 3357 3123 3913 2622 3330 3365 2923 3331 3368 4785 4045 4526 4890 3583 3255
25 39 26 21 12 11 31 26 1 13 13 2 0 3 4 20 39 33 37 6 3 35 27 35 10 37 11 30 37 6 7 11 31 37 11 13 10 6 12 14 16 27 36 3 24 26 7 16 24 31 20 9 34 32 39 36 33 39 1 13 35 19 23 2 25 20 33 27 8 39 23 21 21 24 33 4900 3285 3211 4342 4333 3648 3564 4373 3570 2528 3723 3193 3410 4871 4054 2646 3643 4407 4379 4543 3114 4461 2842 3959 3208 3687 3922 4870 4672 2631 4432 4610 3778 4279 4665 3713 3287 4452 4957 3081 3472 2829 4178 3124 3068 4466 4962 3064 2620 3291 4524 3142 4258 4231 2982 4473 3499 3408 3586 3025 3510 3464 2806 4351 4579 4443 3703 3032 4946 4251 2915 3774 4787 4775 4727
5 16 39 33 12 7 36 29 29 2 2 7 33 0 33 34 31 32 15 35 33 2 24 33 18 37 25 2 7 8 9 33 25 24 24 38 38 10 15 22 2 8 9 35 10 5 14 18 1 26 12 31 33 23 7 4 33 9 37 10 10 23 34 31 29 11 23 1 33 11 16 28 35 17 10 2644 4623 4164 4875 4505 3476 3788 4153 2591 2947 2983 4361 3829 4600 4032 4061 4785 3296 4932 4038 4528 3622 3678 4197 4003 4196 4799 3044 3891 3646 3162 4325 3823 4372 3303 2991 4171 4983 3981 2729 4125 4285 4868 2743 3165 3660 4563 4801 2742 2562 3570 3163 3467 3461 4157 3148 3453 3268 18 3938 2647 2764 3863 3714 4603 3104 4526 4644 4431 4069 3475 2558 2581 2913 2939
24 7 1 1 38 37 20 28 33 27 13 32 34 12 0 3 32 22 33 26 25 3 38 17 25 36 35 31 25 17 38 19 25 32 39 5 19 5 6 21 33 13 29 28 15 35 23 38 25 34 23 17 13 9 2 19 35 27 15 27 20 1 21 4 3 32 5 2 24 17 19 15 6 4 1 4860 4941 2938 3389 4788 4146 2569 2842 3039 4818 2771 2875 4274 3074 3863 4987 4014 4182 4505 2846 3266 4846 3037 4375 3654 3784 3713 2834 4120 4677 4680 3753 3485 4321 3770 3531 3084 3429 2600 3443 3754 3835 4919 4212 3631 3588 4789 4482 3934 2709 2753 3802 4158 3299 3057 2958 3040 16 3629 4433 4391 4775 4501 2640 3004 3902 3854 3648 3267 3871 2689 4067 3475 2518 4041
22 12 30 4 1 13 22 33 8 10 36 11 36 23 15 0 30 9 21 4 31 29 30 39 29 33 12 10 21 32 14 21 28 12 3 16 12 22 2 17 31 16 29 33 37 38 4 15 14 13 20 26 3 4 30 16 35 21 37 3 14 20 34 38 13 21 13 17 36 34 7 30 35 35 13 3508 3257 3774 10 4138 4598 2711 3005 3090 3649 2905 3525 4852 4141 2721 3726 3705 2992 3224 4725 3810 3591 3198 3119 4442 3301 3517 3816 3197 3252 3798 3975 3122 3041 2621 3615 4007 4033 4446 3773 2678 2712 3017 3809 4523 3236 4430 3316 2531 4797 4398 3123 4352 4801 4470 3071 2731 3657 2697 3664 3577 3316 3564 2567 3996 2991 2756 3084 2855 3234 3521 4752 4972 4735 4902
20 18 31 10 22 23 17 35 15 3 4 38 33 1 8 15 0 23 11 33 11 15 36 22 18 8 6 10 35 19 19 14 17 4 1 34 16 19 26 17 19 27 30 25 1 23 25 21 31 14 27 16 7 12 33 17 32 16 35 15 23 2 21 34 9 13 30 7 21 34 33 28 5 6 16 3424 4379 3810 2872 4952 17 4388 4524 4433 2915 3469 2795 4945 2537 3761 4400 4786 10 4327 3324 4213 2578 3713 3256 2583 3287 3805 4278 2980 3691 4079 3248 4363 4925 4396 2716 2851 3075 3088 4965 3410 2906 4729 4044 4333 4331 3370 3589 3966 2532 4442 4994 3932 3519 4010 3631 3580 2584 4895 2958 2922 3872 3076 4622 2854 4608 2959 4553 2827 3168 3994 4113 3119 3900 4900
29 7 16 8 33 31 23 27 26 13 24 36 15 5 31 12 4 0 24 20 38 15 26 4 19 19 7 31 35 30 2 23 6 32 36 32 18 14 22 7 2 23 15 34 30 31 15 27 27 13 11 24 37 12 9 20 27 9 15 15 2 33 17 10 13 20 39 25 11 26 20 6 18 20 20 3318 4973 4358 4536 3649 3507 3205 2881 2619 4639 2851 3667 4322 4385 3568 4736 2505 3408 3927 4193 4299 3280 3791 3679 3709 2720 3073 3091 4040 2579 4828 4070 4117 3069 4203 3569 2755 4933 4794 4861 3181 4002 4955 4758 4721 2625 4277 3189 2798 3864 4521 3669 4364 4231 2686 3505 4143 3648 2893 3092 3663 3100 3950 4329 3780 3110 4946 4814 4371 2819 3577 4784 4390 3584 3236
23 6 1 25 15 36 7 27 38 29 5 13 7 1 24 28 1 2 0 37 39 10 7 39 18 3 7 38 26 29 11 25 32 38 11 18 9 27 19 26 39 21 15 15 30 23 37 38 21 17 23 32 8 5 11 11 14 33 20 17 27 10 30 12 29 27 1 13 20 8 8 27 6 1 35 2619 2552 2814 3657 2990 4689 3184 3030 4526 4924 4563 4958 3198 4325 3002 2509 4696 3158 4295 3671 4224 4347 2906 2906 3407 4010 4185 2810 4218 2798 4729 3642 3038 4571 3438 2560 3517 2515 4457 3067 2637 3436 4590 2951 4628 3985 2741 13 4272 3142 4535 4578 2687 3942 4951 3564 3040 4025 4719 4390 3998 3020 4300 4729 4699 2871 4692 4224 4031 4054 4681 2893 2789 4297 2587
5 7 37 17 25 21 5 34 38 25 12 28 26 13 33 13 37 14 38 0 20 7 8 10 31 13 30 3 23 24 27 3 14 25 26 1 35 18 8 6 26 3 34 3 38 13 32 14 36 8 18 11 9 33 12 4 8 16 5 17 22 11 28 17 13 32 32 2 18 34 25 18 26 12 33 2711 4569 3690 3122 3965 3818 2675 3949 4014 4664 4256 4619 4443 4643 3798 3135 4947 3848 3246 3128 4205 4547 3640 2810 2869 4776 3004 3484 3673 3196 4905 3865 3262 2555 2793 4356 4428 4251 3012 3837 2601 4809 3349 3452 4160 4833 3886 2893 2862 2842 4081 4081 3929 2502 4148 2908 3573 3410 3811 2784 3536 2923 3587 4673 3297 2866 4879 4284 2560 4589 4940 18 4517 2590 4452
24 25 8 30 39 9 8 17 32 15 28 30 12 29 36 20 13 5 34 4 0 2 20 34 22 8 13 20 27 20 21 24 32 14 1 9 38 12 37 29 7 10 4 10 22 19 21 4 37 7 31 26 18 4 14 29 22 24 31 34 8 19 14 11 16 16 35 26 25 37 15 8 20 26 32 3791 3176 3253 3338 3161 3017 3517 3732 4765 3755 4628 3292 2864 3913 2539 2775 4743 2834 3131 4913 4107 3050 4591 4568 2896 4834 4934 2983 4736 4982 4071 2732 4368 2648 3401 4982 4456 3151 3739 4389 3124 4510 2937 3219 4897 2774 3792 3344 4083 3270 3341 2843 4206 4374 4471 4023 4147 2649 4661 3006 4342 3540 2764 4347 3792 4385 3942 2659 4739 3649 2562 4793 2638 3485 3453
9 10 3 11 25 33 1 27 8 19 8 35 22 3 32 6 11 15 16 4 18 0 27 38 32 23 17 13 25 24 13 8 23 27 13 31 20 4 9 31 18 9 17 2 2 30 7 34 27 13 21 20 12 18 13 21 28 3 13 28 18 6 32 28 25 35 23 2 33 16 7 25 7 31 13 3705 4450 3066 3365 2880 3815 4194 2568 3842 4875 3995 4462 3961 4828 4155 4994 4093 3446 2533 4019 2530 3203 4458 3083 4689 4538 4579 4296 3541 3396 2794 4152 3873 3908 4013 4466 2782 4439 3620 3363 4988 3479 3200 4986 2659 3107 4645 3719 2946 4588 4562 2756 2859 4461 3672 4783 2548 4889 4915 2931 2658 2815 4723 2983 4685 2733 2526 4109 3547 3072 3820 3085 4636 3045 3915
6 21 7 32 24 13 23 18 16 9 12 4 30 11 18 1 13 22 32 34 13 4 0 8 32 3 20 15 39 18 35 29 33 38 34 17 28 37 39 37 2 8 18 16 37 13 10 36 7 2 35 21 11 38 10 10 29 21 10 4 39 34 1 27 19 2 3 16 32 3 11 30 39 19 19 3875 4189 4510 2832 3953 2955 3759 4537 3867 2596 3066 4925 4179 4747 3674 3455 2619 2774 4301 2672 2730 4191 3611 4266 3567 2986 2938 3867 4300 3168 2849 4632 3691 2538 4238 4905 4634 3068 2897 4891 11 3362 4930 2544 3782 2660 4765 4620 4878 2503 2947 3496 3381 4408 2698 2873 2635 4180 4423 3174 3993 4864 3469 4725 3655 3638 4128 4900 4266 4604 3847 3123 4550 3619 2557
11 26 4 39 8 29 10 36 37 26 27 25 21 23 33 12 1 11 23 37 30 6 20 0 23 31 25 20 22 6 7 8 7 27 15 1 8 33 26 14 15 35 5 29 35 9 11 17 4 32 10 8 6 15 14 17 15 20 10 13 38 25 2 37 15 5 35 31 7 7 10 30 26 1 30 4799 2793 3507 3851 4531 4135 3508 3437 3930 3956 4565 2716 4875 4532 2616 2655 4178 4981 3855 2722 4979 3091 4288 3091 2533 3586 3026 2639 4123 3971 3507 4366 3224 4652 4732 3937 2858 3926 3907 2577 4566 3305 3224 3716 3888 2884 4623 2931 2982 4375 3785 4926 3969 3454 3387 3823 3330 3551 3992 3124 2775 2625 4353 4142 3716 3311 3584 2712 3463 2586 4922 4260 3378 3855 4755
30 26 25 33 32 33 16 19 9 27 7 21 31 2 38 25 15 36 17 15 9 28 6 35 0 6 10 10 4 16 2 26 15 30 32 9 9 18 29 14 36 38 21 36 34 5 39 9 23 14 25 31 4 19 32 10 33 5 22 36 9 37 12 10 18 38 26 14 19 21 36 19 27 27 20 3574 4856 2873 2729 2712 4000 4807 4295 4412 3685 2977 3778 3344 4516 2964 3210 4127 4424 3925 4136 4170 3620 3272 2920 3975 2570 3334 2765 2966 3859 4003 4404 4822 4589 4750 3621 3705 2639 4953 3632 3057 2803 3432 3148 2951 2588 3553 3131 4662 3926 3203 2661 2916 3335 3152 4006 3844 2594 3081 3629 3255 4366 4455 4761 3756 4561 3893 3840 4867 3934 2529 4501 4064 4405 3235
6 17 18 33 10 33 29 17 21 39 4 19 36 2 26 17 37 15 35 28 9 31 27 33 22 0 11 17 38 34 2 30 34 32 9 7 5 38 26 24 5 1 38 5 37 34 10 2 30 13 6 10 20 23 1 12 26 7 27 30 39 34 24 34 34 29 28 31 38 36 5 10 18 22 5 4974 3680 3548 3566 3631 4109 2769 3971 4217 4139 3191 4306 4221 4323 2820 3949 3478 3624 4814 2815 3219 2594 2871 4074 4821 3652 3443 4547 4670 4125 4295 2760 2804 3104 3656 4028 4902 4312 4079 4540 3707 3834 4307 2761 3101 4005 3379 2796 2623 3442 3529 2754 2715 4735 2801 2811 3022 2559 4697 2716 4725 4072 3570 7 4905 2597 4230 4079 3412 2938 3756 4648 3096 3852 3716
27 3 35 36 29 27 34 36 22 22 9 22 27 31 13 14 16 24 28 8 33 2 39 14 23 1 0 13 14 24 19 38 39 20 33 33 18 4 33 17 33 3 36 28 18 15 17 34 4 5 32 3 36 4 8 14 34 27 16 33 24 19 33 34 16 17 11 6 15 11 36 6 23 18 34 4938 4534 4465 4455 4225 4097 3308 8 3356 2611 4865 4568 2627 4284 4844 3678 4404 3064 2767 4149 2632 4408 4739 3479 2942 3304 2698 4919 3264 3492 3801 3888 3950 3258 2766 3949 4005 3273 4502 3535 4698 3042 4362 3787 4033 3984 3935 3421 4133 3558 4141 4050 3975 2618 2512 3606 2573 4321 4310 3647 2766 4242 2828 4479 3344 2541 3748 2709 4962 4325 4341 3183 3079 4284 3960
16 34 29 34 12 25 14 26 20 19 15 17 14 19 12 39 22 26 37 31 38 24 6 15 19 20 21 0 2 32 37 11 33 17 35 29 16 25 12 3 9 13 8 27 27 7 17 7 19 10 9 20 21 11 30 19 5 5 32 5 23 15 33 19 18 1 21 13 24 6 29 5 36 6 36 3860 2537 4477 3329 4358 3467 4761 2710 2534 4334 3992 4043 3161 4468 4167 3160 3195 4269 4051 4822 3844 4002 4142 3842 3570 4814 3629 2855 4287 3438 2950 3313 4247 4607 3139 2597 3757 2551 3696 3343 4578 3660 4713 4038 3321 3253 4971 8 4333 3533 2724 3084 2892 3216 3862 4253 4588 4320 4008 4406 3659 2864 3576 2606 4076 2714 3996 4490 3842 2565 3649 3550 3737 2764 4510
22 31 35 4 24 1 39 28 11 6 9 31 36 36 36 22 22 37 17 21 9 4 11 33 2 31 39 16 0 12 30 22 8 25 8 8 23 17 16 10 27 13 22 21 30 32 23 22 26 5 11 5 19 36 35 38 9 23 15 13 34 36 11 20 26 29 10 26 21 17 2 9 23 16 16 3431 3738 2983 4748 2691 3405 3705 3741 3479 4535 4251 3142 3492 3114 2717 3914 4793 3779 4481 2955 4473 3805 4570 4680 3765 3937 3355 3904 2798 2717 4438 3372 4232 3713 2863 3828 4497 3062 2663 4537 3100 3293 4029 17 2756 4871 3577 4869 3500 3131 4720 3959 2863 3375 4977 3965 4837 2775 2616 4212 2808 4840 3365 4276 4323 3321 3510 2788 3504 2707 3594 4907 4565 2937 3228
38 25 37 31 17 4 32 6 15 30 24 26 32 38 37 24 17 3 20 30 25 30 39 35 12 34 29 4 33 0 21 19 23 29 39 15 13 2 22 32 1 38 29 17 11 12 32 30 3 35 12 28 24 10 17 8 34 20 4 8 21 38 1 27 6 26 2 36 27 29 31 21 20 8 8 3715 2716 4756 2695 4416 4989 4865 2881 2909 4979 3327 3294 2863 2644 4954 3577 3610 2728 3002 2677 4445 4778 2780 4857 4923 2580 4001 2982 3389 2946 2886 3096 4775 4830 4902 2599 3436 2893 4085 4336 4120 4034 2676 4876 4924 3737 3206 2936 3277 3298 4477 4873 3738 3416 4336 4715 4731 4493 3716 3583 4040 3036 4144 4556 4145 4645 3507 3331 2997 2851 4508 4128 4022 3614 2723
36 38 12 32 10 4 13 21 1 25 9 33 24 33 34 38 24 5 5 32 36 15 27 39 5 15 22 11 10 4 0 3 6 35 27 5 29 15 33 31 29 39 15 1 29 18 7 22 28 19 29 7 18 14 20 18 31 38 30 20 13 2 2 31 14 28 17 21 18 32 3 32 39 38 28 2832 3985 2865 3918 2524 4439 4369 3377 4912 4876 2553 4124 4188 3186 3577 3357 15 3326 3856 3508 3327 3017 4118 3231 3148 3402 4679 4004 3394 2525 4521 3173 3539 3518 4518 2778 3514 3248 4248 3381 4567 4484 4091 4008 4403 4038 3843 4724 4686 4650 3770 4901 4705 3257 4088 3936 4369 3344 4211 4611 4922 2524 3069 4583 4661 3709 3799 3620 4917 3762 2770 3477 3832 4313 3479
21 27 12 29 6 7 23 27 23 8 15 13 1 24 27 27 38 14 30 2 4 36 25 33 34 19 3 37 17 33 37 0 5 11 1 15 20 26 7 36 18 7 16 30 20 9 27 24 24 2 25 32 9 12 35 38 5 32 3 33 36 10 3 38 32 1 11 5 35 24 7 21 27 18 37 4764 2557 4425 4138 3505 3213 4898 3526 2979 3979 4807 3300 4372 4235 4193 2931 4383 4549 3820 2622 3099 2790 3543 4412 4086 3921 4303 3414 4841 3292 15 6 3871 2884 2674 4954 2932 4203 4809 4928 3736 4841 2822 3456 3311 4077 2679 3235 4253 4284 3629 3623 3386 3610 4446 4780 4829 3923 3925 4338 2866 2767 3464 4393 4929 2965 4410 4840 4842 2533 2703 3432 4029 3284 3252
31 25 23 1 4 17 20 15 7 33 22 24 27 21 39 18 28 10 3 13 34 27 7 19 29 20 33 34 12 25 17 32 0 36 33 36 27 34 14 35 38 8 36 14 27 8 38 20 38 15 2 18 36 31 16 34 37 16 8 21 8 20 22 33 17 27 31 22 2 15 16 5 34 3 2 3790 3574 3955 4516 3392 4412 3933 2595 4744 4408 4361 2983 4875 4433 4303 3950 4181 4485 3063 3611 2957 3724 2905 2742 2519 3492 4546 3897 3854 2943 3496 3064 3368 2501 3140 3677 3938 2612 3911 3333 4878 3785 3044 2999 4471 3942 3976 4827 3075 4639 2538 4654 2576 3037 2823 2995 3408 2923 3200 2698 2759 4930 2987 2912 4162 4184 3372 4552 2925 3581 4391 3467 2503 2753 2675
23 1 24 37 11 19 4 37 4 20 30 22 17 31 25 16 19 18 1 10 26 31 30 27 9 12 39 9 35 34 12 23 24 0 11 13 14 19 4 21 27 15 26 6 16 29 21 12 34 38 11 27 14 36 2 4 29 8 18 32 28 22 11 10 34 19 16 22 36 8 18 35 14 29 23 3959 3230 4988 2502 2879 4415 2840 4001 4867 3450 3945 3134 3015 2828 4493 4698 4063 4443 4200 3313 4593 3813 2872 3341 4039 4238 2876 2765 3367 4227 3168 4052 3174 18 3938 3843 3531 3841 3205 3265 4039 3908 4624 3950 4642 3749 3196 3382 3771 3356 2627 4789 4374 3084 4356 3807 4126 3252 3445 3659 3555 2611 4293 4438 2686 4250 2686 4104 4475 4598 4340 2503 3930 2918 4059
26 25 30 6 11 30 26 8 36 33 9 3 6 4 11 7 10 32 39 35 36 7 37 15 18 27 3 18 31 34 5 11 18 25 0 28 30 18 24 18 36 22 5 20 30 15 29 17 10 10 33 23 34 10 37 5 39 33 3 7 39 32 10 5 26 34 23 4 1 13 28 38 17 33 6 3228 3097 4566 4850 4854 4359 2941 3282 3611 4685 3959 2876 2947 2521 3646 3632 3262 3558 2716 3541 2649 4559 3612 2817 4029 4036 3603 3384 2581 3763 3314 3154 4218 4361 2571 4818 3134 3183 3482 3232 4951 2684 4318 4674 4695 4183 4485 4291 2935 2696 3343 3423 3266 2568 3445 2798 4949 4659 4803 3764 4744 2803 4561 2992 13 3418 3574 4022 4451 3784 4221 4189 4752 4609 4115
20 1 33 33 22 15 39 4 18 38 11 35 25 23 8 33 2 5 32 26 30 35 35 35 28 32 1 7 9 1 5 8 11 18 11 0 16 35 1 27 25 29 32 30 26 19 20 25 21 13 25 26 14 24 20 11 10 22 2 30 31 39 32 3 32 7 19 8 36 24 2 4 28 22 22 3211 4734 3104 4912 4127 2981 4528 3047 4960 3947 3427 3859 4735 3362 4060 2964 3699 3435 3772 2705 2523 3309 4439 3671 4254 4364 3902 3232 3673 3667 4946 4436 4846 4004 4533 3477 4781 4626 3847 3449 2668 3892 4017 4752 3556 19 3452 3160 3823 2749 4780 4707 3017 4064 3979 3034 3228 2573 4735 2530 3539 4285 4481 2895 4718 3652 3037 4756 3243 2937 3019 3701 2911 2850 3866
39 26 17 23 36 24 22 38 28 1 35 18 6 26 27 24 16 27 12 32 8 27 19 35 13 12 11 11 12 16 39 22 34 27 38 27 0 22 10 31 21 21 39 37 37 10 12 11 37 11 23 37 11 24 25 19 32 16 30 16 30 25 26 1 32 6 4 2 26 14 4 15 14 34 37 4534 3132 3453 4051 2717 3815 3536 3859 4743 4702 3376 3760 2582 4711 4952 3821 3674 2837 4058 4962 3471 4227 3111 2719 3311 2729 4748 11 3976 4835 2623 3209 4297 4866 3223 3830 2949 4174 2804 2660 4160 4679 3787 4731 3933 3965 3879 3611 3023 2822 4959 2768 4108 3667 2729 3691 3861 4823 2632 2552 4939 4975 3633 3361 4174 4056 4151 2641 3351 4896 4638 2635 4815 4631 4888
32 11 6 17 12 35 32 38 33 11 18 27 29 6 34 30 34 26 39 29 24 15 22 20 35 5 12 12 24 9 6 33 32 8 25 11 14 0 36 34 34 22 39 36 18 33 30 30 22 12 17 17 12 38 27 9 24 2 25 14 26 4 8 37 8 39 37 38 25 18 9 32 23 15 34 3319 4527 4828 4906 4378 4643 2775 4374 2831 3214 4872 3873 4669 4363 2949 3630 4240 3912 3776 4012 3426 4989 3146 3511 3909 3349 2557 4833 4204 4215 3722 4194 4377 3322 3650 4100 3312 4909 3293 3136 2697 3937 2615 4210 2599 4037 3453 3835 4752 2844 4921 2568 3351 2589 3936 4709 4606 3884 2509 2602 3162 3782 3190 4929 4206 4832 4466 8 3557 2619 4465 3597 3231 4542 3851
3 33 39 6 23 12 29 22 25 27 36 1 8 6 10 17 25 32 32 27 24 18 22 31 2 21 36 5 8 19 6 1 25 38 8 8 21 14 0 39 21 12 2 22 31 23 32 27 21 32 9 20 1 33 30 10 31 23 21 16 1 36 21 26 8 18 6 10 18 26 8 4 16 24 16 3819 3024 4715 2672 3962 3720 4371 3338 3387 4813 4169 3637 4730 3104 4420 3410 3615 3517 2622 2596 3993 3408 4075 3200 4594 3494 4234 3624 3930 3481 3476 4336 4516 2638 2932 2563 4507 4035 3719 3867 3128 2625 4060 4122 3520 4424 4136 3119 4708 2757 3968 4938 3421 2799 4823 3893 3559 4807 3135 4335 4254 3780 4170 2906 4002 2628 4728 2680 3723 3626 3451 4257 2957 3371 2962
13 11 23 39 25 23 8 35 37 39 13 30 18 6 26 10 7 30 21 29 23 4 6 1 38 29 20 12 21 9 19 38 24 10 7 12 18 24 32 0 8 3 11 14 38 23 16 20 28 9 15 21 11 30 21 39 20 18 27 10 30 16 34 17 33 11 19 25 21 5 20 30 22 4 18 3862 4474 3568 2847 10 4834 3966 2566 4279 4661 2890 4900 2976 2592 2741 2804 4341 4371 4159 3609 3893 4099 3710 3558 2747 3798 2737 3278 2534 2725 3610 4417 3792 2971 2520 4709 2825 4764 3101 4281 2562 3263 3723 4209 3190 4766 3302 3120 4091 17 2784 3249 4986 3659 4405 9 4297 3051 2797 3896 3814 4825 3857 4753 4653 4049 4669 3523 3224 4507 14 2964 3763 4588 3725
27 17 6 38 33 16 28 26 22 35 37 34 27 31 39 9 24 37 29 13 29 38 24 13 9 21 37 15 13 26 17 37 15 26 22 9 30 8 22 37 0 13 12 8 22 4 15 29 15 33 33 14 30 10 27 13 2 31 7 12 15 31 15 22 16 36 25 38 37 19 32 1 2 31 19 2550 4138 3621 3349 4299 2645 4826 4139 2520 3798 3290 3474 3564 4735 3867 2569 3571 4543 2592 2829 3299 3806 3186 3665 3399 4873 4792 4966 4666 4894 3970 2571 2733 2522 4850 3069 3360 3473 4016 4065 3928 2650 2957 3958 4414 4235 2962 2899 4059 3720 3093 4550 10 4764 4108 4306 2806 2745 4990 3462 2970 3215 2921 4544 3519 4393 3987 3997 2985 3678 4838 3980 4097 2554 3017
1 13 20 2 34 26 27 5 9 29 20 3 12 20 18 23 11 24 4 30 2 21 25 29 32 30 39 38 31 13 18 21 29 4 11 15 15 14 39 3 38 0 15 18 5 17 25 32 13 4 34 26 19 20 38 29 38 30 31 29 18 14 34 16 20 8 26 20 12 20 32 8 17 5 39 3532 4317 4083 3284 4175 4064 4306 2669 4902 4233 4475 2657 2982 3427 4270 4514 3921 3783 4596 3927 3916 3899 4299 2533 4420 4229 4576 3580 2925 3709 3386 3105 4831 3748 4489 4391 4539 4828 4826 4044 2708 3774 9 3048 3540 3106 2836 2631 4750 4352 4659 2704 3199 3564 3339 3465 2596 4203 4673 2654 12 3203 3530 4159 4720 3182 3251 3126 4699 3050 3341 3863 4546 3621 3035
22 6 22 8 34 15 4 22 5 10 38 11 37 1 32 1 24 27 24 29 24 10 16 30 37 1 23 8 3 26 16 33 23 14 29 25 23 8 18 13 10 11 0 37 28 27 33 26 37 36 31 37 6 39 19 38 16 21 29 11 1 22 2 7 2 8 8 28 36 2 22 16 34 33 9 3878 4904 4424 4197 4708 4073 4986 3143 4011 2834 4276 3467 4098 4959 3826 4811 3095 4022 4049 4664 3139 4377 3539 4641 3135 3431 3356 2742 3646 3983 3748 2787 4957 2643 4844 4367 4429 3110 3219 4821 4095 2869 4704 3981 4455 4385 3307 4413 2793 4755 3194 4985 3016 4268 3311 3254 3494 3149 2944 4728 3436 4780 4873 4336 4222 3567 4039 3851 3907 4846 2704 4225 4805 4995 3532
23 18 23 38 4 14 37 34 4 37 5 13 16 4 38 9 14 7 26 34 35 13 31 14 20 36 34 27 11 9 19 18 13 18 21 19 3 1 1 31 2 21 21 0 19 16 19 4 3 7 2 18 18 1 6 35 31 38 23 11 5 9 24 31 27 4 12 9 20 21 26 18 10 4 26 4775 3530 4959 4395 3429 3138 3933 3369 3561 4382 2966 2820 4705 4778 3603 3662 4429 3441 4816 4194 4097 4941 3902 3195 3786 4339 3227 2640 4886 4683 3076 3557 3326 3592 4960 4686 4944 3610 4600 3395 2996 2835 3011 3847 2701 4960 3024 4182 2722 3394 2798 3008 2678 4136 3697 4121 3068 4810 4449 2833 2625 3185 3506 4236 3646 3137 3708 4134 3848 3398 3475 4035 4351 2854 3899
10 7 7 16 27 39 34 33 1 10 20 17 38 14 36 30 32 15 33 8 8 24 17 13 17 37 28 17 32 2 34 26 36 39 30 4 13 17 13 39 31 16 25 37 0 1 35 14 11 8 22 28 3 22 28 2 15 23 11 21 38 27 33 21 39 14 15 17 14 3 6 11 2 28 15 3061 3232 2891 4013 3627 4765 3143 4160 2884 4811 2773 3357 4517 3626 4838 3911 2727 4937 4678 2820 2923 4274 4654 2624 4516 3526 3700 3634 2758 3822 3576 3375 3672 4915 3792 4299 4631 4582 3545 3606 4794 4265 3411 2787 4265 4348 2798 4124 2884 3707 4021 3096 4697 3717 2863 4511 12 19 3409 3024 4304 3227 3624 4393 3216 4302 4452 3972 2997 3214 2951 8 3057 3039 3509
8 20 21 7 24 7 4 16 21 6 11 34 36 29 29 13 33 27 7 34 39 15 33 34 2 38 37 14 14 14 19 25 31 8 35 4 12 31 2 26 14 8 38 11 20 0 3 26 30 23 30 34 18 20 7 18 4 10 39 23 19 28 27 21 34 26 8 31 19 19 17 8 11 28 3 3665 4890 4081 3951 2788 4780 3430 4480 3037 2980 3809 3859 3676 2589 2922 2668 2528 4443 4881 4455 3961 3479 4873 4162 4486 2665 3397 3058 3614 3844 4293 3515 4984 2548 3357 4534 3593 4363 4077 3910 2929 3269 4288 3251 3344 2580 3266 2529 3858 3410 4384 3338 4775 3998 4638 2983 2979 3605 4908 3095 2616 3146 4110 2520 4590 4507 2928 4601 4223 4514 4848 3856 4257 3802 3049
3 27 31 1 15 15 9 36 11 18 15 39 1 39 4 26 6 14 9 3 1 36 37 6 34 30 23 37 16 37 7 12 13 4 3 9 16 35 3 32 14 25 30 29 22 4 0 37 24 5 29 21 1 4 9 28 32 12 18 11 18 18 23 33 18 30 38 30 7 37 19 1 36 18 39 3400 3614 3070 4155 4645 3560 4733 4039 3868 3171 3860 4617 4649 4320 3259 3722 2773 3726 3235 4160 4441 4469 4695 4353 3678 3547 4274 4574 2697 2614 3672 4476 3088 4076 3266 3913 3317 2967 3275 3825 3905 3468 3087 2665 4680 2777 4017 3370 3649 4902 4338 2683 3482 2522 2668 2521 3704 3777 3376 3763 2800 2967 3394 3781 15 4540 3932 3756 2951 4075 3973 4876 4936 3626 4254
4 31 12 9 27 10 21 1 31 19 20 21 22 11 39 27 23 3 22 11 12 8 36 22 37 5 27 3 34 26 25 10 1 1 18 33 29 18 10 9 7 27 36 9 33 3 30 0 7 6 7 8 1 9 4 18 29 6 37 13 27 17 39 31 20 29 12 15 11 25 17 29 37 20 31 3342 4919 3652 3499 4553 4505 4694 3879 3545 2587 2898 2725 3034 4895 4404 2560 3172 2604 3619 3010 3417 2521 3540 3464 4316 2783 3730 3500 2773 3620 4272 4209 3424 4024 2701 4654 4464 4362 4765 2610 3667 4902 4232 3253 4433 3531 4610 4016 3932 3416 4424 4734 3104 4585 2810 3025 4785 2928 3250 3843 3298 2615 4717 2601 3022 4934 2983 4549 3818 4083 17 2576 3993 2730 4103
27 1 8 23 6 14 26 39 35 13 10 27 8 36 22 5 26 31 36 34 13 20 39 1 13 20 30 13 11 22 17 39 3 3 28 37 10 2 2 24 16 5 8 38 15 11 1 24 0 36 23 11 4 6 23 32 22 7 29 11 27 10 22 23 7 16 22 10 37 26 34 4 11 34 2 4727 3943 3170 4416 3004 4553 3668 3301 3896 4183 3683 3459 3175 3956 4519 3974 4662 3484 3208 2639 4601 2895 11 2524 4425 4652 3305 3602 4003 4808 2962 4050 8 3694 3330 4747 4737 4577 4351 3935 2742 2685 4778 3480 2947 3720 4837 4452 2995 4244 2776 4168 3247 4886 3191 3652 3440 4400 2775 2706 3785 4119 4434 4794 2986 2686 3118 4114 3531 3148 3165 4793 3223 4344 3151
30 24 1 25 16 29 34 24 12 32 13 18 36 3 16 2 14 25 26 31 8 25 31 38 11 14 34 30 6 23 14 1 4 2 35 14 13 39 4 14 12 32 22 2 28 3 15 9 8 0 14 26 3 7 29 15 31 16 3 14 2 31 26 33 25 12 34 13 26 21 32 16 18 11 24 3055 3907 3903 4389 4310 3511 3953 3537 3003 4920 4634 4598 2692 2615 4887 3688 4620 4245 4848 3571 3960 2689 3350 3847 2673 4866 4325 2708 3979 4772 2558 3970 4478 3699 3770 4898 2705 3427 4840 4457 4638 4523 4553 3038 4016 4049 4530 4468 3685 3731 4134 2864 2552 4263 3329 4317 3881 3617 4291 3577 4528 2904 3601 2750 4214 3257 3826 3524 4641 4774 4171 5 4797 4391 2556
19 18 38 14 23 35 21 7 19 28 8 23 39 39 29 29 37 11 9 16 11 26 29 30 37 7 31 21 19 23 11 36 24 26 27 8 21 17 21 38 34 1 14 38 26 33 24 27 10 9 0 23 33 32 17 30 34 33 17 9 8 14 18 27 39 38 12 33 34 8 30 17 16 37 22 4794 2865 3586 3952 2902 3715 2654 4911 3783 3057 4917 3906 4762 3559 3116 4789 4023 3250 19 4359 3808 4000 3774 3904 3018 3315 2779 3599 3571 3262 2736 4664 3200 17 4731 2760 2983 2754 4318 3067 4602 4270 3164 4280 2959 3775 4754 6 2505 2934 3640 3510 4168 3129 4018 3980 3878 4417 3058 3288 4540 4157 2597 4881 3761 3728 3866 3805 2853 4388 4889 3270 4485 4073 4426
19 28 27 15 22 7 21 10 11 20 37 37 10 23 9 14 10 39 37 35 28 4 3 16 15 3 22 1 33 1 14 33 11 25 6 19 3 14 11 23 14 37 32 6 32 33 17 19 37 2 18 0 3 39 37 2 34 20 37 13 6 30 38 17 5 3 14 31 16 2 32 34 5 28 1 3760 3384 3889 3655 2928 4937 4445 4460 4357 4729 2690 3358 4702 3617 4351 4717 2925 4479 3018 3552 3821 2901 4207 4507 3953 2875 2748 3476 4772 2513 3753 4471 3654 3664 4392 3196 4468 4316 4390 2530 3822 3516 19 2926 3293 2575 3812 4132 3202 2891 3319 4470 4953 4575 4449 4347 4405 4297 4312 4577 4255 3034 3774 2844 4862 3220 3756 4174 3680 4117 2590 4339 4902 4589 4720
8 25 34 37 29 27 2 8 12 33 14 35 16 20 22 24 11 23 26 27 34 19 29 8 34 39 12 16 36 14 6 12 36 25 27 39 6 4 3 25 23 18 23 33 22 5 12 7 18 18 27 39 0 17 12 33 38 23 17 22 14 15 9 24 14 30 10 13 29 15 9 9 37 4 13 3614 4408 4399 2660 3408 4899 4430 3774 2689 3814 2613 3933 4262 3069 4320 2752 3863 4969 3313 2703 3076 2877 2932 3079 3218 4692 3948 3882 3357 4050 2911 3970 2860 4328 2636 3675 2727 2808 2935 3071 2547 4132 4902 2977 2865 2652 3510 4642 2694 4014 3483 3517 4790 3351 3618 3693 3581 3426 2949 3010 4923 2817 3418 3756 3066 3042 3763 4527 4781 4431 4008 4305 2647 3694 4783
23 2 20 24 1 6 7 7 26 38 35 1 18 13 2 13 11 31 35 25 23 24 28 12 22 37 1 10 16 3 6 12 20 18 28 4 34 20 37 27 13 16 10 15 36 20 20 11 22 16 4 10 36 0 20 18 6 10 32 4 39 8 22 14 10 17 9 13 13 4 9 19 39 4 14 4102 3161 3168 3606 3873 2969 4052 4048 4891 3042 2800 3944 3384 3016 2652 3321 3359 3137 3416 3540 4577 4225 4549 4138 3976 2903 2684 2887 2701 3244 4282 3667 4682 4512 3606 3558 4288 4831 3294 4180 3674 2906 4014 2893 3014 4613 16 3688 3427 3075 3747 4678 4642 4338 3004 4787 4694 4082 2633 4750 2915 4377 2922 3041 4479 4209 2801 3007 4332 3699 3098 2966 3976 4939 4584
3 8 27 16 22 35 18 29 14 15 6 24 33 27 6 6 19 4 21 16 20 19 8 21 39 17 20 32 28 19 13 7 4 22 22 4 13 31 24 32 24 22 34 30 24 26 12 28 31 24 34 24 37 28 0 24 24 29 11 32 38 21 1 22 23 3 23 12 1 23 33 8 32 10 37 4787 4945 4380 3575 3670 3281 4617 2773 3341 3563 3305 3299 4662 4424 4187 4433 4395 3805 2745 3174 3423 4719 3350 2545 4473 2508 2876 3793 4977 4737 3785 4140 4732 3408 2590 3978 2829 3059 3478 3178 4095 4684 4927 2665 2741 4102 2868 3227 4510 3469 3881 2672 3230 4798 3127 4190 2792 3587 3101 3583 4262 4510 3284 4752 4510 4952 4903 2532 4387 2880 4238 3530 3232 4494 2538
35 21 32 20 1 1 29 22 29 22 8 15 28 9 18 26 2 15 13 21 32 15 24 6 26 2 2 1 26 38 36 25 4 28 24 26 38 33 4 14 21 29 3 24 33 28 28 30 22 34 36 12 17 32 38 0 4 8 4 4 7 36 33 22 13 19 7 36 33 2 25 30 11 9 27 2719 4986 3131 2581 3425 3304 4571 4509 4332 4405 3239 3104 3222 3267 2746 4748 2513 4156 3697 3867 4547 2707 2857 3613 4307 4431 3825 2998 2588 3242 2830 4474 2678 2654 3066 3493 4153 3731 4822 4451 4004 4202 4289 4214 3409 3930 2741 2548 4571 3338 3254 4857 3367 2758 4386 3428 4578 4383 3507 3663 3982 3932 4879 4294 3929 3249 3372 3979 4992 3078 3284 4302 3780 4532 4606
11 33 1 8 28 13 11 36 24 33 35 19 10 38 24 14 18 22 13 24 7 3 11 31 12 17 23 18 9 1 21 10 23 35 22 5 29 24 7 24 7 37 12 21 16 12 36 29 3 20 20 28 37 34 29 21 0 25 35 31 21 6 28 36 18 1 13 33 1 37 17 26 8 19 17 4157 2991 2988 3067 3926 4451 3411 4758 4376 3320 2661 3923 3265 2526 3139 3626 3011 3224 2819 4701 4769 4930 4610 2847 4819 2509 3272 3337 4912 4934 4239 4198 3492 3180 4689 4569 2798 2964 4290 3209 2848 3606 2840 3983 4846 4258 2616 3123 4955 3192 3580 3167 2775 4420 11 4203 4404 4189 2783 4651 4541 4026 4993 3462 3031 3075 3581 4368 3188 3352 4044 3295 3978 4043 3450
36 38 30 29 33 19 11 6 10 25 14 4 7 39 16 6 11 22 8 33 12 4 6 26 12 20 23 23 21 19 21 29 29 2 30 13 37 24 31 2 8 6 8 32 3 20 38 21 3 18 18 4 15 4 11 22 19 0 34 15 21 28 35 29 27 1 28 16 12 7 2 13 13 9 3 2945 3795 3471 3501 4991 2591 3629 3781 2664 3516 2723 4626 3992 10 4792 2943 2582 4075 3717 4133 4075 2676 4690 2942 3890 3323 3141 18 3578 3765 4616 3657 4847 4623 4236 4291 4075 4878 2920 2529 3089 4300 4648 2931 3068 2642 4955 4649 4085 3024 4066 3715 4404 2979 4332 2622 4508 2713 4012 2845 4525 4976 3022 4191 4514 18 4819 3957 4497 4860 4297 4378 4895 3251 2874
15 20 37 18 14 29 18 28 10 2 3 17 4 39 39 2 18 22 15 18 4 31 2 15 36 26 5 16 14 25 12 14 29 14 26 26 35 30 23 17 6 14 23 20 14 15 27 8 4 18 31 7 22 13 17 39 24 3 0 10 34 39 19 19 17 18 35 26 31 20 34 24 28 30 21 2960 4478 3950 4042 3552 2912 3987 3511 3803 3166 3073 3101 2745 4690 4898 3478 4343 4767 3006 4628 4049 4157 3284 4339 4159 3438 4725 4406 3463 4351 4253 3144 2827 3959 4522 4785 3445 4169 4757 4202 3067 4511 4589 3902 4522 4584 3604 2856 3335 4047 4396 3051 4576 4206 4735 4924 3142 4228 4497 4704 2854 2950 3651 4471 4806 2691 3324 4311 2666 2517 3325 3614 3364 3647 2950
6 25 32 14 26 21 16 36 11 27 32 27 7 30 34 20 36 37 30 30 20 24 18 39 11 34 27 33 28 10 1 3 3 16 28 21 6 35 12 28 15 1 28 14 25 24 35 17 33 26 8 5 14 9 34 12 37 14 30 0 34 20 39 16 1 19 17 33 18 25 23 34 25 18 39 3042 2708 4650 3390 3627 4824 4532 4333 4112 3710 3096 3245 3195 4198 4467 3020 3694 4380 3555 2953 4545 4631 3909 2929 3170 3455 4026 3549 4715 3775 4695 4645 4425 2694 4044 4671 4550 3968 4326 4258 4679 2717 5 4368 3811 4637 2879 4707 3856 4677 3308 4925 2798 3376 3199 2778 2804 2843 2622 3450 3276 4029 4236 2662 3757 3809 4393 3367 3949 3940 3179 3108 3560 3060 4853
21 8 9 11 23 5 8 18 7 9 31 32 12 14 6 2 6 27 9 20 24 17 8 29 9 39 6 36 36 11 39 39 2 4 11 4 37 3 13 37 23 2 28 8 38 39 18 38 18 25 35 20 21 6 38 26 24 7 14 19 0 11 3 5 6 29 8 3 1 33 20 32 15 5 23 2502 4475 4467 4562 3068 3802 3629 4018 4047 3871 3184 3632 2892 2628 3724 4099 3179 4627 2538 3623 2529 2760 4637 4420 3522 4885 4578 4609 2863 2683 4318 3688 4439 4944 4497 3443 4778 3037 3824 4364 3586 3607 2540 3803 4478 4192 2937 4485 2864 2866 4437 4297 3867 4734 3417 4305 4655 4940 3100 4692 2683 3797 4060 3524 3572 4605 4089 4301 3300 3400 4285 4970 4084 4489 3086
12 36 1 10 16 25 30 14 27 26 15 13 17 16 23 31 37 20 34 5 17 11 25 38 26 1 23 4 7 2 33 24 14 16 10 17 33 29 17 8 10 20 16 14 33 34 5 8 24 35 6 38 14 29 26 15 38 35 26 5 8 0 26 24 3 13 39 17 1 37 29 11 28 34 1 4003 11 3105 3011 2984 4749 4989 4358 3605 2556 2978 2533 4133 3358 4351 3396 3075 3396 3829 2710 4374 4341 4702 4459 2650 4396 3877 2659 4103 6 4964 3791 3027 4271 3290 4783 4171 3705 3729 3053 3236 4637 3086 3717 11 3037 3490 14 3630 3102 3675 4560 2788 2858 2508 4378 4879 4137 4670 4840 3735 2762 4072 4039 2550 3745 4962 3985 3835 3065 2980 4064 4270 4243 3732
17 21 31 24 17 1 5 1 26 7 11 21 25 18 32 38 17 26 16 20 30 38 11 2 34 6 12 19 26 8 7 22 29 28 25 10 4 7 26 30 37 13 23 11 38 1 4 5 26 31 23 18 18 33 9 22 26 31 18 33 10 24 0 16 2 26 25 24 17 37 31 25 20 24 28 3134 3019 4630 2591 4829 4356 3852 3650 2731 4249 4490 4655 3102 3039 4495 4127 4098 2851 3215 2680 4480 2821 4982 4957 3663 4930 4230 3123 3733 3217 3099 3570 3349 4824 2549 2778 4043 3772 2583 3666 2542 4359 2557 4269 3716 4323 4049 3614 4204 2607 3980 3916 3184 2683 4923 2972 3895 4272 4101 3919 3978 3540 4556 4375 4080 2856 4598 4154 3823 2971 4063 2892 3272 4627 4598
27 5 34 26 3 21 37 9 5 5 11 30 13 12 31 11 24 33 10 17 9 16 8 19 12 24 20 12 10 2 17 33 26 34 15 3 25 12 14 11 10 9 10 30 38 25 12 36 39 30 30 18 26 34 22 12 6 8 28 10 10 31 28 0 1 12 15 39 27 11 31 10 18 34 7 4186 3084 4718 4784 4408 3510 2844 4119 4502 4551 4794 2855 4168 3878 3151 3367 4005 3091 3269 4631 4756 2757 4716 4003 2921 3044 4552 2960 3414 2638 4142 4517 4325 3787 3637 3636 4277 4531 3006 4932 4738 4678 2618 2619 2683 4618 4477 4770 3150 2930 3702 4318 4355 4293 2882 3953 4245 2989 3966 4616 4301 4232 3470 2617 4573 4230 4486 3033 3006 3216 4523 3579 3467 3598 4991
26 39 1 17 12 26 36 35 20 4 16 30 32 35 22 7 4 24 8 34 26 25 8 10 6 39 13 2 37 12 9 37 37 3 28 13 33 10 23 9 36 32 10 17 15 26 9 15 38 22 19 38 38 36 21 15 10 16 18 23 21 37 33 11 0 9 20 12 19 33 4 33 8 8 1 3499 3290 2789 3193 4784 2842 3686 2635 3085 4293 4541 3328 3432 17 4431 4603 4782 2640 4980 3052 4355 3277 2835 3854 4923 3210 4821 2509 3692 3597 2832 4388 3354 4692 2669 4103 3687 4829 4943 4879 2549 4193 2678 3818 3703 4811 3493 4851 4261 3186 3754 4695 2655 2950 3843 2750 4622 2708 4031 3439 2562 4584 3529 4493 3486 2521 4235 4498 4707 4697 4802 2886 3642 4811 2949
25 36 31 9 4 5 30 14 18 8 17 15 18 14 37 11 7 4 34 3 4 13 23 7 6 11 36 27 27 3 20 22 2 38 31 24 36 7 17 24 15 27 3 27 37 7 10 28 1 32 37 6 17 19 1 25 37 12 24 5 13 10 28 27 19 0 16 31 9 32 21 37 34 28 26 2643 4127 3959 3210 4286 2567 4632 4976 4442 2676 2927 4810 4659 4031 2743 3777 4143 3225 3047 2664 4910 3990 4166 3348 4330 4086 3582 2654 4776 3322 2939 4161 4752 3234 3780 4310 2745 4078 3697 17 3466 2772 4788 4892 2727 4192 4174 3164 3804 3596 4368 7 3709 4226 3253 4503 2715 2656 3927 4682 3643 4639 3049 3507 3160 10 3922 4997 4263 3960 2757 4698 3327 4770 2518
22 17 4 10 3 1 18 35 31 8 2 21 22 37 11 20 38 28 39 2 20 26 6 13 10 33 14 8 27 5 16 16 33 17 15 24 18 30 2 31 10 28 27 14 24 19 17 6 17 32 3 5 28 19 4 34 9 28 25 35 13 15 24 22 18 4 0 36 22 35 19 33 25 34 34 2971 2627 4509 4764 2994 3535 2980 3403 4320 2759 4050 3479 4549 2816 15 3539 2701 4667 4167 4471 3853 3791 3916 4318 2659 4333 4144 4611 3605 2940 3796 4888 3290 4851 4401 3701 2694 15 3105 4638 3708 2717 2732 2679 4482 2780 3124 3479 3596 3558 2982 3914 4360 4178 4622 3676 3472 3781 3134 4700 3110 2568 4067 4865 3485 4249 3388 3939 4179 3127 2703 3308 2890 3354 2827
30 25 1 5 25 6 30 19 28 32 5 21 27 37 16 8 1 12 34 11 4 37 10 31 30 34 5 13 23 4 18 33 22 7 23 17 17 29 17 18 38 2 2 30 5 9 19 25 13 9 11 19 21 20 18 7 39 10 1 35 16 6 22 7 4 19 15 0 12 38 20 37 37 37 31 4361 3626 4159 3083 4111 3874 3321 3609 3630 3509 4268 4515 4209 4290 4629 3478 4961 4782 3164 4782 4644 4645 3538 3820 2670 4016 3431 4534 3055 4394 4804 2819 3554 3513 4350 4238 2654 4818 3278 3334 3236 3213 4863 2885 3571 4919 4489 3237 4406 3707 4515 3644 4266 3160 4670 3865 2595 3299 4378 4957 4934 2918 3556 4298 4714 3473 3887 3115 4420 2710 3525 3656 3464 3653 3097
1 4 10 34 5 9 2 16 34 25 7 29 5 26 38 16 34 32 4 28 11 10 28 37 3 25 6 34 4 26 16 20 18 19 12 27 39 2 24 28 28 27 31 22 24 25 36 19 20 35 23 24 7 1 18 38 16 27 27 4 37 20 27 32 37 19 36 13 0 1 39 21 12 30 23 4236 3272 3187 4988 3525 2989 4911 3148 4994 2636 2773 4225 3074 3845 4394 3314 2778 2794 4705 2968 3777 3057 3723 4275 3704 4998 4500 2610 4805 4164 4564 2984 3537 4390 2863 2819 3177 3031 4470 2819 2908 2668 2997 4174 3811 3548 4871 3503 4142 4231 2858 2997 3224 4629 3465 4837 3384 3379 4006 3776 2913 3342 4453 4901 3939 4983 10 3499 3136 4170 2611 2569 2689 4562 4313
2 5 34 13 10 18 13 34 14 16 18 29 5 30 34 26 9 37 31 28 36 19 3 23 30 28 14 27 30 38 12 36 32 11 8 34 1 23 11 8 23 34 10 38 2 25 11 21 27 2 26 18 16 10 19 35 39 26 28 6 5 21 2 36 16 18 33 4 3 0 16 12 11 36 4 4414 4883 3560 3904 4899 2523 3985 4395 3912 4053 4870 4086 3885 2986 13 3458 3918 4368 3601 3776 4681 3780 4268 2746 4452 3655 2764 4661 4274 4936 4224 4653 4521 4354 2776 3296 3452 3667 3045 2528 4486 4708 4113 3795 4183 3812 3215 2814 3580 4861 3865 3529 4607 2813 4957 3922 3223 3288 4754 4537 3521 4184 2722 3621 3088 3497 4343 4706 3998 2825 3665 4912 3388 4791 3549
11 26 17 35 11 39 10 4 17 28 3 26 8 18 17 22 18 17 9 36 23 26 3 25 33 24 30 17 34 19 5 22 22 27 26 18 29 16 15 36 12 24 39 25 5 34 28 21 4 30 2 34 32 27 20 27 16 23 1 35 8 32 30 8 9 38 15 14 14 4 0 7 29 6 19 3874 3660 3637 3146 3079 2953 3324 3979 2933 3699 3477 2865 3232 4449 4997 3543 2790 4671 4502 3376 4843 4894 4311 4831 3894 3627 4396 2967 4023 2833 3076 3889 3516 17 2778 4732 3597 4376 4796 4816 4427 4457 4433 3974 3911 3873 3995 2725 3444 3005 2730 2525 13 2986 3192 3717 3892 3980 4688 3207 4243 4706 4992 9 3049 3907 2726 3987 3426 4381 2669 4774 2684 4651 3945
4 9 15 24 14 32 13 20 28 24 35 18 28 39 4 6 7 10 33 23 11 19 36 30 1 17 33 31 35 20 22 5 35 32 5 7 19 3 37 32 33 18 39 20 1 3 27 13 18 26 34 29 2 8 28 23 16 28 5 11 13 14 38 17 29 32 17 5 37 2 1 0 35 33 3 3398 3156 3490 3475 4200 2961 3489 4232 3707 3260 4221 4280 2661 3894 3383 2593 3034 3068 2770 4202 3285 3963 3801 2657 4746 3270 3684 3366 2511 2679 3189 3467 4427 4073 3637 2508 2862 3253 3620 3119 3790 3617 3697 3839 3966 3144 3976 3413 4521 4646 4081 2585 3562 2899 3807 4477 3346 3320 2778 4963 4837 2737 3524 3037 2797 2867 2599 4308 3098 3700 3323 3481 4518 4171 3760
29 30 39 8 23 25 11 33 28 1 18 28 8 10 19 28 28 3 15 22 36 14 14 33 10 28 34 10 21 8 21 9 34 35 8 37 24 3 31 38 4 18 33 31 5 20 25 19 19 39 4 6 24 33 32 39 33 26 34 28 27 12 17 38 38 8 30 3 23 10 29 34 0 8 18 4819 3693 3459 2874 4635 3360 3631 4626 4322 4887 4469 4918 4630 4654 4947 3513 4624 2733 3983 4088 2813 3516 3128 2957 2866 4368 4314 3216 4990 2988 2684 4461 3695 4868 4227 2836 4847 4050 4716 4333 2539 3934 4518 3831 3231 3917 4163 4949 4310 3320 4216 4964 2770 4460 3716 3528 4363 2644 3595 4034 4756 3090 3670 4775 4636 3023 3566 2783 3488 4468 4954 2850 2579 3908 3465
16 9 31 26 10 10 5 19 5 8 35 12 27 8 32 25 18 9 6 39 18 35 37 19 22 32 1 21 39 30 1 37 17 25 16 37 25 7 29 31 14 15 6 27 26 15 15 7 24 36 39 5 16 33 22 3 39 39 23 18 24 21 18 34 19 19 30 5 24 22 38 37 6 0 20 3308 4608 3093 4292 3400 4938 3950 3829 4715 3197 3050 2932 2874 3274 4523 4012 3978 4773 3347 4051 3475 2973 4166 2810 3734 3907 3857 3830 4562 2505 4649 4351 4602 3054 2827 3133 4601 4203 4484 3199 2628 15 2994 2675 4536 3817 4629 3785 4620 3168 4590 3170 2666 3936 2837 4925 4072 3683 4139 3352 3788 3201 4243 3821 4477 4759 4919 4203 3538 4776 3902 4270 4522 4888 3383
26 3 17 21 20 24 34 32 36 24 19 37 9 8 14 30 4 35 3 9 5 33 19 26 32 36 18 13 14 5 1 32 13 28 11 13 24 31 10 2 12 36 36 24 8 26 7 37 20 35 22 33 34 34 38 30 30 14 30 18 27 24 38 37 33 30 26 4 11 24 8 25 3 2 0 2754 4528 4404 3509 3102 4178 3244 4851 4184 2833 2555 3673 3418 2821 4298 2637 3317 4768 3203 3766 3369 4217 4065 3905 4630 3281 2965 3879 2640 3585 4803 3685 3615 2694 3276 3280 3454 4704 4773 2689 4176 2719 3099 3386 4464 2802 2512 3305 3865 4110 4403 3366 3817 4695 3790 2649 4910 4399 3582 4365 3425 4294 3144 2852 4531 3315 4183 4023 3663 3588 3217 3733 2891 5 4150
4297 3826 4302 3208 3626 2861 4537 2767 4904 3493 4737 2581 4900 2644 4860 3508 3424 3318 2619 2711 3791 3705 3875 4799 3574 4974 4938 3860 3431 3715 2832 4764 3790 3959 3228 3211 4534 3319 3819 3862 2550 3532 3878 4775 3061 3665 3400 3342 4727 3055 4794 3760 3614 4102 4787 2719 4157 2945 2960 3042 2502 4003 3134 4186 3499 2643 2971 4361 4236 4414 3874 3398 4819 3308 2754 0 4 2 9 20 7 10 18 27 2 34 38 28 25 18 23 4 18 39 8 6 24 24 26 30 22 18 11 23 22 1 1 10 6 20 23 27 38 14 36 36 20 31 31 16 9 13 34 2 19 26 39 10 21 36 31 19 19 15 26 5 24 37 14 19 11 26 2 16 36 18 12 2 28 39
10 4479 3997 3635 2906 3110 3513 3791 2716 3817 3740 3503 3285 4623 4941 3257 4379 4973 2552 4569 3176 4450 4189 2793 4856 3680 4534 2537 3738 2716 3985 2557 3574 3230 3097 4734 3132 4527 3024 4474 4138 4317 4904 3530 3232 4890 3614 4919 3943 3907 2865 3384 4408 3161 4945 4986 2991 3795 4478 2708 4475 11 3019 3084 3290 4127 2627 3626 3272 4883 3660 3156 3693 4608 4528 21 0 10 1 37 12 27 38 33 4 29 22 23 21 2 5 20 7 19 28 5 26 21 1 18 27 32 15 8 5 15 2 21 1 26 1 29 5 16 37 26 28 31 18 36 12 6 31 30 1 24 11 4 15 29 6 5 21 7 15 33 29 20 39 24 34 28 11 29 28 23 23 37 20 38
2752 3046 3196 4348 2692 3580 4367 3132 4923 2622 4697 4510 3211 4164 2938 3774 3810 4358 2814 3690 3253 3066 4510 3507 2873 3548 4465 4477 2983 4756 2865 4425 3955 4988 4566 3104 3453 4828 4715 3568 3621 4083 4424 4959 2891 4081 3070 3652 3170 3903 3586 3889 4399 3168 4380 3131 2988 3471 3950 4650 4467 3105 4630 4718 2789 3959 4509 4159 3187 3560 3637 3490 3459 3093 4404 30 33 0 30 17 34 30 33 32 3 37 14 12 24 36 2 19 39 25 39 7 18 29 1 20 13 23 32 16 17 20 25 28 25 17 15 33 7 32 5 17 13 38 11 22 37 1 21 4 15 29 3 33 16 2 38 14 38 1 37 37 23 35 16 24 27 7 15 21 18 39 30 25 14 8
4229 4155 5 3784 2717 4599 3647 3113 2683 3735 3492 4661 4342 4875 3389 10 2872 4536 3657 3122 3338 3365 2832 3851 2729 3566 4455 3329 4748 2695 3918 4138 4516 2502 4850 4912 4051 4906 2672 2847 3349 3284 4197 4395 4013 3951 4155 3499 4416 4389 3952 3655 2660 3606 3575 2581 3067 3501 4042 3390 4562 3011 2591 4784 3193 3210 4764 3083 4988 3904 3146 3475 2874 4292 3509 31 20 30 0 20 38 6 25 14 16 25 36 3 6 27 4 16 6 6 2 26 29 31 20 18 7 22 12 12 25 15 9 26 24 6 5 34 20 32 1 3 17 3 21 3 2 1 24 3 34 25 27 35 23 15 12 29 15 13 28 6 17 14 27 33 29 7 35 27 1 14 25 12 30 15
2990 3299 3480 4737 4330 2569 2608 3494 2642 4252 3459 3035 4333 4505 4788 4138 4952 3649 2990 3965 3161 2880 3953 4531 2712 3631 4225 4358 2691 4416 2524 3505 3392 2879 4854 4127 2717 4378 3962 10 4299 4175 4708 3429 3627 2788 4645 4553 3004 4310 2902 2928 3408 3873 3670 3425 3926 4991 3552 3627 3068 2984 4829 4408 4784 4286 2994 4111 3525 4899 3079 4200 4635 3400 3102 27 21 19 16 0 24 28 10 20 32 29 28 13 7 21 20 30 16 21 7 18 17 34 23 24 21 27 8 26 37 24 31 27 7 7 8 33 35 39 30 22 21 29 37 19 31 15 9 24 34 10 18 27 5 35 11 32 9 21 29 20 26 35 22 30 24 39 4 19 24 6 7 33 12 15
4148 3149 3797 4994 3096 4010 3122 4300 4846 4310 4909 3284 3648 3476 4146 4598 17 3507 4689 3818 3017 3815 2955 4135 4000 4109 4097 3467 3405 4989 4439 3213 4412 4415 4359 2981 3815 4643 3720 4834 2645 4064 4073 3138 4765 4780 3560 4505 4553 3511 3715 4937 4899 2969 3281 3304 4451 2591 2912 4824 3802 4749 4356 3510 2842 2567 3535 3874 2989 2523 2953 2961 3360 4938 4178 18 38 18 5 26 0 14 37 24 15 29 12 18 21 39 37 36 6 15 11 22 15 6 2 1 38 31 3 27 32 26 38 18 9 29 33 38 4 12 24 26 12 29 34 19 7 26 38 7 37 19 1 28 25 14 36 29 30 32 22 17 25 31 28 33 5 35 26 3 8 18 24 4 6 16
4249 3631 3181 8 4014 4647 2733 3417 3630 2974 3394 4384 3564 3788 2569 2711 4388 3205 3184 2675 3517 4194 3759 3508 4807 2769 3308 4761 3705 4865 4369 4898 3933 2840 2941 4528 3536 2775 4371 3966 4826 4306 4986 3933 3143 3430 4733 4694 3668 3953 2654 4445 4430 4052 4617 4571 3411 3629 3987 4532 3629 4989 3852 2844 3686 4632 2980 3321 4911 3985 3324 3489 3631 3950 3244 30 36 37 27 1 9 0 26 18 32 13 23 31 3 23 11 2 12 5 27 39 24 15 26 30 34 19 23 5 21 21 37 18 28 22 28 22 9 3 33 31 22 12 23 4 32 9 31 36 39 31 25 23 37 36 7 34 9 9 4 38 21 13 4 15 23 12 26 37 12 30 16 35 35 8
4300 2811 4016 3934 2819 3037 3453 4477 3289 3055 3610 3143 4373 4153 2842 3005 4524 2881 3030 3949 3732 2568 4537 3437 4295 3971 8 2710 3741 2881 3377 3526 2595 4001 3282 3047 3859 4374 3338 2566 4139 2669 3143 3369 4160 4480 4039 3879 3301 3537 4911 4460 3774 4048 2773 4509 4758 3781 3511 4333 4018 4358 3650 4119 2635 4976 3403 3609 3148 4395 3979 4232 4626 3829 4851 14 7 26 32 35 14 36 0 27 4 6 17 3 20 26 13 39 15 36 34 28 23 2 39 10 30 33 5 35 1 34 27 14 9 19 1 36 19 21 32 17 7 13 26 26 28 22 14 6 38 13 13 19 21 16 7 35 1 4 17 31 29 24 33 16 22 26 30 11 26 34 11 29 27 38
2756 4076 3109 2683 4980 4636 3162 2750 2711 3000 2779 2896 3570 2591 3039 3090 4433 2619 4526 4014 4765 3842 3867 3930 4412 4217 3356 2534 3479 2909 4912 2979 4744 4867 3611 4960 4743 2831 3387 4279 2520 4902 4011 3561 2884 3037 3868 3545 3896 3003 3783 4357 2689 4891 3341 4332 4376 2664 3803 4112 4047 3605 2731 4502 3085 4442 4320 3630 4994 3912 2933 3707 4322 4715 4184 28 33 31 3 30 10 4 26 0 10 12 27 19 9 2 28 9 18 28 39 16 5 31 34 22 2 33 28 3 14 38 28 4 37 22 25 3 17 36 35 3 15 5 11 24 11 32 34 13 39 3 25 17 5 25 37 28 6 30 13 15 27 11 39 35 35 3 34 20 8 37 15 36 31 14
4379 4593 3220 4456 4483 4498 2791 2733 2869 4359 3349 4709 2528 2947 4818 3649 2915 4639 4924 4664 3755 4875 2596 3956 3685 4139 2611 4334 4535 4979 4876 3979 4408 3450 4685 3947 4702 3214 4813 4661 3798 4233 2834 4382 4811 2980 3171 2587 4183 4920 3057 4729 3814 3042 3563 4405 3320 3516 3166 3710 3871 2556 4249 4551 4293 2676 2759 3509 2636 4053 3699 3260 4887 3197 2833 25 6 32 9 38 26 13 15 21 0 38 16 4 17 31 29 28 20 7 32 11 2 8 3 36 39 13 17 35 4 27 10 20 39 2 1 29 32 14 20 7 8 26 37 8 14 34 11 7 7 37 39 22 27 10 17 12 15 20 28 25 30 23 7 39 16 16 6 22 37 21 32 3 11 31
3798 4454 2758 3535 4260 4758 4510 4771 4129 4710 3541 2996 3723 2983 2771 2905 3469 2851 4563 4256 4628 3995 3066 4565 2977 3191 4865 3992 4251 3327 2553 4807 4361 3945 3959 3427 3376 4872 4169 2890 3290 4475 4276 2966 2773 3809 3860 2898 3683 4634 4917 2690 2613 2800 3305 3239 2661 2723 3073 3096 3184 2978 4490 4794 4541 2927 4050 4268 2773 4870 3477 4221 4469 3050 2555 28 20 17 34 27 22 4 39 34 24 0 34 1 12 3 22 37 2 17 4 38 21 15 2 22 30 21 23 36 31 3 9 21 18 38 4 30 25 6 2 3 21 1 9 20 19 19 17 28 25 39 36 4 20 17 2 14 3 26 2 36 23 17 19 34 30 35 7 20 33 22 6 19 15 1
4744 3928 2528 2826 2744 4139 3335 3705 4453 4173 3463 4080 3193 4361 2875 3525 2795 3667 4958 4619 3292 4462 4925 2716 3778 4306 4568 4043 3142 3294 4124 3300 2983 3134 2876 3859 3760 3873 3637 4900 3474 2657 3467 2820 3357 3859 4617 2725 3459 4598 3906 3358 3933 3944 3299 3104 3923 4626 3101 3245 3632 2533 4655 2855 3328 4810 3479 4515 4225 4086 2865 4280 4918 2932 3673 16 20 18 33 21 36 37 24 25 38 5 0 10 36 33 20 33 35 35 30 5 33 13 26 3 23 29 11 24 33 18 1 35 36 8 4 14 35 31 37 14 5 28 14 3 4 14 10 8 8 3 11 38 2 4 10 10 18 12 21 17 18 15 12 37 1 28 6 28 9 31 26 6 22 16
2765 2917 3285 3040 4332 4805 4467 3866 6 2749 2967 4279 3410 3829 4274 4852 4945 4322 3198 4443 2864 3961 4179 4875 3344 4221 2627 3161 3492 2863 4188 4372 4875 3015 2947 4735 2582 4669 4730 2976 3564 2982 4098 4705 4517 3676 4649 3034 3175 2692 4762 4702 4262 3384 4662 3222 3265 3992 2745 3195 2892 4133 3102 4168 3432 4659 4549 4209 3074 3885 3232 2661 4630 2874 3418 9 7 4 18 28 16 38 2 23 25 18 18 0 37 37 13 8 3 10 38 15 31 28 17 29 39 16 29 23 26 24 1 37 13 18 28 18 39 30 24 5 4 29 18 8 31 14 18 4 5 7 25 19 15 36 20 4 15 12 36 13 9 36 27 26 13 9 8 19 25 17 11 38 14 25
3197 4701 2780 3487 4316 3864 4244 2978 3568 3024 2589 3679 4871 4600 3074 4141 2537 4385 4325 4643 3913 4828 4747 4532 4516 4323 4284 4468 3114 2644 3186 4235 4433 2828 2521 3362 4711 4363 3104 2592 4735 3427 4959 4778 3626 2589 4320 4895 3956 2615 3559 3617 3069 3016 4424 3267 2526 10 4690 4198 2628 3358 3039 3878 17 4031 2816 4290 3845 2986 4449 3894 4654 3274 2821 38 12 15 3 15 38 29 2 25 1 24 39 32 0 36 30 2 29 31 24 35 29 17 17 3 10 34 22 33 39 31 13 19 3 8 36 31 1 21 28 32 25 12 2 29 19 7 17 37 24 23 28 10 13 9 4 5 14 17 6 19 29 28 7 34 32 20 36 13 18 32 15 28 27 25
4173 4296 4652 4053 4652 4065 2986 4390 3823 4534 2600 4084 4054 4032 3863 2721 3761 3568 3002 3798 2539 4155 3674 2616 2964 2820 4844 4167 2717 4954 3577 4193 4303 4493 3646 4060 4952 2949 4420 2741 3867 4270 3826 3603 4838 2922 3259 4404 4519 4887 3116 4351 4320 2652 4187 2746 3139 4792 4898 4467 3724 4351 4495 3151 4431 2743 15 4629 4394 13 4997 3383 4947 4523 4298 22 27 9 20 32 17 2 8 38 39 8 1 15 3 0 2 31 38 14 21 9 14 28 3 39 15 17 3 39 27 33 25 38 35 17 12 12 24 39 32 5 8 19 5 23 2 36 20 27 19 19 19 14 32 14 11 6 6 28 33 22 2 22 11 25 8 35 24 23 33 33 37 38 3 20
3339 3160 3631 3762 4190 4007 4747 3539 3616 4262 2714 3793 2646 4061 4987 3726 4400 4736 2509 3135 2775 4994 3455 2655 3210 3949 3678 3160 3914 3577 3357 2931 3950 4698 3632 2964 3821 3630 3410 2804 2569 4514 4811 3662 3911 2668 3722 2560 3974 3688 4789 4717 2752 3321 4433 4748 3626 2943 3478 3020 4099 3396 4127 3367 4603 3777 3539 3478 3314 3458 3543 2593 3513 4012 2637 18 11 1 36 36 16 2 14 1 39 20 18 14 17 17 0 28 31 18 22 6 13 28 37 23 25 16 35 39 6 5 10 8 36 25 6 3 30 20 16 7 16 39 18 7 24 25 4 17 14 9 13 3 26 16 35 24 36 8 1 27 34 39 21 33 22 38 26 10 17 15 16 15 13 14
4552 3094 3769 2930 3089 3031 2821 2653 3799 3264 2928 3943 3643 4785 4014 3705 4786 2505 4696 4947 4743 4093 2619 4178 4127 3478 4404 3195 4793 3610 15 4383 4181 4063 3262 3699 3674 4240 3615 4341 3571 3921 3095 4429 2727 2528 2773 3172 4662 4620 4023 2925 3863 3359 4395 2513 3011 2582 4343 3694 3179 3075 4098 4005 4782 4143 2701 4961 2778 3918 2790 3034 4624 3978 3317 1 24 6 15 5 11 25 31 10 14 16 33 1 5 21 34 0 22 3 5 18 7 29 18 37 28 23 19 5 14 17 29 4 3 25 12 16 6 26 8 4 30 33 37 12 23 36 10 36 34 23 5 37 19 38 36 1 18 37 10 26 1 23 1 30 9 33 14 13 25 26 28 14 27 21
3398 4951 2570 2947 2591 3914 3364 2996 3774 3050 2924 3311 4407 3296 4182 2992 10 3408 3158 3848 2834 3446 2774 4981 4424 3624 3064 4269 3779 2728 3326 4549 4485 4443 3558 3435 2837 3912 3517 4371 4543 3783 4022 3441 4937 4443 3726 2604 3484 4245 3250 4479 4969 3137 3805 4156 3224 4075 4767 4380 4627 3396 2851 3091 2640 3225 4667 4782 2794 4368 4671 3068 2733 4773 4768 7 6 10 15 33 17 12 20 35 4 22 33 29 36 35 15 4 0 3 19 22 18 22 18 16 3 1 13 22 21 5 34 20 30 13 7 12 12 38 32 17 20 6 8 34 17 8 2 31 36 11 4 7 3 6 14 29 22 35 23 20 14 37 11 9 37 28 20 16 22 33 2 30 24 24
2689 4688 3238 4059 2555 2531 3171 3476 4643 4933 4299 3994 4379 4932 4505 3224 4327 3927 4295 3246 3131 2533 4301 3855 3925 4814 2767 4051 4481 3002 3856 3820 3063 4200 2716 3772 4058 3776 2622 4159 2592 4596 4049 4816 4678 4881 3235 3619 3208 4848 19 3018 3313 3416 2745 3697 2819 3717 3006 3555 2538 3829 3215 3269 4980 3047 4167 3164 4705 3601 4502 2770 3983 3347 3203 21 19 31 33 10 2 33 1 1 23 30 9 37 32 23 16 1 10 0 13 10 37 3 7 37 26 20 17 13 12 11 31 4 20 31 9 35 19 30 6 24 20 4 2 21 28 5 15 10 23 29 19 29 15 20 15 37 30 32 17 14 1 25 25 18 27 14 32 14 29 37 22 10 3 39
3536 3887 2792 2983 3473 2801 4460 3425 3810 2649 4582 3213 4543 4038 2846 4725 3324 4193 3671 3128 4913 4019 2672 2722 4136 2815 4149 4822 2955 2677 3508 2622 3611 3313 3541 2705 4962 4012 2596 3609 2829 3927 4664 4194 2820 4455 4160 3010 2639 3571 4359 3552 2703 3540 3174 3867 4701 4133 4628 2953 3623 2710 2680 4631 3052 2664 4471 4782 2968 3776 3376 4202 4088 4051 3766 30 5 3 36 1 31 21 24 34 30 31 33 39 30 15 16 9 16 3 0 17 32 13 9 1 24 28 4 18 11 36 29 15 16 35 31 25 26 19 26 10 27 15 32 36 20 26 15 26 10 32 26 25 2 21 18 13 7 22 4 29 3 36 25 21 35 27 37 14 10 7 12 28 36 1
4589 4528 3905 3260 4113 3757 3095 3256 4808 2890 4855 3858 3114 4528 3266 3810 4213 4299 4224 4205 4107 2530 2730 4979 4170 3219 2632 3844 4473 4445 3327 3099 2957 4593 2649 2523 3471 3426 3993 3893 3299 3916 3139 4097 2923 3961 4441 3417 4601 3960 3808 3821 3076 4577 3423 4547 4769 4075 4049 4545 2529 4374 4480 4756 4355 4910 3853 4644 3777 4681 4843 3285 2813 3475 3369 3 24 8 39 13 12 31 11 31 9 16 39 4 34 22 30 19 36 12 13 0 32 29 29 3 30 32 7 25 33 3 15 3 9 16 15 26 5 39 29 10 10 2 4 26 1 38 5 39 39 23 17 10 26 29 18 20 30 8 7 13 10 2 11 3 23 13 35 7 14 7 19 4 37 30
2708 2529 4554 2890 3976 3317 3260 4972 4694 2769 3985 4953 4461 3622 4846 3591 2578 3280 4347 4547 3050 3203 4191 3091 3620 2594 4408 4002 3805 4778 3017 2790 3724 3813 4559 3309 4227 4989 3408 4099 3806 3899 4377 4941 4274 3479 4469 2521 2895 2689 4000 2901 2877 4225 4719 2707 4930 2676 4157 4631 2760 4341 2821 2757 3277 3990 3791 4645 3057 3780 4894 3963 3516 2973 4217 34 19 31 14 16 12 11 30 24 28 27 32 15 17 38 9 38 14 26 13 16 0 21 6 26 12 20 39 10 23 5 9 9 17 14 6 9 18 29 15 22 31 22 23 25 26 30 22 3 17 3 9 35 13 20 23 14 16 11 16 13 33 2 25 1 14 13 34 31 13 12 13 25 39 30
3847 3159 4118 3607 3399 2709 2794 4068 2527 3031 3456 3310 2842 3678 3037 3198 3713 3791 2906 3640 4591 4458 3611 4288 3272 2871 4739 4142 4570 2780 4118 3543 2905 2872 3612 4439 3111 3146 4075 3710 3186 4299 3539 3902 4654 4873 4695 3540 11 3350 3774 4207 2932 4549 3350 2857 4610 4690 3284 3909 4637 4702 4982 4716 2835 4166 3916 3538 3723 4268 4311 3801 3128 4166 4065 12 21 39 17 38 13 17 23 7 19 5 19 31 27 33 30 33 24 29 15 13 11 0 32 39 37 39 12 35 8 18 20 13 24 19 5 27 26 33 19 25 24 37 14 24 38 20 2 11 35 34 37 28 23 19 37 7 34 7 16 4 39 18 11 1 8 39 33 22 37 25 13 30 9 14
3535 3609 3477 3727 4007 2939 3073 3682 4832 3489 4564 4990 3959 4197 4375 3119 3256 3679 2906 2810 4568 3083 4266 3091 2920 4074 3479 3842 4680 4857 3231 4412 2742 3341 2817 3671 2719 3511 3200 3558 3665 2533 4641 3195 2624 4162 4353 3464 2524 3847 3904 4507 3079 4138 2545 3613 2847 2942 4339 2929 4420 4459 4957 4003 3854 3348 4318 3820 4275 2746 4831 2657 2957 2810 3905 2 3 15 21 10 27 1 30 1 24 17 19 33 29 5 6 4 15 37 35 19 32 32 0 13 34 13 35 36 31 4 15 20 18 14 14 17 5 25 33 8 25 4 25 24 5 37 21 18 20 24 17 1 12 16 29 30 12 32 17 29 16 33 18 15 39 31 24 28 11 19 29 18 2 35
2893 3443 2669 4613 4378 3402 3310 3232 3945 3185 3500 4501 3208 4003 3654 4442 2583 3709 3407 2869 2896 4689 3567 2533 3975 4821 2942 3570 3765 4923 3148 4086 2519 4039 4029 4254 3311 3909 4594 2747 3399 4420 3135 3786 4516 4486 3678 4316 4425 2673 3018 3953 3218 3976 4473 4307 4819 3890 4159 3170 3522 2650 3663 2921 4923 4330 2659 2670 3704 4452 3894 4746 2866 3734 4630 7 18 3 20 33 33 8 13 4 32 22 11 2 9 2 30 34 8 34 5 5 21 36 33 0 26 29 31 7 13 17 9 2 24 17 24 11 38 36 23 23 24 31 9 23 11 4 3 19 31 39 33 10 37 27 16 7 38 2 34 31 25 34 13 1 9 17 25 8 12 25 14 7 26 35
3474 4349 2666 3551 2904 4866 2997 3713 2659 3736 2599 4625 3687 4196 3784 3301 3287 2720 4010 4776 4834 4538 2986 3586 2570 3652 3304 4814 3937 2580 3402 3921 3492 4238 4036 4364 2729 3349 3494 3798 4873 4229 3431 4339 3526 2665 3547 2783 4652 4866 3315 2875 4692 2903 2508 4431 2509 3323 3438 3455 4885 4396 4930 3044 3210 4086 4333 4016 4998 3655 3627 3270 4368 3907 3281 18 24 21 26 8 39 26 11 12 8 14 24 2 16 24 23 37 4 38 1 37 35 24 12 22 0 21 34 7 27 32 33 13 15 8 3 15 31 25 37 23 27 2 9 38 20 16 10 6 33 17 5 28 12 20 1 29 29 17 16 23 21 28 38 23 26 3 7 32 21 28 4 38 20 17
2784 2936 4416 4060 3893 2569 3365 4494 3399 4334 4804 2739 3922 4799 3713 3517 3805 3073 4185 3004 4934 4579 2938 3026 3334 3443 2698 3629 3355 4001 4679 4303 4546 2876 3603 3902 4748 2557 4234 2737 4792 4576 3356 3227 3700 3397 4274 3730 3305 4325 2779 2748 3948 2684 2876 3825 3272 3141 4725 4026 4578 3877 4230 4552 4821 3582 4144 3431 4500 2764 4396 3684 4314 3857 2965 25 19 28 2 25 35 31 28 21 6 10 12 36 38 11 10 8 18 36 12 30 27 36 11 4 4 0 7 8 21 10 6 33 17 27 25 7 4 28 37 31 17 19 34 9 34 15 23 37 30 10 13 31 34 22 3 37 17 37 28 39 10 29 20 19 37 27 26 10 6 13 18 34 30 7
3491 3022 3247 2580 4750 3730 2968 2681 4105 3320 2894 4314 4870 3044 2834 3816 4278 3091 2810 3484 2983 4296 3867 2639 2765 4547 4919 2855 3904 2982 4004 3414 3897 2765 3384 3232 11 4833 3624 3278 4966 3580 2742 2640 3634 3058 4574 3500 3602 2708 3599 3476 3882 2887 3793 2998 3337 18 4406 3549 4609 2659 3123 2960 2509 2654 4611 4534 2610 4661 2967 3366 3216 3830 3879 22 34 34 21 3 39 19 19 34 4 9 18 22 14 2 27 15 14 20 22 21 21 20 24 18 34 22 0 31 13 21 12 10 5 25 13 31 28 37 37 19 10 25 23 26 17 10 35 36 36 22 32 3 21 14 24 27 27 5 34 38 7 37 39 38 20 29 23 32 2 8 3 9 28 23
2772 3964 4702 3549 4434 3564 3178 3675 3979 2923 4207 3188 4672 3891 4120 3197 2980 4040 4218 3673 4736 3541 4300 4123 2966 4670 3264 4287 2798 3389 3394 4841 3854 3367 2581 3673 3976 4204 3930 2534 4666 2925 3646 4886 2758 3614 2697 2773 4003 3979 3571 4772 3357 2701 4977 2588 4912 3578 3463 4715 2863 4103 3733 3414 3692 4776 3605 3055 4805 4274 4023 2511 4990 4562 2640 10 13 38 3 1 33 18 39 4 21 21 26 15 17 28 2 24 19 36 20 18 39 25 17 6 8 6 9 0 8 38 11 21 4 10 38 39 1 1 34 11 8 33 18 14 37 23 27 4 27 8 7 26 34 12 25 11 13 17 26 11 16 7 5 26 25 17 1 13 17 16 24 32 26 11
4748 3584 3818 4498 4811 3869 3779 3203 4731 4027 2804 2993 2631 3646 4677 3252 3691 2579 2798 3196 4982 3396 3168 3971 3859 4125 3492 3438 2717 2946 2525 3292 2943 4227 3763 3667 4835 4215 3481 2725 4894 3709 3983 4683 3822 3844 2614 3620 4808 4772 3262 2513 4050 3244 4737 3242 4934 3765 4351 3775 2683 6 3217 2638 3597 3322 2940 4394 4164 4936 2833 2679 2988 2505 3585 22 33 5 12 4 16 16 39 16 14 25 34 5 36 6 12 22 4 24 30 10 31 12 3 7 23 10 14 1 0 31 23 26 1 10 29 5 26 1 20 32 35 34 16 19 22 32 24 18 37 31 7 23 32 16 1 2 29 12 23 34 10 23 15 25 8 17 33 14 20 35 27 32 32 18
4499 4554 2870 2734 2745 3873 4240 2677 3129 3140 3322 3363 4432 3162 4680 3798 4079 4828 4729 4905 4071 2794 2849 3507 4003 4295 3801 2950 4438 2886 4521 15 3496 3168 3314 4946 2623 3722 3476 3610 3970 3386 3748 3076 3576 4293 3672 4272 2962 2558 2736 3753 2911 4282 3785 2830 4239 4616 4253 4695 4318 4964 3099 4142 2832 2939 3796 4804 4564 4224 3076 3189 2684 4649 4803 1 18 25 32 30 13 11 11 6 39 30 16 24 5 37 35 28 29 14 18 17 2 35 14 35 36 11 39 22 26 0 13 16 26 23 8 19 24 39 33 10 39 18 29 14 11 9 24 16 27 21 6 10 12 3 13 29 5 22 8 2 21 11 33 16 1 12 9 11 10 34 1 16 21 10
4210 2655 3682 3472 4460 3379 2716 3262 4893 3154 3718 4091 4610 4325 3753 3975 3248 4070 3642 3865 2732 4152 4632 4366 4404 2760 3888 3313 3372 3096 3173 6 3064 4052 3154 4436 3209 4194 4336 4417 2571 3105 2787 3557 3375 3515 4476 4209 4050 3970 4664 4471 3970 3667 4140 4474 4198 3657 3144 4645 3688 3791 3570 4517 4388 4161 4888 2819 2984 4653 3889 3467 4461 4351 3685 12 23 16 10 17 9 37 1 7 35 5 25 9 21 7 14 25 25 6 34 6 30 22 1 34 6 24 25 36 24 10 0 14 33 30 27 4 12 14 19 29 36 12 28 18 15 16 34 7 16 13 20 36 20 24 7 1 37 13 7 32 19 18 7 7 9 11 6 8 16 33 14 14 34 1
3189 3342 2992 3984 2589 4838 4281 3682 4282 2505 3533 3496 3778 3823 3485 3122 4363 4117 3038 3262 4368 3873 3691 3224 4822 2804 3950 4247 4232 4775 3539 3871 3368 3174 4218 4846 4297 4377 4516 3792 2733 4831 4957 3326 3672 4984 3088 3424 8 4478 3200 3654 2860 4682 4732 2678 3492 4847 2827 4425 4439 3027 3349 4325 3354 4752 3290 3554 3537 4521 3516 4427 3695 4602 3615 19 18 33 1 38 4 5 33 2 12 26 27 4 22 21 34 11 27 17 27 8 33 35 34 14 5 10 27 10 29 21 9 0 25 32 31 19 26 6 15 23 2 31 1 27 19 37 22 39 30 29 20 6 6 37 37 39 31 30 8 1 35 36 5 37 34 5 3 34 26 39 22 10 4 14
4101 3887 2530 4271 3834 4775 3316 2892 3666 2948 4317 4440 4279 4372 4321 3041 4925 3069 4571 2555 2648 3908 2538 4652 4589 3104 3258 4607 3713 4830 3518 2884 2501 18 4361 4004 4866 3322 2638 2971 2522 3748 2643 3592 4915 2548 4076 4024 3694 3699 17 3664 4328 4512 3408 2654 3180 4623 3959 2694 4944 4271 4824 3787 4692 3234 4851 3513 4390 4354 17 4073 4868 3054 2694 14 39 31 5 15 20 6 9 18 27 6 11 10 35 19 25 36 32 6 23 11 21 2 10 24 22 38 13 18 31 37 18 39 0 23 23 1 21 25 25 24 29 7 35 17 31 34 34 28 15 3 37 2 15 1 3 25 13 5 24 34 31 35 35 17 35 25 36 6 19 15 13 35 12 20
3527 4771 2853 4135 3947 4775 3077 17 4804 3616 2774 4037 4665 3303 3770 2621 4396 4203 3438 2793 3401 4013 4238 4732 4750 3656 2766 3139 2863 4902 4518 2674 3140 3938 2571 4533 3223 3650 2932 2520 4850 4489 4844 4960 3792 3357 3266 2701 3330 3770 4731 4392 2636 3606 2590 3066 4689 4236 4522 4044 4497 3290 2549 3637 2669 3780 4401 4350 2863 2776 2778 3637 4227 2827 3276 38 10 14 24 12 12 12 21 7 39 13 38 32 11 8 36 25 2 25 22 7 7 9 24 31 9 6 30 11 16 10 30 3 38 0 15 14 35 30 37 34 11 27 29 16 32 20 28 5 18 20 37 9 7 31 6 25 5 7 31 21 4 26 11 39 34 11 27 18 5 5 4 10 4 30
2810 4302 3028 2858 3919 3320 4792 3913 2667 3990 2661 3097 3713 2991 3531 3615 2716 3569 2560 4356 4982 4466 4905 3937 3621 4028 3949 2597 3828 2599 2778 4954 3677 3843 4818 3477 3830 4100 2563 4709 3069 4391 4367 4686 4299 4534 3913 4654 4747 4898 2760 3196 3675 3558 3978 3493 4569 4291 4785 4671 3443 4783 2778 3636 4103 4310 3701 4238 2819 3296 4732 2508 2836 3133 3280 20 2 7 18 28 25 22 3 30 1 4 21 10 4 18 15 9 3 19 21 1 3 14 3 3 9 32 4 32 36 2 24 24 5 1 0 26 34 39 15 36 37 28 24 23 10 30 23 38 37 16 1 25 3 12 21 23 25 36 23 32 17 19 34 22 23 10 20 3 24 13 12 11 24 24
4447 3820 4708 2620 4001 3841 4053 4376 4791 2649 2575 4118 3287 4171 3084 4007 2851 2755 3517 4428 4456 2782 4634 2858 3705 4902 4005 3757 4497 3436 3514 2932 3938 3531 3134 4781 2949 3312 4507 2825 3360 4539 4429 4944 4631 3593 3317 4464 4737 2705 2983 4468 2727 4288 2829 4153 2798 4075 3445 4550 4778 4171 4043 4277 3687 2745 2694 2654 3177 3452 3597 2862 4847 4601 3454 24 9 21 22 8 21 33 28 37 23 24 18 32 39 21 17 38 9 11 12 10 39 17 1 28 38 2 7 27 28 26 17 31 37 15 2 0 23 29 6 34 8 30 2 25 23 23 23 36 23 4 14 7 19 26 7 15 28 3 2 24 16 26 7 7 27 31 35 28 14 3 19 10 8 37
3592 4368 3642 4338 4793 2505 4746 4929 4633 4627 3094 2680 4452 4983 3429 4033 3075 4933 2515 4251 3151 4439 3068 3926 2639 4312 3273 2551 3062 2893 3248 4203 2612 3841 3183 4626 4174 4909 4035 4764 3473 4828 3110 3610 4582 4363 2967 4362 4577 3427 2754 4316 2808 4831 3059 3731 2964 4878 4169 3968 3037 3705 3772 4531 4829 4078 15 4818 3031 3667 4376 3253 4050 4203 4704 22 17 25 22 8 4 16 16 12 11 33 39 16 30 2 31 6 28 30 6 13 24 3 15 18 36 31 30 20 30 15 18 6 21 35 7 18 0 37 15 27 9 24 16 7 37 33 35 27 25 3 23 29 28 15 2 11 2 21 25 1 15 32 11 25 26 16 23 33 18 3 38 28 17 33
3639 4538 4281 3594 2536 3283 3228 3049 3719 4445 3399 3612 4957 3981 2600 4446 3088 4794 4457 3012 3739 3620 2897 3907 4953 4079 4502 3696 2663 4085 4248 4809 3911 3205 3482 3847 2804 3293 3719 3101 4016 4826 3219 4600 3545 4077 3275 4765 4351 4840 4318 4390 2935 3294 3478 4822 4290 2920 4757 4326 3824 3729 2583 3006 4943 3697 3105 3278 4470 3045 4796 3620 4716 4484 4773 11 16 32 16 20 19 31 11 6 30 15 20 19 28 38 35 6 15 24 30 20 16 7 21 19 35 4 25 29 24 1 7 26 35 22 35 32 27 0 26 39 39 29 22 18 27 27 8 4 20 20 7 36 34 6 4 20 29 17 7 8 2 36 14 32 13 1 16 19 32 6 5 19 32 18
4840 4516 2790 3756 3750 2625 4460 4744 4791 3051 4729 4233 3081 2729 3443 3773 4965 4861 3067 3837 4389 3363 4891 2577 3632 4540 3535 3343 4537 4336 3381 4928 3333 3265 3232 3449 2660 3136 3867 4281 4065 4044 4821 3395 3606 3910 3825 2610 3935 4457 3067 2530 3071 4180 3178 4451 3209 2529 4202 4258 4364 3053 3666 4932 4879 17 4638 3334 2819 2528 4816 3119 4333 3199 2689 11 36 36 32 35 24 3 20 7 2 10 15 10 8 32 18 16 2 9 23 26 21 10 24 2 13 34 27 24 35 8 36 2 13 23 35 27 1 4 0 19 38 25 5 18 28 29 27 31 28 24 5 31 27 27 38 31 8 16 15 21 7 25 35 3 28 31 26 4 24 29 14 26 7 39
8 2682 3293 2898 2509 4676 4389 3431 3014 2974 2988 4522 3472 4125 3754 2678 3410 3181 2637 2601 3124 4988 11 4566 3057 3707 4698 4578 3100 4120 4567 3736 4878 4039 4951 2668 4160 2697 3128 2562 3928 2708 4095 2996 4794 2929 3905 3667 2742 4638 4602 3822 2547 3674 4095 4004 2848 3089 3067 4679 3586 3236 2542 4738 2549 3466 3708 3236 2908 4486 4427 3790 2539 2628 4176 13 16 21 25 27 28 34 33 1 39 29 38 11 30 25 5 36 34 25 35 24 38 13 31 34 35 1 19 33 33 17 23 36 14 7 15 24 35 32 15 0 26 19 36 27 1 37 26 10 7 20 30 10 39 35 38 7 16 4 5 5 39 33 15 3 20 4 37 28 6 9 16 12 39 19
3118 3014 3785 3411 4076 4579 3549 2509 2580 4585 2942 3466 2829 4285 3835 2712 2906 4002 3436 4809 4510 3479 3362 3305 2803 3834 3042 3660 3293 4034 4484 4841 3785 3908 2684 3892 4679 3937 2625 3263 2650 3774 2869 2835 4265 3269 3468 4902 2685 4523 4270 3516 4132 2906 4684 4202 3606 4300 4511 2717 3607 4637 4359 4678 4193 2772 2717 3213 2668 4708 4457 3617 3934 15 2719 6 35 10 14 24 4 2 18 20 15 38 34 39 21 31 7 1 11 30 15 4 4 25 3 34 14 17 16 19 27 1 20 6 2 31 24 34 22 34 20 33 0 23 24 28 18 3 22 18 4 32 21 31 31 27 33 2 24 9 12 35 8 28 28 1 13 25 13 21 14 18 10 38 32 31
16 3392 3406 4141 2704 4152 4180 2506 4172 3914 4475 3625 4178 4868 4919 3017 4729 4955 4590 3349 2937 3200 4930 3224 3432 4307 4362 4713 4029 2676 4091 2822 3044 4624 4318 4017 3787 2615 4060 3723 2957 9 4704 3011 3411 4288 3087 4232 4778 4553 3164 19 4902 4014 4927 4289 2840 4648 4589 5 2540 3086 2557 2618 2678 4788 2732 4863 2997 4113 4433 3697 4518 2994 3099 5 2 22 19 11 12 8 18 28 20 30 8 5 3 32 24 15 22 10 26 33 14 29 7 35 14 19 38 29 11 20 12 38 4 7 32 7 5 8 21 26 33 0 15 10 11 27 4 6 9 33 23 9 16 24 3 12 33 33 10 2 24 20 39 26 39 31 11 7 13 8 37 18 11 30
4036 3243 3373 4890 4061 3877 4219 3558 4464 3243 3897 3917 3124 2743 4212 3809 4044 4758 2951 3452 3219 4986 2544 3716 3148 2761 3787 4038 17 4876 4008 3456 2999 3950 4674 4752 4731 4210 4122 4209 3958 3048 3981 3847 2787 3251 2665 3253 3480 3038 4280 2926 2977 2893 2665 4214 3983 2931 3902 4368 3803 3717 4269 2619 3818 4892 2679 2885 4174 3795 3974 3839 3831 2675 3386 1 16 16 5 30 14 11 12 30 11 3 27 35 22 7 31 20 13 10 20 27 28 8 2 4 26 14 29 8 12 17 2 22 2 21 38 32 13 2 20 28 2 32 0 5 21 18 32 20 23 11 24 16 23 2 35 28 11 17 8 16 1 9 21 34 20 3 3 13 22 37 9 25 26 5
3341 3404 2920 2989 2766 4575 4505 4090 3832 3705 2597 4862 3068 3165 3631 4523 4333 4721 4628 4160 4897 2659 3782 3888 2951 3101 4033 3321 2756 4924 4403 3311 4471 4642 4695 3556 3933 2599 3520 3190 4414 3540 4455 2701 4265 3344 4680 4433 2947 4016 2959 3293 2865 3014 2741 3409 4846 3068 4522 3811 4478 11 3716 2683 3703 2727 4482 3571 3811 4183 3911 3966 3231 4536 4464 26 8 32 35 38 9 3 32 15 5 9 10 25 28 21 24 34 21 5 31 1 5 28 6 31 25 10 32 18 5 32 8 19 23 30 38 11 29 2 38 23 31 8 24 0 7 8 18 26 5 25 11 3 1 13 39 1 7 3 34 33 23 11 22 30 23 19 30 24 20 21 10 38 15 11
4486 3332 4007 3332 4579 4070 4257 3686 2878 3216 2876 3140 4466 3660 3588 3236 4331 2625 3985 4833 2774 3107 2660 2884 2588 4005 3984 3253 4871 3737 4038 4077 3942 3749 4183 19 3965 4037 4424 4766 4235 3106 4385 4960 4348 2580 2777 3531 3720 4049 3775 2575 2652 4613 4102 3930 4258 2642 4584 4637 4192 3037 4323 4618 4811 4192 2780 4919 3548 3812 3873 3144 3917 3817 2802 19 20 12 15 10 34 15 27 15 15 24 6 14 8 2 37 26 14 19 7 16 37 35 7 11 20 30 2 37 2 20 17 14 35 2 31 13 34 39 17 32 8 5 35 30 0 29 17 20 3 5 37 25 23 2 29 4 38 26 20 29 12 25 17 22 6 39 7 24 9 34 37 29 5 37
2688 4909 4867 2809 4003 4749 4570 2555 4998 3373 3627 2909 4962 4563 4789 4430 3370 4277 2741 3886 3792 4645 4765 4623 3553 3379 3935 4971 3577 3206 3843 2679 3976 3196 4485 3452 3879 3453 4136 3302 2962 2836 3307 3024 2798 3266 4017 4610 4837 4530 4754 3812 3510 16 2868 2741 2616 4955 3604 2879 2937 3490 4049 4477 3493 4174 3124 4489 4871 3215 3995 3976 4163 4629 2512 8 27 10 20 18 12 29 37 21 3 26 34 5 35 4 14 10 6 10 36 9 37 33 12 22 5 33 19 24 2 32 28 2 5 18 25 35 19 20 35 3 30 20 30 1 22 0 27 21 25 32 5 29 28 14 36 14 37 12 11 21 5 10 35 27 32 14 24 33 28 14 3 2 39 3
2882 3135 4451 2902 2721 3326 2801 4662 3828 4475 3458 3477 3064 4801 4482 3316 3589 3189 13 2893 3344 3719 4620 2931 3131 2796 3421 8 4869 2936 4724 3235 4827 3382 4291 3160 3611 3835 3119 3120 2899 2631 4413 4182 4124 2529 3370 4016 4452 4468 6 4132 4642 3688 3227 2548 3123 4649 2856 4707 4485 14 3614 4770 4851 3164 3479 3237 3503 2814 2725 3413 4949 3785 3305 30 11 33 19 14 22 36 7 39 18 22 13 21 18 30 22 18 37 15 35 25 13 1 12 13 6 24 31 30 37 1 29 4 4 12 21 14 33 5 33 6 9 16 33 11 12 15 0 35 28 36 2 29 10 30 22 25 31 16 32 22 21 19 15 31 19 27 17 28 25 6 38 23 35 37
2654 4745 3320 4186 3776 3872 4582 2904 4711 3604 3085 4087 2620 2742 3934 2531 3966 2798 4272 2862 4083 2946 4878 2982 4662 2623 4133 4333 3500 3277 4686 4253 3075 3771 2935 3823 3023 4752 4708 4091 4059 4750 2793 2722 2884 3858 3649 3932 2995 3685 2505 3202 2694 3427 4510 4571 4955 4085 3335 3856 2864 3630 4204 3150 4261 3804 3596 4406 4142 3580 3444 4521 4310 4620 3865 1 26 17 15 6 17 6 30 9 11 39 2 23 5 31 26 21 39 37 23 16 6 11 2 37 1 19 26 22 14 20 2 36 9 34 24 4 1 29 2 30 3 24 14 29 20 11 19 0 38 9 6 33 2 27 31 20 32 11 26 29 27 9 18 24 22 11 36 33 27 23 10 14 35 31
4417 3640 3488 3995 4094 3013 3764 2836 3574 3934 4415 3988 3291 2562 2709 4797 2532 3864 3142 2842 3270 4588 2503 4375 3926 3442 3558 3533 3131 3298 4650 4284 4639 3356 2696 2749 2822 2844 2757 17 3720 4352 4755 3394 3707 3410 4902 3416 4244 3731 2934 2891 4014 3075 3469 3338 3192 3024 4047 4677 2866 3102 2607 2930 3186 3596 3558 3707 4231 4861 3005 4646 3320 3168 4110 18 26 2 25 16 15 8 37 34 29 7 18 4 36 29 14 11 15 1 13 36 36 19 12 1 17 39 15 37 32 27 31 7 13 30 3 3 23 36 3 12 19 28 9 8 20 12 26 35 0 8 32 14 2 39 22 13 15 38 16 39 28 25 30 10 34 35 4 13 6 37 20 10 3 29
3479 4682 3261 3626 3040 2594 17 2780 3273 3285 3667 3343 4524 3570 2753 4398 4442 4521 4535 4081 3341 4562 2947 3785 3203 3529 4141 2724 4720 4477 3770 3629 2538 2627 3343 4780 4959 4921 3968 2784 3093 4659 3194 2798 4021 4384 4338 4424 2776 4134 3640 3319 3483 3747 3881 3254 3580 4066 4396 3308 4437 3675 3980 3702 3754 4368 2982 4515 2858 3865 2730 4081 4216 4590 4403 12 18 11 10 5 32 38 18 26 28 29 11 27 34 18 30 23 30 38 22 31 16 10 13 6 2 4 30 26 38 35 12 3 11 22 14 9 12 12 30 5 8 15 39 17 32 14 20 35 17 0 24 13 32 33 7 1 7 5 28 6 28 14 37 25 18 35 36 29 6 37 18 19 18 13
3703 2987 4793 3936 2552 3542 3768 3926 3900 2666 2644 4883 3142 3163 3802 3123 4994 3669 4578 4081 2843 2756 3496 4926 2661 2754 4050 3084 3959 4873 4901 3623 4654 4789 3423 4707 2768 2568 4938 3249 4550 2704 4985 3008 3096 3338 2683 4734 4168 2864 3510 4470 3517 4678 2672 4857 3167 3715 3051 4925 4297 4560 3916 4318 4695 7 3914 3644 2997 3529 2525 2585 4964 3170 3366 35 29 26 29 11 22 3 34 26 11 21 34 20 37 29 3 1 27 18 30 16 16 39 6 14 35 30 20 6 14 3 12 35 3 6 35 39 29 3 39 2 27 13 31 6 1 38 4 33 38 19 0 6 24 17 38 37 1 12 25 14 21 2 32 20 31 7 36 13 25 31 30 30 38 23
4928 4153 4130 3595 4074 3996 4113 4446 4025 3124 4100 2738 4258 3467 4158 4352 3932 4364 2687 3929 4206 2859 3381 3969 2916 2715 3975 2892 2863 3738 4705 3386 2576 4374 3266 3017 4108 3351 3421 4986 10 3199 3016 2678 4697 4775 3482 3104 3247 2552 4168 4953 4790 4642 3230 3367 2775 4404 4576 2798 3867 2788 3184 4355 2655 3709 4360 4266 3224 4607 13 3562 2770 2666 3817 18 11 16 38 23 6 18 13 16 31 35 25 27 31 12 3 29 21 38 11 26 11 22 38 19 26 24 38 7 26 28 18 15 5 15 9 25 9 35 7 4 37 11 23 25 18 7 38 15 23 26 7 0 24 29 10 23 2 38 6 14 34 25 27 29 34 29 33 29 37 11 6 16 3 38
4473 4258 3103 4306 2516 3689 3999 2862 4466 3155 4261 3821 4231 3461 3299 4801 3519 4231 3942 2502 4374 4461 4408 3454 3335 4735 2618 3216 3375 3416 3257 3610 3037 3084 2568 4064 3667 2589 2799 3659 4764 3564 4268 4136 3717 3998 2522 4585 4886 4263 3129 4575 3351 4338 4798 2758 4420 2979 4206 3376 4734 2858 2683 4293 2950 4226 4178 3160 4629 2813 2986 2899 4460 3936 4695 4 14 32 3 34 9 22 25 18 29 1 17 5 1 37 21 35 1 26 1 6 30 4 24 28 3 33 24 8 12 2 3 13 18 7 32 28 34 12 30 31 6 5 4 2 6 28 1 23 35 25 5 22 0 23 14 28 33 23 33 6 34 2 39 31 38 20 19 17 31 23 4 26 5 27
3846 4370 3321 3914 3328 2862 4505 4161 3711 4964 4049 4156 2982 4157 3057 4470 4010 2686 4951 4148 4471 3672 2698 3387 3152 2801 2512 3862 4977 4336 4088 4446 2823 4356 3445 3979 2729 3936 4823 4405 4108 3339 3311 3697 2863 4638 2668 2810 3191 3329 4018 4449 3618 3004 3127 4386 11 4332 4735 3199 3417 2508 4923 2882 3843 3253 4622 4670 3465 4957 3192 3807 3716 2837 3790 12 31 34 22 28 1 21 1 36 31 33 13 24 8 7 23 12 38 8 18 21 36 31 35 10 16 38 6 19 30 1 38 14 3 24 22 26 12 2 22 20 22 31 32 27 27 2 32 36 5 39 37 4 24 0 23 7 25 39 18 10 33 18 7 34 20 12 2 3 5 3 12 27 24 10
4535 4302 3604 3718 4270 2690 4332 3998 3879 3609 3956 4010 4473 3148 2958 3071 3631 3505 3564 2908 4023 4783 2873 3823 4006 2811 3606 4253 3965 4715 3936 4780 2995 3807 2798 3034 3691 4709 3893 9 4306 3465 3254 4121 4511 2983 2521 3025 3652 4317 3980 4347 3693 4787 4190 3428 4203 2622 4924 2778 4305 4378 2972 3953 2750 4503 3676 3865 4837 3922 3717 4477 3528 4925 2649 37 8 16 30 13 34 38 23 6 15 12 35 30 36 12 20 12 34 32 36 4 38 11 4 9 27 23 23 39 10 11 5 19 2 29 11 36 31 23 12 15 21 28 26 5 4 12 26 18 12 3 39 13 13 10 0 12 15 22 36 39 13 33 13 28 27 6 4 29 21 34 5 30 1 23
4190 2894 2653 3839 3317 3865 4985 2942 2728 4617 2723 4751 3499 3453 3040 2731 3580 4143 3040 3573 4147 2548 2635 3330 3844 3022 2573 4588 4837 4731 4369 4829 3408 4126 4949 3228 3861 4606 3559 4297 2806 2596 3494 3068 12 2979 3704 4785 3440 3881 3878 4405 3581 4694 2792 4578 4404 4508 3142 2804 4655 4879 3895 4245 4622 2715 3472 2595 3384 3223 3892 3346 4363 4072 4910 22 7 21 35 7 15 2 14 11 5 19 8 16 28 19 23 16 25 3 16 25 20 22 37 9 33 32 13 14 20 12 10 20 35 16 5 12 13 27 6 17 17 6 30 22 36 8 16 33 24 17 24 17 4 39 34 0 15 28 21 18 3 9 16 2 1 39 28 6 28 14 38 33 4 22
4618 3326 4632 4843 4397 4178 4405 4937 4587 3419 4969 4072 3408 3268 16 3657 2584 3648 4025 3410 2649 4889 4180 3551 2594 2559 4321 4320 2775 4493 3344 3923 2923 3252 4659 2573 4823 3884 4807 3051 2745 4203 3149 4810 19 3605 3777 2928 4400 3617 4417 4297 3426 4082 3587 4383 4189 2713 4228 2843 4940 4137 4272 2989 2708 2656 3781 3299 3379 3288 3980 3320 2644 3683 4399 8 24 8 24 15 24 21 21 7 6 26 21 34 25 13 28 8 22 24 38 28 12 38 24 28 20 12 33 1 3 11 18 18 30 21 6 19 6 9 26 29 22 36 35 25 25 38 18 14 23 10 31 27 19 13 28 25 0 3 5 18 9 19 35 16 11 16 23 12 32 18 30 10 9 22
3398 3918 2918 4050 3722 3039 3967 3002 3371 4428 4430 3774 3586 18 3629 2697 4895 2893 4719 3811 4661 4915 4423 3992 3081 4697 4310 4008 2616 3716 4211 3925 3200 3445 4803 4735 2632 2509 3135 2797 4990 4673 2944 4449 3409 4908 3376 3250 2775 4291 3058 4312 2949 2633 3101 3507 2783 4012 4497 2622 3100 4670 4101 3966 4031 3927 3134 4378 4006 4754 4688 2778 3595 4139 3582 7 20 38 11 9 5 23 20 14 30 24 23 8 24 4 39 26 11 20 5 1 15 7 6 32 12 1 11 4 2 13 8 36 10 8 16 11 12 29 25 4 18 39 26 27 15 22 39 35 15 9 18 35 13 33 13 2 5 0 5 8 35 28 27 22 36 6 26 9 32 19 28 1 4 18
3931 4218 3058 2772 3897 3519 2827 4595 3320 3923 4703 4714 3025 3938 4433 3664 2958 3092 4390 2784 3006 2931 3174 3124 3629 2716 3647 4406 4212 3583 4611 4338 2698 3659 3764 2530 2552 2602 4335 3896 3462 2654 4728 2833 3024 3095 3763 3843 2706 3577 3288 4577 3010 4750 3583 3663 4651 2845 4704 3450 4692 4840 3919 4616 3439 4682 4700 4957 3776 4537 3207 4963 4034 3352 4365 18 5 18 10 31 8 21 27 14 27 23 32 9 17 25 9 34 31 6 35 38 35 18 36 29 25 27 11 38 38 22 5 35 8 38 24 36 31 26 1 23 23 35 3 21 30 36 24 18 16 4 20 17 16 18 32 5 15 26 0 32 37 20 24 16 4 36 33 22 23 26 24 20 21 32
4799 3253 4411 2967 4419 4561 4601 4995 4333 4089 4978 3357 3510 2647 4391 3577 2922 3663 3998 3536 4342 2658 3993 2775 3255 4725 2766 3659 2808 4040 4922 2866 2759 3555 4744 3539 4939 3162 4254 3814 2970 12 3436 2625 4304 2616 2800 3298 3785 4528 4540 4255 4923 2915 4262 3982 4541 4525 2854 3276 2683 3735 3978 4301 2562 3643 3110 4934 2913 3521 4243 4837 4756 3788 3425 39 29 6 1 31 10 29 16 26 26 21 31 6 38 25 31 35 35 21 23 22 33 25 25 14 29 29 13 20 22 39 32 3 17 21 35 8 25 31 25 39 8 30 16 12 26 6 29 15 8 22 10 8 29 22 30 3 20 35 30 0 6 1 36 30 27 13 36 27 32 1 38 12 17 20
4166 3742 2529 3324 3703 15 4784 3210 2557 4862 3604 3123 3464 2764 4775 3316 3872 3100 3020 2923 3540 2815 4864 2625 4366 4072 4242 2864 4840 3036 2524 2767 4930 2611 2803 4285 4975 3782 3780 4825 3215 3203 4780 3185 3227 3146 2967 2615 4119 2904 4157 3034 2817 4377 4510 3932 4026 4976 2950 4029 3797 2762 3540 4232 4584 4639 2568 2918 3342 4184 4706 2737 3090 3201 4294 33 26 11 35 20 9 35 23 16 11 36 21 2 20 5 9 12 31 23 9 19 39 29 3 37 16 33 6 19 16 28 14 25 28 37 17 7 34 36 37 32 20 28 34 39 3 39 11 13 22 9 9 2 33 22 38 14 4 7 34 10 0 22 17 28 21 3 3 39 29 16 38 2 11 35
4670 4666 3470 2731 2687 4822 2551 4050 4903 4095 4035 3913 2806 3863 4501 3564 3076 3950 4300 3587 2764 4723 3469 4353 4455 3570 2828 3576 3365 4144 3069 3464 2987 4293 4561 4481 3633 3190 4170 3857 2921 3530 4873 3506 3624 4110 3394 4717 4434 3601 2597 3774 3418 2922 3284 4879 4993 3022 3651 4236 4060 4072 4556 3470 3529 3049 4067 3556 4453 2722 4992 3524 3670 4243 3144 35 28 9 11 23 8 34 25 26 15 22 11 38 20 22 13 31 33 4 28 26 10 35 16 30 10 19 16 31 37 36 3 34 18 39 16 24 9 3 17 11 39 8 34 37 20 37 4 4 30 38 37 31 23 26 33 36 5 30 26 16 22 0 21 28 24 36 13 30 11 20 11 2 18 15
4929 3821 3227 3376 2561 2533 4426 3662 3857 4829 2932 2622 4351 3714 2640 2567 4622 4329 4729 4673 4347 2983 4725 4142 4761 7 4479 2606 4276 4556 4583 4393 2912 4438 2992 2895 3361 4929 2906 4753 4544 4159 4336 4236 4393 2520 3781 2601 4794 2750 4881 2844 3756 3041 4752 4294 3462 4191 4471 2662 3524 4039 4375 2617 4493 3507 4865 4298 4901 3621 9 3037 4775 3821 2852 10 9 3 34 8 1 2 11 4 4 26 25 31 37 24 34 15 7 22 16 13 11 7 9 31 17 36 6 9 17 22 13 36 25 23 33 1 26 8 22 34 2 38 25 10 13 21 37 7 11 10 5 17 15 22 17 14 35 27 26 7 16 8 0 7 34 3 10 16 23 17 20 32 7 29
2809 2799 3498 3785 4423 3093 3012 5 3306 4712 2525 3330 4579 4603 3004 3996 2854 3780 4699 3297 3792 4685 3655 3716 3756 4905 3344 4076 4323 4145 4661 4929 4162 2686 13 4718 4174 4206 4002 4653 3519 4720 4222 3646 3216 4590 15 3022 2986 4214 3761 4862 3066 4479 4510 3929 3031 4514 4806 3757 3572 2550 4080 4573 3486 3160 3485 4714 3939 3088 3049 2797 4636 4477 4531 29 36 13 30 19 37 22 32 13 36 1 11 9 8 27 2 39 30 18 27 29 21 23 23 30 11 34 27 28 8 8 18 5 21 4 6 29 39 3 15 4 33 37 11 28 3 35 16 13 14 15 31 21 21 5 28 7 36 14 10 23 18 39 16 0 11 21 19 12 20 28 2 38 37 37
4963 2887 8 3407 4016 4879 3480 4405 4950 4377 3290 3365 4443 3104 3902 2991 4608 3110 2871 2866 4385 2733 3638 3311 4561 2597 2541 2714 3321 4645 3709 2965 4184 4250 3418 3652 4056 4832 2628 4049 4393 3182 3567 3137 4302 4507 4540 4934 2686 3257 3728 3220 3042 4209 4952 3249 3075 18 2691 3809 4605 3745 2856 4230 2521 10 4249 3473 4983 3497 3907 2867 3023 4759 3315 29 38 26 7 2 11 32 13 39 38 38 37 20 22 5 30 14 22 11 26 25 1 36 33 29 34 38 32 3 32 30 29 22 25 14 31 15 7 1 37 32 30 32 17 9 6 25 38 35 21 1 32 21 8 21 17 31 34 27 21 13 33 5 35 2 0 36 15 19 37 35 1 4 6 11
3128 2679 4104 4600 2999 3380 4446 2721 4114 4384 4311 2923 3703 4526 3854 2756 2959 4946 4692 4879 3942 2526 4128 3584 3893 4230 3748 3996 3510 3507 3799 4410 3372 2686 3574 3037 4151 4466 4728 4669 3987 3251 4039 3708 4452 2928 3932 2983 3118 3826 3866 3756 3763 2801 4903 3372 3581 4819 3324 4393 4089 4962 4598 4486 4235 3922 3388 3887 10 4343 2726 2599 3566 4919 4183 26 17 21 36 2 35 34 33 19 3 3 34 32 32 16 8 35 30 32 6 16 2 14 25 16 1 2 38 25 14 32 7 26 33 30 16 16 33 7 12 25 27 10 32 33 26 29 28 9 29 11 7 9 15 28 7 2 34 33 27 38 31 6 31 9 39 0 19 30 37 30 16 36 31 17
2506 3325 3864 3705 2931 3391 2697 4534 3275 3058 4250 3331 3032 4644 3648 3084 4553 4814 4224 4284 2659 4109 4900 2712 3840 4079 2709 4490 2788 3331 3620 4840 4552 4104 4022 4756 2641 8 2680 3523 3997 3126 3851 4134 3972 4601 3756 4549 4114 3524 3805 4174 4527 3007 2532 3979 4368 3957 4311 3367 4301 3985 4154 3033 4498 4997 3939 3115 3499 4706 3987 4308 2783 4203 4023 22 10 14 31 20 29 17 12 2 27 33 32 28 20 27 36 25 3 22 24 28 3 32 27 4 32 5 28 10 28 28 36 9 4 12 26 13 27 27 28 30 25 5 38 23 5 39 27 22 11 6 5 34 33 29 25 1 23 35 31 12 9 26 37 3 26 21 0 38 16 20 21 33 6 10
4295 4047 2632 2917 4643 2566 3391 3471 8 4644 2983 3368 4946 4431 3267 2855 2827 4371 4031 2560 4739 3547 4266 3463 4867 3412 4962 3842 3504 2997 4917 4842 2925 4475 4451 3243 3351 3557 3723 3224 2985 4699 3907 3848 2997 4223 2951 3818 3531 4641 2853 3680 4781 4332 4387 4992 3188 4497 2666 3949 3300 3835 3823 3006 4707 4263 4179 4420 3136 3998 3426 3098 3488 3538 3663 10 32 11 33 9 30 1 25 10 15 28 15 17 30 39 12 11 16 21 6 8 16 32 22 13 18 31 29 6 5 18 34 16 3 39 2 14 36 27 24 18 23 20 16 27 29 28 21 8 6 11 13 14 16 36 18 39 8 32 32 25 5 36 30 22 31 21 21 0 31 11 28 38 16 18
4988 3415 3355 2610 3673 4150 2654 2961 4475 4196 3634 4785 4251 4069 3871 3234 3168 2819 4054 4589 3649 3072 4604 2586 3934 2938 4325 2565 2707 2851 3762 2533 3581 4598 3784 2937 4896 2619 3626 4507 3678 3050 4846 3398 3214 4514 4075 4083 3148 4774 4388 4117 4431 3699 2880 3078 3352 4860 2517 3940 3400 3065 2971 3216 4697 3960 3127 2710 4170 2825 4381 3700 4468 4776 3588 14 30 35 1 5 6 18 18 26 28 33 39 17 26 31 24 18 33 17 12 34 28 14 18 2 12 5 14 22 1 34 11 32 26 34 38 16 34 20 19 15 16 3 24 9 19 17 15 20 24 38 21 34 7 37 20 26 37 27 21 36 32 32 37 1 1 12 32 30 0 26 27 7 1 35
4891 4934 4962 3072 16 2728 2562 4938 4952 3718 2594 4045 2915 3475 2689 3521 3994 3577 4681 4940 2562 3820 3847 4922 2529 3756 4341 3649 3594 4508 2770 2703 4391 4340 4221 3019 4638 4465 3451 14 4838 3341 2704 3475 2951 4848 3973 17 3165 4171 4889 2590 4008 3098 4238 3284 4044 4297 3325 3179 4285 2980 4063 4523 4802 2757 2703 3525 2611 3665 2669 3323 4954 3902 3217 31 33 36 11 10 6 38 8 35 39 29 19 1 2 24 25 18 1 22 22 23 17 25 5 35 6 12 14 25 28 1 4 34 17 19 33 1 4 1 4 14 8 7 27 16 19 12 12 3 27 23 16 21 26 31 1 6 13 4 34 17 17 22 13 19 7 3 28 37 14 0 5 1 30 10
4385 3288 3145 4467 3506 4299 4139 4525 2662 4259 4139 4526 3774 2558 4067 4752 4113 4784 2893 18 4793 3085 3123 4260 4501 4648 3183 3550 4907 4128 3477 3432 3467 2503 4189 3701 2635 3597 4257 2964 3980 3863 4225 4035 8 3856 4876 2576 4793 5 3270 4339 4305 2966 3530 4302 3295 4378 3614 3108 4970 4064 2892 3579 2886 4698 3308 3656 2569 4912 4774 3481 2850 4270 3733 36 19 21 27 29 17 38 38 30 29 34 38 6 14 19 20 29 36 24 11 22 9 25 16 7 35 2 26 27 7 22 20 32 4 19 12 7 27 37 28 20 20 39 20 21 25 5 37 37 20 31 36 35 20 18 39 34 19 33 15 35 19 13 4 15 30 36 18 3 24 22 0 3 3 2
3313 4028 2975 3060 4392 4944 3023 4354 4299 4379 2970 4890 4787 2581 3475 4972 3119 4390 2789 4517 2638 4636 4550 3378 4064 3096 3079 3737 4565 4022 3832 4029 2503 3930 4752 2911 4815 3231 2957 3763 4097 4546 4805 4351 3057 4257 4936 3993 3223 4797 4485 4902 2647 3976 3232 3780 3978 4895 3364 3560 4084 4270 3272 3467 3642 3327 2890 3464 2689 3388 2684 4518 2579 4522 2891 2 11 6 11 15 24 16 16 19 18 33 25 21 12 3 35 37 2 25 22 4 23 19 32 8 11 30 7 6 38 21 2 31 36 11 16 24 26 30 25 22 37 10 21 22 1 12 24 31 25 1 33 20 4 12 9 13 14 38 21 34 20 28 30 29 21 23 18 15 26 3 33 0 35 9
3500 3577 3682 3715 3026 3756 4082 2931 2729 3723 3346 3583 4775 2913 2518 4735 3900 3584 4297 2590 3485 3045 3619 3855 4405 3852 4284 2764 2937 3614 4313 3284 2753 2918 4609 2850 4631 4542 3371 4588 2554 3621 4995 2854 3039 3802 3626 2730 4344 4391 4073 4589 3694 4939 4494 4532 4043 3251 3647 3060 4489 4243 4627 3598 4811 4770 3354 3653 4562 4791 4651 4171 3908 4888 5 38 34 24 6 36 2 27 6 39 39 6 8 15 16 2 34 5 13 32 34 19 8 38 19 23 28 25 31 4 37 21 10 9 29 33 3 24 23 3 11 12 35 8 34 6 12 8 18 10 18 16 14 7 8 3 10 36 8 5 38 15 9 12 7 17 10 11 10 35 7 5 24 4 0 2
3483 2750 3790 3766 2643 3938 3783 3480 3569 2680 3359 3255 4727 2939 4041 4902 4900 3236 2587 4452 3453 3915 2557 4755 3235 3716 3960 4510 3228 2723 3479 3252 2675 4059 4115 3866 4888 3851 2962 3725 3017 3035 3532 3899 3509 3049 4254 4103 3151 2556 4426 4720 4783 4584 2538 4606 3450 2874 2950 4853 3086 3732 4598 4991 2949 2518 2827 3097 4313 3549 3945 3760 3465 3383 4150 21 29 8 36 4 19 23 6 24 3 26 23 29 18 32 30 4 35 5 20 28 32 27 27 9 25 37 27 9 22 5 11 31 29 31 23 32 35 30 14 6 15 25 36 13 5 5 30 3 10 5 14 20 6 36 39 9 28 2 15 21 31 1 27 4 32 9 5 18 34 30 30 38 34 0
EOF
