NAME: christofides_hard_n350_s0
TYPE: TSP
COMMENT: christofides_hard generated explicit tsp
DIMENSION: 350
EDGE_WEIGHT_TYPE: EXPLICIT
EDGE_WEIGHT_FORMAT: FULL_MATRIX
EDGE_WEIGHT_SECTION
0 16 18 18 38 31 39 16 11 20 7 14 38 31 27 13 4 34 14 25 28 26 19 3 12 10 29 31 2 3 6 26 34 6 34 20 37 36 28 9 1 13 27 9 14 18 5 4 1 8 2 22 6 25 37 25 6 38 34 16 8 3 19 21 6 36 24 3 38 24 8 14 10 8 1 39 38 20 9 27 35 21 33 17 35 37 39 1 23 30 37 38 23 16 8 19 7 1 1 39 36 12 38 23 16 36 18 31 36 28 14 31 18 10 19 10 22 25 20 35 25 19 18 24 34 36 2 36 13 36 39 33 29 27 8 20 17 11 28 21 7 33 37 20 4 38 33 5 16 33 9 2 5 27 35 19 14 13 39 11 25 26 3 27 5 35 22 9 18 7 4 19 5 13 35 2936 4719 3793 4539 4526 2567 3538 2802 3457 3274 3436 4320 4089 4003 4404 4032 3358 4236 3647 4058 2841 4947 4119 3745 4930 3003 3529 4239 2790 2738 2512 4070 4262 4918 3288 2916 3219 4832 2817 3038 4850 4213 3812 3411 2612 2539 3731 4733 4241 3778 3137 3946 3980 4228 2572 2865 3988 3622 4825 4527 2700 4593 4588 3107 4508 2895 3394 4157 3419 3395 2714 3316 4820 2541 3492 4284 4510 3473 2619 3505 4219 2639 13 4419 2836 2584 4294 3191 3637 4280 2705 3731 3409 4233 3709 3692 4570 3529 2740 3066 3059 2812 3732 2606 2676 2574 2612 3778 3777 4442 4976 4396 4072 4064 2617 4869 2513 2502 4334 3648 4708 2684 3082 4331 3664 4768 2692 4629 3400 4548 4669 3664 3874 3770 3844 4329 4257 4788 3328 4968 3164 4705 3232 3102 3394 4472 4665 3517 4150 4490 4004 2992 3429 4197 4266 3988 2662 3665 4800 2652 4495 4980 3659 4292 2892 3268 4307 4826 4818 4145 3447 3054 2618 3083 3575
23 0 19 1 9 31 16 27 28 12 35 11 8 13 9 13 1 33 9 2 30 24 7 35 30 16 37 38 12 21 27 10 9 3 9 29 8 13 22 33 4 14 16 1 18 32 25 27 3 17 14 6 26 38 21 37 14 6 16 23 5 12 23 4 24 38 38 33 26 23 27 23 8 9 24 19 26 17 13 6 31 20 26 22 28 32 25 14 21 19 11 3 18 38 16 31 19 11 31 23 11 14 31 1 1 11 1 3 24 22 36 17 9 36 39 24 5 31 20 4 13 30 8 16 12 1 6 32 6 22 10 27 7 38 11 6 38 10 1 25 4 25 9 8 11 19 39 8 21 28 12 38 32 16 13 19 27 21 34 24 32 17 19 14 22 28 37 24 17 29 18 34 2 31 27 4071 3534 3314 4899 2701 3651 3858 3445 2917 4419 4989 4092 3382 3033 3701 4668 4195 2916 2809 3192 4089 2690 4628 3544 3702 4941 4775 3419 3366 4718 18 4554 4874 3600 2548 4299 2998 2825 4572 3319 4635 3007 3549 2926 3697 4184 3138 3507 4570 3540 4460 3239 2635 3973 4439 2645 4472 4573 4008 4598 3796 4232 4444 2641 4038 2529 4602 3705 4461 3449 2901 4350 4565 4135 3632 4189 4188 2832 4669 2765 2600 3879 4850 2990 4263 3019 3038 4149 3836 3617 3134 4455 4042 4280 2806 3684 3384 4505 4822 3220 4155 4235 4502 3327 3564 2946 3941 4797 4852 3506 3044 4741 3594 4940 2613 4592 4547 3728 4102 2557 4637 2732 3434 3877 4972 4795 3566 4083 4425 3828 3849 4140 4261 2705 4425 3555 4018 3377 3073 3367 3775 3218 4680 4819 3701 4309 3075 3515 2543 4549 3196 2748 4673 3781 2907 3421 2528 4231 3713 3179 3885 2892 2964 3277 4572 3523 2748 3707 4916 4803 4105 2503 4165 3622 3590
29 36 0 37 8 10 22 30 38 23 39 12 32 36 31 28 5 4 35 24 11 6 37 1 28 14 27 16 31 5 21 16 11 2 21 16 18 5 36 12 31 4 5 4 26 22 38 16 6 8 4 32 2 14 15 33 2 4 26 34 23 11 5 4 6 9 36 26 11 13 10 7 30 15 6 17 28 9 6 29 34 35 14 37 22 33 9 11 25 30 26 32 5 39 8 28 25 11 28 19 12 15 34 34 17 28 5 2 3 6 13 19 36 8 3 1 6 9 16 15 37 27 22 24 19 3 32 15 5 2 17 6 2 17 32 19 38 14 2 31 28 3 4 29 20 39 23 31 4 13 13 10 8 20 13 33 5 20 16 32 33 24 35 20 2 24 10 23 17 5 25 29 24 1 1 3734 2605 3358 3320 3324 4108 3426 3231 2589 3135 2747 4224 2968 2521 2596 4326 3648 3890 3082 3894 3172 3096 3812 2509 3133 3006 4398 3046 3234 2735 4830 2675 3064 4688 3847 3868 4867 3722 4013 3995 2709 2803 4606 3020 4630 4283 4066 2686 4564 2847 3613 3446 3927 4089 2602 2540 4432 2764 3425 3792 3689 4031 2943 3188 4541 3593 4543 3656 4991 3055 3450 3765 3086 4043 2907 2737 2906 2952 2613 4229 2638 4989 4515 3665 3361 2878 3225 2864 2704 4530 4439 3872 3335 4818 4420 2899 3377 3976 4953 3170 3183 2806 2521 4553 2604 4495 3523 4468 4153 4904 2942 4756 4512 4713 2662 4501 4797 3915 4600 3912 3473 4335 3932 4818 4837 3049 4542 3115 4942 3797 3824 2697 3898 3719 4846 3949 3565 4442 4213 4666 3706 2898 4280 4034 3013 4910 3988 4408 4865 4677 3094 3250 3258 3339 3827 3378 3935 4125 3732 2884 2946 3772 4965 3790 4305 4662 2834 4426 4774 2835 4047 2857 4858 4345 4852
19 1 28 0 6 15 28 10 39 3 27 5 20 10 4 2 35 31 29 15 10 19 5 4 19 13 5 2 9 2 34 24 1 38 37 21 9 22 31 31 5 18 26 19 16 24 13 22 37 11 23 26 22 7 28 24 29 12 35 26 39 4 13 37 27 11 12 21 17 8 1 25 14 27 25 1 27 6 13 38 36 17 39 28 15 23 14 2 19 36 32 25 7 10 23 35 26 15 19 38 19 36 14 38 2 22 24 8 6 37 34 6 6 3 24 33 39 20 37 11 19 17 19 2 25 37 12 24 18 17 9 23 16 24 4 6 9 27 29 34 20 18 35 20 4 19 15 38 22 19 34 32 20 14 10 6 18 28 27 12 22 27 11 26 27 25 2 17 23 27 32 29 28 34 7 4752 4276 4133 3986 2796 4551 4685 4362 3174 2765 4129 2872 3454 2541 4126 3101 2805 3648 2573 4485 2985 4336 3113 2536 3546 3226 3295 4673 3639 3312 4527 2934 2875 4987 4918 3670 3403 4546 4929 3758 2981 4343 3066 4521 2544 4265 4422 4487 4482 3420 4596 3655 3983 3633 4533 3104 2574 3084 3177 4610 4374 4576 3530 2782 3679 3390 3911 2914 4930 4061 3871 3876 3632 4122 4911 4317 2520 3843 2562 4751 3426 2708 4824 3713 3711 3743 2617 4024 3396 4260 4078 3759 2733 4629 2849 4786 4144 3677 4783 4298 4706 4564 3696 2577 4533 4243 3106 2501 3191 2967 3128 2850 4039 2606 4811 2862 4564 4849 2530 4083 4651 3736 2547 3199 3978 4154 3623 2919 3466 3829 2500 4316 4141 2849 3996 4069 3857 4753 3199 3141 4293 4134 3734 3638 4221 3077 2960 2608 3628 4606 3123 4287 2882 4773 3389 3882 3461 4636 2640 3489 2805 3728 3362 4072 4635 4218 3888 4089 2972 2745 4567 4586 3474 4499 3599
37 7 8 5 0 8 25 12 24 38 21 27 2 39 36 29 33 3 33 2 9 29 28 2 32 4 7 23 16 15 5 27 36 26 37 5 15 26 12 17 3 21 35 14 3 31 26 32 9 19 17 25 15 5 29 33 6 4 1 7 36 28 14 29 1 29 24 35 4 30 24 6 5 31 20 20 7 17 17 34 32 17 17 21 1 12 18 37 38 19 7 23 1 5 38 10 9 18 27 22 7 10 38 35 2 28 29 15 33 17 19 21 13 14 36 1 17 8 22 29 27 31 38 34 5 15 20 22 4 22 37 23 28 1 16 14 10 29 14 10 16 37 39 34 29 23 11 9 36 18 3 26 1 1 39 28 8 33 7 37 25 29 8 34 9 6 37 15 12 22 4 1 33 8 11 4671 3727 4952 2998 3632 4025 3352 3980 2798 4523 3528 4490 3997 4443 3930 4345 3986 2524 3950 4692 3331 4980 3825 2982 3396 4413 3392 3403 4408 2959 3395 4356 4663 2613 3269 4564 4412 3355 3579 3273 3700 4738 4037 4842 2683 2739 4803 3749 4799 4186 4487 3966 3391 18 4996 2941 4010 3263 2500 2846 2805 4893 3774 3137 3889 3326 2807 3549 4357 4556 4297 3818 3712 3039 3286 4624 3389 4301 2944 2995 4466 2975 2850 2909 4131 3817 3847 2638 3289 4186 3003 3687 2785 4659 3945 3090 3718 4688 3691 4677 4947 2834 3160 3243 3734 4695 4612 2921 3543 3794 3555 3219 3703 4676 3050 4808 3018 3803 3779 3664 4672 4500 2871 4464 4156 3090 3030 4355 4221 3633 4554 3310 3399 3420 2612 4096 4969 4410 4074 3651 4312 4751 3463 2787 4352 4984 3078 3858 4478 3482 4438 3087 4993 2605 2851 2883 3442 2996 4287 2798 4953 4717 4546 4725 4715 2721 2746 4327 2977 3688 4040 2598 2872 3487 3148
14 2 32 17 39 0 11 13 38 1 34 33 17 34 1 26 19 39 36 23 21 19 36 35 38 33 19 26 18 33 39 31 17 14 30 39 38 14 28 37 33 18 8 36 30 14 30 34 29 14 30 7 30 27 35 27 7 14 27 37 24 16 25 39 19 31 22 13 21 13 4 17 36 38 33 36 31 8 9 10 9 36 22 4 5 30 31 28 34 20 5 10 33 38 24 33 14 19 37 22 21 16 16 9 1 16 14 12 38 33 1 27 21 31 25 37 22 9 10 8 17 19 3 9 9 5 18 24 19 28 28 27 23 16 28 28 7 31 21 21 16 24 38 32 29 36 31 28 34 17 26 3 30 35 31 16 17 34 30 9 12 25 16 35 3 6 11 19 21 7 18 39 6 25 13 4574 4701 3421 3676 4610 3485 3909 4732 2891 3034 4900 4766 2869 3906 4510 3932 4646 4568 2677 3985 2749 2520 4731 3011 4966 3480 3823 3286 3551 3519 2507 4409 3116 3022 3602 3698 4668 3142 4717 2595 3807 3853 4965 4274 4064 3997 4360 2821 2792 4647 2861 3206 2999 2745 3201 3648 3317 4029 4602 2925 2721 3063 4342 4586 3396 3390 2561 4395 4454 4560 2567 3311 2746 3784 4986 3770 4555 3589 4673 3698 4421 3005 4530 4688 3439 2787 2595 4882 3407 4660 4750 3656 3924 3482 3537 3400 2661 3093 15 4185 4657 2527 4442 2650 4389 3432 4578 2872 2825 3604 4419 3462 8 4455 4391 4529 4081 2701 2564 4366 3745 2840 4715 3286 3581 4327 4219 4501 3882 2760 3182 3881 2566 4426 3718 2615 3548 3676 4670 3205 4032 2736 3880 4369 3388 4371 3622 4404 2815 3645 4615 3001 3936 3378 2758 4833 4523 4663 4539 3710 4302 4030 2527 3999 3270 3176 3054 4796 3608 4852 3097 4492 4019 4639 4873
1 30 2 2 38 38 0 18 29 37 4 9 2 8 22 20 9 20 9 3 34 20 3 4 2 4 20 2 17 16 30 20 7 25 18 25 11 2 19 25 25 33 33 5 39 19 36 8 1 27 18 38 36 32 35 5 8 18 7 8 1 22 23 18 27 38 36 34 15 38 12 17 28 34 31 29 28 31 34 6 27 22 25 39 23 15 37 24 16 19 35 19 33 17 29 33 26 4 13 8 10 30 15 6 36 8 15 31 9 28 20 19 23 11 17 20 5 33 39 35 31 24 36 11 24 34 25 27 18 38 5 12 30 30 25 4 1 6 21 30 25 7 3 4 30 9 31 32 13 39 33 9 24 34 22 1 6 29 37 36 32 18 17 39 5 1 16 36 2 33 38 18 25 21 25 3830 4506 2971 3545 4855 4461 4402 4913 3332 2687 3594 3139 4823 4935 2736 3599 4135 3673 3891 4169 3329 4532 3818 2940 4677 4184 3994 3054 2669 4678 4637 2657 4222 4262 4774 2819 4150 4739 3349 4143 4889 3458 2638 4764 4629 4306 4961 3605 2864 3343 3808 3796 2688 3275 2664 2675 3607 2740 3928 4635 4583 3328 3077 3637 4498 3358 4338 2534 3639 4573 4808 2603 3209 3530 3603 4526 3375 4897 4261 4417 4860 4681 3533 2722 4368 2733 19 4430 3332 3118 4167 4664 3370 4313 3339 2827 2760 3227 4525 3409 4811 4013 3823 3587 3482 4828 3403 3680 2716 2958 4606 3971 4127 4726 4301 3590 3269 4765 2502 4764 2829 3339 3262 3438 4428 4879 3313 3166 4618 3171 3668 2640 3122 4840 3997 2928 3066 3045 2577 2687 4470 3236 4218 4978 4971 17 4461 3428 4820 4948 4136 2640 4577 4652 3204 3153 3117 4891 3056 2896 4339 3180 4135 3869 3661 3844 3550 4365 4939 4576 2946 2567 4172 4409 3731
39 12 32 31 32 36 25 0 13 16 38 20 7 3 9 19 30 26 15 16 36 14 1 23 21 29 38 19 27 25 37 6 9 14 32 26 14 28 29 38 36 16 9 16 22 29 19 5 16 23 31 18 17 6 26 8 9 28 39 31 25 18 36 29 16 11 3 3 4 21 17 2 27 25 34 29 22 20 38 18 22 26 20 36 7 11 32 29 11 6 26 8 39 37 16 4 5 1 13 21 15 13 35 1 5 8 39 30 33 9 34 23 23 17 14 39 31 2 24 16 20 22 29 23 21 32 29 28 4 4 8 28 27 8 30 38 32 12 11 28 39 16 34 19 8 3 24 23 24 32 32 9 6 36 1 25 20 29 16 20 5 17 2 2 4 19 29 29 27 19 36 21 1 36 3 2804 3492 3490 2536 4358 4233 2774 3808 4524 4094 3472 2690 2815 3873 2694 4375 4495 4879 4094 3558 4111 4977 2978 2813 2868 3800 4068 4752 3270 4752 4291 2657 3726 2537 2567 4819 3593 4594 2908 3347 3066 4351 4747 3574 2791 2601 2808 3414 3040 4415 2735 4107 4219 3189 3279 3639 2949 4004 3468 4095 4355 3794 4923 4064 3059 4321 4610 2882 3180 2890 19 3540 4222 3995 3361 4403 4197 4052 3066 3752 4019 3015 3997 3390 3053 3260 4490 3851 4996 3773 2662 2770 2908 4512 2682 4121 4862 3593 2985 3915 3207 4956 4850 3506 2899 4009 4464 2544 3730 3861 2824 3854 3216 4202 3210 4883 3552 2766 3849 3123 4642 3325 3974 3407 3939 3186 4675 2721 3179 3277 3666 4421 4616 4810 3563 4206 2700 2780 4227 4517 4711 3705 2782 3167 4129 4561 2831 3528 2551 3378 17 2884 2918 3332 4045 3499 3375 2585 3031 4279 3549 3377 4020 2642 4019 3876 3600 4946 4319 4432 2813 4193 4728 2908 3023
31 27 20 5 35 1 12 9 0 15 18 4 29 11 8 10 14 1 28 29 17 39 3 5 29 3 14 19 18 9 24 21 18 15 1 21 31 29 19 13 33 3 25 3 24 12 33 38 36 3 7 23 21 26 33 38 21 16 10 17 19 34 37 3 38 15 39 24 15 37 39 14 24 25 1 10 17 11 11 24 12 1 34 11 12 27 20 22 10 22 2 20 3 27 30 21 15 29 21 9 1 31 12 38 25 27 19 1 14 33 37 32 6 27 34 26 39 1 3 4 11 13 28 37 36 33 2 30 4 2 28 29 1 3 35 10 19 2 22 12 20 23 3 22 33 6 19 15 39 13 10 4 1 16 36 4 23 31 28 4 29 17 19 34 12 5 31 20 28 21 12 29 26 36 4 2517 3501 2714 3279 4524 2944 4088 4941 4924 3919 3144 4483 3002 4642 4206 3470 3572 4485 4677 4535 4522 4828 4844 3323 4845 3834 4971 2520 3765 3311 3723 2795 4384 2574 4203 3398 4613 3527 3484 3233 4770 3312 4100 3907 4888 4263 3152 3142 4339 4369 4716 4136 4988 2936 2922 3090 3023 3715 5 4052 2967 4624 3087 4397 3755 4577 4158 3850 3170 3265 2839 4644 4310 3619 4229 3196 3412 3751 3188 4628 2576 2603 2856 2601 3127 2815 4014 3361 3883 4312 2775 4094 4720 2749 4567 4700 3221 4802 3050 2592 3326 3634 3614 3910 3607 4366 4761 4985 4321 3811 3193 4800 4841 4048 2850 4083 3164 2730 3100 4338 4926 4798 3931 4641 2943 4457 3710 4818 3511 2500 4998 3803 4040 4817 2987 4786 3684 2942 3339 3746 3277 3244 2797 4999 4175 3382 4568 4905 4471 3475 4387 4881 3172 2845 4137 2960 3159 3707 2851 3245 2750 3187 4645 3426 3662 4210 3242 4793 3903 3622 4725 2769 3354 3358 2633
30 30 5 30 15 3 31 38 19 0 13 32 30 33 12 28 36 27 39 12 32 38 18 19 30 16 8 20 21 29 38 9 3 15 4 39 21 1 12 26 10 18 2 31 27 19 1 25 37 1 4 6 33 32 27 20 23 26 14 38 35 36 13 26 16 23 21 13 33 11 29 33 11 23 22 31 30 28 1 19 16 16 14 34 6 3 28 28 34 5 27 26 36 6 17 19 7 8 24 6 2 2 27 34 25 6 37 30 22 5 12 30 2 21 29 11 35 2 4 16 4 15 30 25 33 18 35 35 33 21 38 32 26 10 4 4 14 21 33 7 34 30 9 9 31 14 16 20 30 33 8 12 20 14 1 19 37 33 8 25 27 14 15 37 30 27 35 9 31 1 38 20 19 37 22 4266 4597 4605 3552 3933 3875 3181 3782 2898 4387 3277 4101 2572 4408 3901 4995 3521 3632 4145 3910 3777 2774 4582 3342 4363 3656 3742 3680 3422 4516 3790 3341 3435 4715 3624 4849 4997 3855 4985 3511 4104 2588 3187 3735 3049 3449 3497 4741 3099 4035 3692 3392 4254 4501 3994 2979 2844 3362 2512 3786 3556 2902 4597 4046 4391 2558 4747 2571 3311 4122 3877 2515 3939 3097 3839 2909 3160 4923 2548 3363 3628 4798 4611 3825 3270 3775 3142 2888 3775 3701 3798 2755 3772 4545 3129 3471 4757 4871 3907 3706 2726 4866 3365 4193 2548 4443 4739 4085 4268 3893 3292 3147 4006 3276 3043 3933 2771 2624 4358 3343 2680 3466 4375 4456 4736 2915 3390 2675 4684 2693 4773 3148 4788 3149 4353 3388 4770 3816 3566 3923 4750 4302 3037 4902 4087 4143 3778 4798 4501 4890 2666 3279 3352 4379 4135 3550 4315 4862 3914 3392 2597 4523 3889 2886 4325 2637 3795 4443 4368 4978 4063 4389 3858 4351 3885
12 36 23 10 23 27 2 27 11 15 0 29 13 13 7 4 28 33 5 8 11 17 22 13 16 21 30 17 26 14 12 7 36 34 27 5 19 20 38 19 21 25 26 5 8 12 26 19 20 37 9 28 10 23 3 22 36 15 13 20 37 28 3 5 24 31 17 28 27 35 17 4 3 2 19 12 15 27 30 23 15 34 15 25 17 37 10 15 22 6 30 38 1 8 22 14 33 29 10 2 12 21 34 6 4 33 31 38 32 13 12 34 13 33 19 5 30 10 20 34 18 13 7 9 20 32 34 4 3 14 33 34 38 18 1 38 17 8 14 18 32 6 3 19 18 23 3 1 30 18 38 12 32 37 6 3 27 14 9 3 23 19 20 16 3 4 26 8 16 4 28 18 6 14 32 4906 3324 4334 3708 4004 3959 4739 3492 2572 4617 4842 4846 3395 3861 4048 2526 3183 2657 3358 2832 3688 4450 2738 4146 4716 4072 4300 3111 3285 3136 3130 4621 4402 4474 2663 2743 4197 2525 4714 3464 4804 3479 4810 3547 2825 4810 4675 4747 2908 4147 4619 3369 2552 2832 4202 3067 3660 4637 3065 4642 3551 4164 2676 3263 4785 3266 4988 3767 4075 3983 2734 2860 4347 3042 3403 3690 2732 4357 4245 3201 4764 2511 2775 4669 2723 2567 3836 4628 3193 4695 2632 3358 2770 4092 2720 4084 3814 4928 4841 3619 3026 4731 3897 4958 4885 4821 4710 3531 4025 4372 3726 3950 3269 2750 4622 2666 4917 2859 3786 2524 3867 2871 4801 4177 2949 3772 2804 4291 2574 3884 3466 4620 2858 2726 4845 3767 4419 4801 3865 4589 4457 4896 3761 3850 3570 2616 2714 4591 4458 3437 2736 2723 4907 3091 4867 3367 3864 4508 4442 4062 3916 3814 3789 2917 3952 4033 4390 3061 4737 4747 2514 2940 2761 2552 2855
32 6 33 11 6 13 24 31 4 25 6 0 9 32 15 10 15 19 26 6 10 36 16 2 4 39 30 32 28 23 29 25 18 22 8 17 1 21 8 34 8 37 27 29 10 5 28 16 5 21 1 19 2 39 16 2 37 11 29 7 8 3 36 8 17 13 11 3 4 30 15 7 13 28 24 34 10 29 36 6 37 39 10 24 15 27 3 18 4 29 16 2 24 3 24 23 35 3 28 8 16 16 29 1 18 19 10 17 29 8 32 6 1 11 8 33 15 36 33 11 35 33 3 35 4 21 32 25 25 37 11 24 25 21 15 7 30 32 4 2 2 11 7 2 1 15 27 31 35 30 17 33 19 1 19 29 14 23 31 32 26 11 20 8 9 13 16 39 35 37 33 17 35 6 11 4523 4178 3928 4013 4267 4356 3435 4046 4460 4844 2765 3032 2699 3087 3762 4275 3775 4820 3039 4274 3072 3068 3988 2796 4414 4831 3838 3590 4919 4908 3656 3469 3576 4676 2508 2931 2883 3554 4887 3296 4252 4097 2754 4435 3198 4399 2954 3411 4372 3608 3959 4510 3103 4578 3840 3216 2828 4785 2517 4475 4975 3712 4626 4716 4750 4591 4477 3050 2741 2958 2548 3780 3393 3507 3757 4024 4622 4252 4577 3322 3373 3733 3906 2664 4127 4840 3539 3896 2624 3551 3619 3966 4477 3743 4790 3985 3361 4020 14 4899 4640 2671 3955 2867 4140 4685 2975 4904 3628 3236 3360 4963 4847 4627 4461 3608 3180 4332 4576 2598 4848 4393 4163 4089 3481 3258 3512 2581 4968 2607 4007 3584 4160 3485 3089 2692 2735 4191 4800 2952 4618 4830 3650 4733 4683 4413 2750 2763 2512 4722 3889 4528 4371 3175 4967 4847 4820 2669 4187 4986 4882 2786 3579 3075 3124 3554 3847 4973 2581 3394 4539 2633 3518 4711 4973
31 17 16 32 18 11 4 5 18 32 38 29 0 34 14 23 26 31 22 38 28 12 32 8 17 14 23 5 4 38 6 22 16 11 30 39 3 19 4 13 15 19 1 12 10 3 23 15 18 27 33 37 24 8 4 30 34 12 33 22 17 24 35 33 17 36 35 19 1 36 2 10 18 14 11 23 6 20 23 25 36 19 37 12 20 21 10 17 12 18 31 3 34 28 20 21 34 20 25 30 17 38 15 4 38 19 20 13 39 6 24 19 13 27 39 25 14 26 13 5 19 26 24 16 14 10 35 35 6 27 10 12 1 15 14 38 14 7 20 34 12 38 37 37 11 22 21 21 35 25 28 1 26 28 4 3 9 7 25 10 5 26 31 31 4 33 14 39 30 4 10 2 13 39 3 3065 4993 4677 2733 4162 3131 4608 3612 4345 3873 3692 3467 3917 2579 4064 4903 3073 4685 2559 3228 4400 2761 3601 2626 4453 3090 4119 4096 4794 4088 4711 4905 3274 4418 3355 3881 4050 2565 2972 4304 4887 3470 3781 3011 2867 2896 2965 4218 3266 2617 3588 3183 3860 3233 2938 3227 4518 4992 2845 3269 4793 4506 3217 3473 4747 3824 4714 4965 3677 2669 3194 3196 3394 3010 2937 2942 3469 4131 2626 4360 3498 3512 2676 4420 4919 3103 3603 3722 3393 4798 4728 3301 3923 3463 3797 4501 3944 4526 3708 4651 4004 4156 4253 4293 3973 3620 4246 3270 4883 2696 3034 4954 4337 4372 3297 4935 3490 3960 3466 4737 4362 2709 4606 4662 4487 2654 3520 4934 2511 3954 3485 2778 3633 3169 3437 4096 4738 3059 4103 4009 3099 4024 4647 4787 3602 2709 3395 4504 2957 3997 4858 4401 2945 2702 4647 4571 3014 3512 3885 4807 3767 3427 3793 4803 2665 2716 4137 3276 4715 3847 4326 4023 4570 2743 3856
18 5 35 4 12 26 4 9 25 9 13 38 20 0 16 29 28 36 30 11 31 31 32 15 25 29 11 2 5 27 15 8 18 12 35 20 16 39 12 15 5 39 21 30 23 22 2 8 9 39 19 24 10 18 16 18 29 30 12 7 29 18 3 12 2 35 11 22 7 35 4 23 27 32 15 25 34 34 25 20 29 25 18 28 36 34 32 13 36 5 30 31 8 39 27 15 7 1 13 19 16 7 18 19 33 35 25 22 11 22 10 16 22 6 8 3 32 17 28 7 10 8 3 28 9 31 35 5 2 9 24 9 17 33 25 31 25 28 2 7 1 14 12 3 25 25 16 36 21 23 2 31 28 26 13 18 37 17 5 7 35 20 29 32 31 2 21 5 25 27 16 37 8 34 12 3455 2727 3290 4915 2747 3924 3418 3989 4618 3261 2532 4806 3161 4250 4094 3008 2746 4045 3667 4387 4625 3108 4250 4230 4756 4127 2686 3508 3311 3475 2989 3263 4645 4028 2720 3864 2781 3115 16 2813 4740 4898 4289 2939 4445 4206 3733 2764 4511 4311 3570 3238 3332 4175 4167 2749 4166 4661 4792 2839 4883 4839 3204 4996 4355 4599 3046 4584 3509 3720 4258 2989 4352 3149 3869 4573 3049 4701 2685 4621 3859 3053 4723 4552 2982 4829 4750 4562 3728 3073 3046 3339 3185 2788 3032 4302 3781 3185 3342 4929 4181 4262 3238 2806 4935 2793 2841 3347 4400 2706 2588 4565 2993 3002 4166 4439 2534 3908 2935 3336 3926 3889 3020 4287 3362 2969 3276 3270 3663 3875 3507 3744 4863 4546 3469 3460 3968 2530 4970 4582 2662 4484 3740 3303 2573 2810 2547 4835 2901 4856 3379 4428 2727 3499 4171 4155 4197 3591 2860 3459 3192 4344 2753 4055 3660 2689 4011 2878 4246 3436 4849 4985 3048 4844 3781
38 39 24 25 34 21 7 11 34 36 38 14 32 39 0 5 31 36 28 29 15 12 1 20 39 10 3 5 33 37 28 5 15 5 13 18 24 35 11 22 26 36 39 3 27 36 12 37 28 13 11 7 23 14 35 15 16 18 30 38 8 4 20 39 12 23 35 33 38 32 31 36 11 30 10 14 18 23 18 17 2 12 6 3 3 17 33 31 9 20 18 36 2 14 27 1 22 38 23 20 5 2 38 1 35 39 24 1 9 4 30 13 29 29 8 36 10 22 38 12 20 28 32 20 37 15 33 35 25 6 34 22 7 27 2 24 20 26 2 11 5 16 37 13 28 21 11 29 25 22 16 2 24 22 16 18 27 7 30 15 32 9 21 8 31 33 26 16 20 11 5 32 30 4 24 13 4210 4840 3526 2885 2583 2918 4356 2609 4525 3218 4404 2591 3304 4215 4526 4382 2865 3216 4754 4771 4884 15 2862 3508 4325 3184 4761 3280 2996 4100 2548 3556 2810 4199 3938 2669 3336 2872 3353 4620 2848 3217 3718 2834 2961 4700 3855 4559 4062 4142 4662 3386 4658 2521 4327 3663 4154 4748 3543 2605 3245 4693 2653 4109 3519 2610 3704 3673 4624 3434 4423 4724 2580 3563 3380 4622 4356 4249 4884 4092 3338 4139 4662 4515 4057 3818 4470 2676 4646 4751 2767 3535 3486 3449 2564 4012 3840 3031 4774 3201 2877 4596 3567 3201 4904 4407 8 3325 3146 3331 2982 4342 3718 3463 4106 2685 4295 3097 2761 4939 4880 4064 3829 4716 2546 2953 3943 4666 3656 2647 4432 2702 4725 4753 4643 3722 3688 3066 4940 4945 3906 3569 2690 3499 4887 4468 3653 4684 2884 2515 3176 2799 4077 4993 3177 3820 4059 4006 2542 3187 3524 4399 4615 4693 3553 4937 2646 4205 4722 4781 3239 4425 2924 2593
33 32 29 25 7 26 17 38 26 33 28 13 11 34 10 0 17 17 14 9 6 32 4 18 38 4 17 16 34 37 12 24 30 10 17 39 38 28 11 36 2 25 3 5 20 16 25 19 20 9 20 25 19 5 2 17 20 3 23 26 22 27 10 14 30 31 29 24 17 32 6 38 14 29 11 15 16 32 11 27 11 31 37 19 28 32 7 34 10 20 8 14 32 9 38 26 12 13 5 28 13 38 33 7 19 35 36 37 3 7 16 25 14 14 14 4 20 6 28 12 9 23 16 33 10 23 25 7 25 39 7 24 12 4 5 15 25 3 3 26 5 33 32 15 4 8 25 7 16 32 6 22 10 29 4 18 25 22 4 4 36 19 17 17 6 28 14 23 17 33 11 6 14 18 30 4974 2866 4848 4967 2672 3070 4844 3213 4792 2534 4121 4305 3197 2622 2605 4235 4807 4743 4714 4495 4736 3715 4075 4909 3326 3182 2922 4810 3402 3003 3312 3838 3402 3894 4181 2817 3108 3925 4218 3469 4904 4245 3543 4249 3837 2888 3706 2883 2799 2967 2851 3977 3988 3550 4570 4482 4422 4881 2642 2604 3621 3653 2599 2542 4289 4422 4258 4581 2587 4998 3473 4557 3835 4190 4312 4698 4378 4061 4028 2639 3084 4892 3672 3115 4741 4344 3469 4244 4260 3314 3186 4507 3209 3451 4914 4995 3593 3403 2864 4590 2955 2809 3222 4508 4520 4966 4312 4171 4323 2733 3861 4475 4850 3249 4383 4867 4146 4645 4107 4281 4128 4216 3900 4816 4169 3856 3009 2812 3429 4438 2802 2964 4896 4017 3505 4897 3353 2638 3104 4679 3957 3447 2852 4059 3560 4411 4329 3974 4526 2624 3850 4747 3678 3517 4699 4916 2620 4597 3127 3535 3370 4325 2969 2688 3475 4068 3776 4796 3038 3810 3007 4904 2683 3094 4386
16 23 28 10 29 36 28 1 11 12 24 13 18 34 2 35 0 17 4 9 15 26 20 30 8 5 28 2 17 6 34 31 37 21 28 15 17 23 17 12 13 9 31 30 26 34 35 23 21 18 35 19 27 5 21 17 31 17 27 14 6 17 1 30 36 15 12 12 37 4 15 38 14 1 17 1 29 33 32 21 36 31 19 34 26 36 2 10 3 10 29 7 37 32 37 16 25 14 33 26 24 11 26 19 6 39 15 25 12 25 1 39 31 23 6 8 29 33 15 4 21 35 15 23 25 21 15 25 35 18 10 29 29 10 22 35 2 25 5 25 30 10 37 13 36 13 37 17 35 17 29 29 1 33 21 5 27 34 8 19 23 3 12 1 20 27 37 1 14 4 6 37 2 13 38 3308 4248 3197 2665 4115 4787 2514 4797 3416 3873 2662 4533 2900 4862 4189 2963 4688 2769 4751 4221 4331 2716 4051 3680 4400 2541 4783 3049 4401 2935 2522 2925 3485 3977 4515 4654 3248 3194 3287 3024 3821 4854 2592 2853 3810 3025 4504 4989 2813 2819 4655 4609 3562 2717 2850 3433 3637 2887 3093 3985 2777 3530 3502 3774 3968 3084 4517 3246 2614 4744 3294 2547 4442 3524 3893 3198 2543 4623 2984 3657 2745 4485 2961 3677 4796 4025 4114 3387 2765 3672 2781 4898 3107 3303 3376 2770 4523 4531 3745 4773 3141 2816 4674 2514 4324 4743 4708 3817 4243 4694 3902 3170 3266 2852 3367 4220 3086 4892 4562 4134 2914 4737 4273 4582 4894 4809 3223 4874 4097 2818 2722 3491 4863 3194 3905 3542 2811 4146 3947 4678 4380 3864 3305 4276 3258 2599 4144 2822 4359 3938 4627 4309 4922 3494 4243 3948 4941 2688 4229 2854 3605 2779 4328 4138 4925 2817 4264 3388 4964 3887 3452 4367 3589 4199 4125
11 19 10 24 27 15 2 13 4 27 37 35 20 2 29 31 20 0 26 27 1 5 35 36 22 8 11 14 23 4 31 8 4 14 10 10 17 8 36 17 19 10 1 6 25 21 6 37 15 20 34 13 25 24 29 33 35 17 31 11 20 24 36 18 3 7 38 11 24 16 8 11 17 16 30 30 20 3 37 6 36 5 21 7 39 16 10 15 11 10 13 16 16 6 34 6 19 24 14 14 39 16 38 14 12 31 23 26 26 16 29 31 6 11 2 21 8 25 24 22 24 28 31 1 13 37 37 15 2 25 26 8 31 33 5 5 8 10 17 5 24 35 13 10 31 20 7 25 21 34 26 24 3 8 2 22 36 6 28 13 14 25 13 35 9 4 7 36 34 7 18 33 8 16 18 2584 3314 4192 3284 2824 4207 3206 3963 3096 4212 2875 2918 3881 3825 3161 2717 2721 3338 2732 3323 3714 3232 4509 3980 4737 3871 18 2988 2644 2793 2621 3217 2986 2545 2591 4415 3406 2927 4538 3857 3008 4670 3040 3589 4820 3336 2880 4330 4195 3145 4485 3282 4640 3272 2959 3496 3743 2936 3709 3253 2839 4335 4970 3048 3057 3545 4722 4883 4724 3228 3663 3650 3710 3509 2956 4607 3179 2598 3091 4904 4837 4678 4031 4103 2558 3227 2995 4244 4542 4318 4768 2849 4358 3905 3921 2761 4220 4811 4411 2883 4955 3989 4982 4744 4918 4889 4954 4681 3496 4462 3608 3757 4983 4597 3733 3067 4721 4910 3121 4711 4908 2601 4467 3958 3533 4231 2509 4798 4214 4425 4835 3361 2860 4332 4325 3698 4705 4303 2858 4401 4939 2568 4543 3533 4872 3454 4011 3618 3931 3351 4791 4044 3102 4150 2589 4830 3633 4837 3190 4533 4338 3757 3632 3806 4732 2886 4332 3344 4396 4335 3723 3071 3980 2608 4750
3 30 24 10 7 23 33 34 39 20 17 23 18 14 35 25 35 5 0 25 22 21 8 9 7 15 1 3 29 2 18 35 23 2 19 9 19 8 12 34 26 39 31 13 4 7 10 12 27 19 16 23 36 20 12 19 24 19 6 25 39 33 7 39 13 27 3 35 4 30 6 34 32 23 24 35 20 5 25 36 21 2 13 30 36 36 30 30 23 5 21 3 33 28 23 15 32 30 23 37 24 22 4 9 10 20 11 24 26 9 29 5 7 29 19 5 8 23 8 2 3 22 4 34 14 34 22 11 14 3 33 1 37 4 24 2 11 16 11 13 8 13 13 1 24 23 1 26 30 6 38 5 1 30 1 31 20 6 32 34 34 8 9 7 38 23 29 6 12 9 7 27 30 3 29 4033 3328 2612 2975 4659 3261 3604 3021 3196 3929 2917 3487 4380 2754 4017 3160 3696 3867 3678 3844 4644 3071 3158 4673 4627 4742 2570 2789 4465 4442 3674 2552 4134 3564 3571 3515 3572 4332 4888 3467 3369 4799 4724 4687 3227 4931 3923 4232 2834 4180 3228 3529 3915 4761 3363 4685 2523 3471 3270 3615 4113 3047 2930 3801 3830 4983 4289 3015 3202 3997 4753 2925 4663 2867 4118 2736 3160 4302 4835 2894 2619 2998 4776 4968 2875 4696 3820 2553 3205 3573 3737 4610 2783 4040 4592 4301 4178 4770 4100 3823 2509 4077 4521 3241 4920 2859 4332 4647 4881 4038 3022 4904 3599 4428 4030 3796 3827 4215 2535 3913 4009 4946 3988 4482 3981 3134 3334 2664 3083 2776 4597 4859 3408 2711 4258 4544 3539 3917 2845 3244 2527 4359 2811 3188 2523 2608 3198 3044 2542 3108 4413 3812 3373 3869 3457 4353 2557 3482 3623 3468 3150 3094 3171 4929 4037 2655 4639 2504 4736 4273 3860 4618 3527 4735 4797
14 19 14 23 28 32 26 13 23 24 21 28 30 31 23 8 22 18 26 0 35 29 38 16 27 24 33 31 35 22 30 36 22 6 39 37 4 1 5 21 33 23 25 24 26 23 4 30 13 4 30 29 30 29 14 39 15 1 8 3 19 7 11 11 33 6 28 9 7 8 8 39 5 4 35 12 22 28 6 12 13 35 20 37 18 34 36 38 30 7 4 19 15 27 15 10 34 19 4 4 20 6 8 20 22 30 29 23 31 10 11 24 26 34 29 13 4 14 23 21 25 8 35 20 22 38 17 16 3 5 17 35 34 22 16 27 8 30 5 24 3 31 32 6 11 6 12 25 26 37 15 19 19 23 22 13 29 7 1 6 12 35 22 3 25 3 12 35 25 14 17 25 2 3 29 4761 4582 4029 4153 4734 3722 3492 4677 3072 3414 3850 3160 4578 3455 2804 2751 3748 3525 4325 3246 3797 3262 3563 4247 3265 4170 3670 4206 3151 3810 4774 3215 3774 4164 3940 4885 4372 6 3736 3313 4537 4716 3206 4383 3340 3819 3257 3048 3556 2855 4861 3669 4690 3055 3236 3463 3967 2952 4745 3594 3010 3616 3983 4503 2707 4666 2878 2773 2761 3070 2880 4049 3336 4374 4375 4393 4211 4497 4090 4192 3645 4289 3148 3921 4691 4877 4231 3684 3358 2877 4662 3496 4286 3369 4617 4493 4428 4085 4686 3578 2847 2590 4359 3025 2712 2615 3384 3156 4476 4746 4782 4324 4022 4547 4576 4381 4563 3640 4187 3775 3696 3623 3156 2868 4205 3902 4144 3300 4446 3073 2969 2626 3029 4167 2749 4741 4150 3405 2808 3495 3606 4904 4064 4289 3152 3969 4001 4275 3860 4424 3027 4873 4602 4608 3387 4299 3543 3611 3736 4252 4762 2952 2982 3536 4875 4067 2947 4920 3495 4052 3134 3124 2612 3288 3301
28 31 39 8 33 33 16 31 34 26 12 11 22 6 22 37 16 7 28 36 0 18 25 12 14 29 3 15 39 35 15 20 3 23 39 5 23 34 6 7 34 5 8 23 19 20 21 15 34 11 12 37 18 9 8 34 6 20 13 8 3 31 3 12 18 30 3 29 29 30 28 30 13 7 22 13 38 1 22 8 32 26 31 28 38 7 13 13 37 6 31 25 22 35 2 32 31 16 26 7 7 23 39 9 28 13 33 28 18 24 14 7 19 31 28 28 10 33 30 25 28 9 31 4 10 17 5 13 25 33 11 21 19 9 28 2 27 16 21 25 10 34 33 3 16 24 21 12 4 22 13 15 19 38 5 6 28 7 26 17 29 18 3 4 24 14 1 11 9 9 15 1 16 37 36 3232 3350 4207 3663 2637 3699 3501 3090 2516 3317 3733 3972 4713 3769 3071 3126 4076 4913 3647 3798 3220 2954 4248 2500 4554 4597 4085 2800 3332 4503 2551 3235 4630 2899 4921 4450 4977 3906 3485 3588 3304 2544 4844 2902 3927 4760 4977 4458 4400 3278 4256 3089 3848 4397 3895 3983 5 3337 4457 4971 3969 3193 4652 3984 3728 4201 4835 4292 4040 2653 4014 2730 4326 4713 2833 4841 3508 2775 3711 2891 2662 3271 3036 4275 4362 2771 3149 3420 3011 4756 4177 3183 3906 4233 3111 2866 4764 2563 2830 4987 3113 4846 4706 3762 2632 2750 3807 9 3033 3425 4420 2767 4713 4552 3196 3913 3465 4280 3449 3089 4046 3825 3150 2608 4244 3562 3371 3236 3183 2989 3021 3447 2770 3970 4439 4061 3669 4246 4046 3136 3370 3396 4420 3608 3991 3262 3218 4317 3686 3889 3969 4769 3343 3477 3598 3869 2679 3209 4549 4744 2629 3981 4897 4815 3794 3299 3157 3932 4025 4063 3815 2943 2509 2752 3931
13 37 33 3 22 7 31 6 3 22 32 38 2 16 33 29 19 14 31 25 39 0 9 37 35 38 12 31 2 4 22 7 29 18 25 22 15 36 20 11 18 5 25 5 27 27 5 29 24 28 27 24 25 18 38 39 13 23 32 37 26 15 26 17 28 19 9 22 1 11 1 27 6 4 22 39 25 37 22 15 28 2 3 39 29 31 8 7 18 12 3 32 39 11 23 29 9 16 36 17 25 34 37 38 39 22 22 2 32 39 3 26 37 20 38 38 21 29 30 36 12 38 24 9 33 6 16 27 16 27 3 5 29 13 16 36 1 18 17 36 9 18 20 34 30 22 30 27 26 30 19 32 1 16 36 18 27 33 15 28 34 19 17 26 39 32 18 13 29 18 27 13 29 37 16 2591 3452 2866 4003 3909 4498 3786 2599 3213 2975 3674 2710 2516 2976 2744 4487 4432 3629 3563 2874 4152 4701 3977 3374 4296 4806 3869 3032 3524 4179 3769 2789 4755 4086 3200 4534 3170 3574 4462 4315 4055 2918 2582 4041 3382 3455 3587 2533 3071 2647 4569 2926 3748 4420 4702 2738 4411 4851 4724 4333 2744 3897 4235 3063 4274 4503 2761 3710 3532 4782 4076 3774 3490 3031 3610 2933 4348 2976 3999 2806 3771 2822 2557 3234 4631 4577 2958 4730 3736 4344 2925 3783 4967 3692 3777 4740 4307 3887 4481 4776 3241 3187 4510 3712 3936 4260 4924 3949 4656 3473 3454 4886 2954 2816 3215 4930 2734 4761 4742 3067 3674 4964 3207 4843 4730 3551 4423 4842 3518 3934 4352 2510 3350 3535 2519 4243 2736 3984 4465 4886 4150 3914 4849 2983 3719 4696 4176 4107 3125 3065 4642 2952 3202 4821 14 4028 2606 4815 3854 3544 3522 4804 4741 3452 2983 4458 4520 4035 2930 2726 3426 3829 4837 2887 10
21 25 16 29 1 37 29 30 38 22 1 39 2 17 38 15 4 31 13 24 17 6 0 1 1 5 16 32 19 38 30 35 23 20 21 14 18 13 19 22 10 30 31 10 21 28 1 5 1 25 5 36 20 26 6 35 5 6 5 36 16 16 26 4 16 14 22 2 15 28 4 8 5 4 30 29 15 10 5 2 19 5 29 34 4 24 33 10 29 39 31 29 7 15 1 33 39 34 9 18 28 15 35 24 14 27 18 21 26 14 17 33 35 8 10 10 33 39 30 27 37 4 33 38 26 30 9 34 20 14 7 27 26 19 38 37 12 31 2 21 11 24 7 27 29 35 29 2 35 17 31 27 31 3 4 10 36 20 39 12 12 2 8 36 15 12 14 13 9 18 22 32 36 30 7 3915 2837 3338 2917 4590 4693 3349 4733 2796 4991 2974 4134 3727 2842 3271 4142 3177 2621 3474 4077 4682 3050 2904 4328 3753 3351 3656 4798 4601 11 2553 4215 3873 2545 4226 4037 3721 2949 4550 3859 4186 3872 4258 3087 2594 3534 4774 4828 3120 4114 3233 4445 19 4571 3237 2872 3123 4499 4045 3350 4633 3933 2501 3887 3824 3452 3034 4711 4912 3428 4989 2538 3060 3017 3469 4699 4848 3786 4886 3253 4366 2759 4081 3048 2683 4201 3510 2866 3690 3925 2993 3533 4665 4546 2972 2500 2909 4929 2586 2737 4164 3170 3076 4020 3333 3825 4668 4051 4426 4450 4934 2920 4048 4007 3519 4453 2509 2923 3609 3334 2881 3508 4969 4870 3533 2573 3835 4238 4317 4408 3648 3847 3626 3825 3846 4675 3055 3323 4855 2554 4261 2896 2663 3850 3696 3226 3530 4629 2846 4018 4498 3933 3249 3299 3025 4530 4065 3722 2767 2789 3429 3216 3514 3967 2503 4561 3050 4953 2608 4011 4933 4030 3832 3666 2527
17 26 22 3 20 31 10 17 31 29 35 34 35 10 5 39 4 25 11 2 36 36 29 0 30 34 30 9 17 30 19 4 31 32 28 36 38 1 1 35 7 9 39 18 18 20 24 5 5 25 38 16 20 8 28 18 37 37 2 13 9 11 24 14 28 38 9 10 15 37 9 4 25 2 31 31 26 19 17 27 17 34 23 23 39 8 27 30 28 35 33 1 34 16 8 38 15 6 35 36 38 5 11 18 27 16 7 28 10 8 17 16 21 32 20 37 23 13 2 37 19 25 29 13 31 5 3 12 30 17 7 1 16 17 37 30 30 33 12 34 35 18 4 4 39 39 36 28 22 8 7 14 33 14 16 32 16 29 21 29 25 30 6 33 12 32 38 7 3 3 8 28 29 4 26 4403 2782 3952 4087 2685 3339 3472 2675 4962 3533 4985 4137 4666 2933 2809 3019 2760 3762 4151 2718 4301 4872 2919 3404 4058 3165 2814 3064 2500 3447 4594 4950 4342 3387 3018 4083 3175 2990 4003 2640 3998 4597 3840 4088 2613 4952 3311 3122 4874 2787 2581 4866 2579 3423 3073 2742 3901 4709 2603 3111 3713 3583 4213 8 3529 2914 4589 3372 2693 2969 2727 4542 2621 3051 4497 4292 2903 3021 3351 4828 4090 3058 3273 2743 3643 4225 4752 4374 4087 2712 4366 4760 4763 4997 4366 4033 3549 3615 3324 2901 3830 3133 3021 3799 3554 4053 4151 3788 4025 3049 3936 2683 3723 4924 4466 3141 3438 3852 4379 2890 4782 2514 3813 2552 4186 3155 4963 4932 3805 4310 2543 3268 2686 3140 3977 4994 4347 3135 4090 4344 4674 2624 2728 2641 4624 3317 3719 4119 4635 2789 3367 3557 2857 4564 3927 3881 4010 4798 3381 4549 3894 2553 3361 4801 3063 3802 4548 4590 3088 4751 4419 4742 2987 3374 2737
34 1 37 2 24 28 1 18 28 29 9 28 7 31 16 34 18 36 2 34 34 29 25 17 0 38 28 32 8 2 10 30 4 15 25 2 1 10 29 9 14 32 11 3 1 37 13 36 10 1 10 5 9 25 1 5 4 21 14 30 4 34 13 37 37 8 32 6 6 37 18 32 35 11 15 13 34 13 13 2 25 26 15 15 3 38 8 13 19 25 1 39 38 31 6 34 24 37 22 3 9 5 8 31 27 27 4 25 17 16 11 4 11 2 19 31 10 33 20 22 1 11 34 7 38 2 7 24 3 27 21 10 11 10 35 14 20 28 29 32 34 18 33 2 38 5 29 8 12 24 17 37 5 34 9 23 28 12 1 26 9 1 36 26 22 18 14 12 21 24 17 8 24 32 20 2972 4554 2866 3301 3082 4001 3426 3974 2736 4749 3307 4667 2691 3386 4010 3403 3470 3175 4443 4951 2554 3224 4264 2598 2858 3157 4853 2755 3654 3572 3222 4394 3567 4231 3459 4108 3978 4387 3715 3131 3403 4521 4678 4900 4599 2816 4621 4096 3926 4747 4286 2578 3711 4950 3102 3286 3023 3967 4797 2670 3194 4066 4624 3097 4685 4397 3317 3870 3443 3425 4377 4815 3138 2747 3383 4707 3650 3818 4658 3000 3209 3023 2998 2640 3739 3880 4717 4790 2636 4855 4527 4617 2568 3795 3604 3274 2758 4799 3554 2645 4423 3173 4180 4943 4600 4025 3342 3470 4883 3140 2542 4275 3046 3682 3230 2832 2991 4242 4766 3047 2835 2980 4108 3640 2736 2619 2739 3842 2708 2901 4559 4003 2955 2910 2789 3938 3697 4509 3394 3880 3335 4018 4751 3702 4674 4202 4586 3616 2608 4978 2593 3639 3994 4799 4874 4537 3709 2855 3398 4355 2530 4588 3687 3678 4265 2963 4835 4831 2811 2734 3321 3983 2891 2580 4857
8 6 31 24 2 37 19 31 24 26 14 26 32 14 39 27 21 6 25 39 7 32 9 12 25 0 17 19 15 36 19 26 12 14 39 25 5 32 14 12 37 35 30 8 9 10 30 6 22 20 16 6 11 12 7 6 24 13 18 4 7 18 32 3 36 13 11 7 16 2 15 35 14 38 28 9 21 17 19 17 34 32 37 26 8 11 32 16 29 2 27 27 14 4 12 28 2 5 15 3 32 11 11 30 20 1 20 19 13 30 16 3 1 3 26 1 32 9 25 18 28 28 33 9 5 13 34 30 23 19 7 34 1 1 19 39 11 20 12 39 19 33 19 16 28 19 39 28 38 7 26 27 2 33 26 8 9 5 8 29 26 14 14 29 24 26 34 17 8 32 8 32 12 39 33 4830 3513 2538 3469 2687 4174 4948 3567 4058 3588 4708 4676 4904 3490 3455 2619 4310 2726 3903 4910 3503 2718 3666 4317 3634 2556 4165 3667 4384 3299 3503 3022 3318 3903 3167 4246 4439 4173 2503 4683 2853 4918 4673 4678 4585 3546 3981 4180 4681 4827 4565 2867 3459 3984 4705 4143 3698 4101 2980 4845 2844 2936 2502 3739 4988 3827 3919 3760 2559 4071 4687 2959 3625 4246 3140 4833 3863 3317 3749 3864 3704 3849 2835 3228 3705 3977 4648 3061 3367 4250 3552 3903 4517 2735 4335 3977 2811 2990 3191 4811 2790 3907 3152 4032 2524 4695 4594 3306 4581 3345 3338 3815 4845 2580 4525 3010 4258 4554 4679 4850 3423 4792 3866 3149 2771 3128 3690 2898 4708 3591 4207 4494 4711 4676 2784 4853 4738 2755 2567 4427 4762 3925 3844 2535 4654 3036 2822 3473 4143 4307 2958 2971 4263 4860 4016 4824 4094 3081 3575 3476 4649 4247 2593 2971 3200 4647 3820 4089 4242 4495 2994 3731 4411 2867 3656
9 20 8 10 31 9 27 3 14 35 9 9 35 27 14 21 35 3 21 12 22 35 29 30 10 12 0 26 10 35 7 26 29 3 32 3 4 20 25 29 33 8 26 35 15 37 18 7 11 19 27 6 12 29 21 5 12 18 6 17 24 9 19 24 8 20 7 10 20 15 23 38 14 18 20 39 26 33 36 33 30 13 30 2 23 37 3 3 16 24 27 35 14 25 19 5 10 14 6 5 17 11 30 33 15 39 6 29 5 11 18 15 39 21 4 24 18 4 11 30 22 15 27 35 7 24 24 12 39 34 38 22 37 33 15 33 23 25 30 5 10 1 18 30 13 17 20 8 1 34 7 17 12 28 37 5 19 1 18 38 7 24 17 29 18 33 17 3 26 32 14 11 26 19 11 4705 4290 3855 4414 4402 4044 2601 4900 3256 3614 4852 3074 4587 3815 3952 3196 2767 4644 4223 2639 2724 2754 3044 2951 4111 3335 4179 3779 4010 3418 4772 3018 2730 3461 3003 3524 2541 3796 3815 2840 4567 3859 4046 3818 4872 3602 3058 2895 3802 2946 2757 4061 3798 3257 3893 2625 16 3100 3288 4775 4209 2572 4986 2871 4510 4615 2721 4148 3759 3442 3463 4863 3327 2540 3190 3431 3536 3741 2980 4130 2668 4883 3758 2742 4743 2725 4902 4544 3181 3119 4819 4392 4219 4276 4807 3058 4259 2844 4314 4036 2758 4700 2561 4636 4790 3482 3385 2894 3594 4583 2699 3043 3191 3414 4747 3004 3248 3983 3222 3726 4118 4765 4454 4258 3711 2810 4642 3211 4916 4166 3196 3490 3661 3329 3364 2908 3381 4858 3398 2749 3335 3218 3610 3089 2978 3371 4278 3429 4793 4720 4210 4080 2648 3354 3127 3752 3276 4628 3380 4711 2735 2867 4788 3389 3800 3701 4453 2670 2761 2979 4246 3697 4776 4877 3884
30 37 15 17 16 1 32 8 5 9 31 19 25 6 1 17 25 29 35 16 24 2 25 13 38 34 18 0 6 31 8 11 20 7 28 7 3 29 8 7 31 19 24 34 37 25 14 39 5 39 35 4 28 24 21 22 19 37 31 37 28 28 2 26 16 36 18 8 5 28 15 13 16 31 33 23 13 39 5 14 2 37 19 13 26 19 7 13 35 26 14 24 6 26 30 21 19 15 35 15 30 30 24 37 19 37 10 32 32 30 5 7 18 14 30 4 33 24 16 18 16 14 4 13 7 7 27 4 26 23 28 36 12 13 13 14 18 7 6 38 8 39 6 23 35 35 5 34 4 34 33 16 16 22 39 15 5 1 2 29 9 37 28 31 25 32 18 33 24 33 11 24 29 16 39 3086 4142 2510 2892 3097 2548 2909 3719 3360 4286 4640 2639 4178 3169 4301 4080 2523 3722 2778 3308 3638 4881 4274 4823 4987 4644 3776 3388 4216 4739 3612 4379 4081 3632 4532 4827 4986 3244 2736 4143 4150 4221 4735 3791 3022 3076 2965 3142 4102 3829 4567 4074 3001 2640 4311 3439 3112 3648 2598 3576 2626 4426 4955 3706 4947 3821 4948 3502 2545 2968 4826 4151 4370 4654 4428 3047 4357 3119 3419 3349 3430 2634 3146 2930 2872 4482 3416 4533 4754 4054 3228 4230 4009 3458 3677 4508 2669 3476 4748 4964 2672 3730 3241 2557 4261 3716 4616 3955 3265 2861 3819 2906 3487 4942 2511 4769 3800 4370 3937 4440 4045 3634 4696 2929 4856 4937 4878 2987 3016 4256 4831 4665 4174 3868 4209 3713 4905 4976 3947 3048 3125 2700 4620 2520 3333 4450 4035 3504 2830 3477 2740 4904 4824 4262 2993 3053 4745 4062 3984 2947 2840 4961 4830 4876 3515 3400 4588 4728 4791 4437 4820 2571 2880 3462 3280
24 14 36 8 2 2 20 28 3 18 9 6 21 26 28 21 5 32 2 23 15 4 26 28 15 33 15 21 0 34 9 14 11 16 5 28 20 14 1 9 34 6 16 10 38 39 6 37 2 10 10 38 31 26 29 36 29 13 3 12 36 22 7 32 15 8 14 29 17 1 19 20 7 13 28 10 13 6 11 8 20 5 38 33 7 15 21 34 16 3 21 37 9 11 5 37 10 13 22 9 32 19 39 13 22 9 2 35 36 9 14 12 9 10 32 2 34 16 15 1 7 35 8 17 27 31 36 12 3 28 4 12 23 32 24 37 19 18 38 13 8 20 17 20 11 37 25 18 34 38 16 3 27 7 16 34 23 12 28 13 27 7 14 10 7 24 24 35 36 4 19 16 24 39 13 4415 4269 3079 3850 4409 4942 3529 2519 4146 4352 3759 4711 4164 3575 4020 4831 2804 4421 2958 3465 4410 4227 3998 4927 4015 2607 2985 2739 3048 2535 2996 4310 2947 4425 4061 3419 4026 4255 4268 3497 3704 3193 4257 4829 3565 3714 3716 3428 2853 4952 2537 4047 2577 4359 4731 3123 3840 3997 2947 2810 4618 4586 3100 3714 2800 3650 3440 2678 4077 4912 3035 3112 2755 2609 4280 3829 4056 2861 2965 4462 4383 3909 4987 2860 4353 2880 3866 4733 2745 4597 3637 3150 2538 4596 3930 3752 3643 3704 4342 3806 4006 4412 3260 3660 2681 2855 2632 3575 4970 2568 4762 4063 3494 3169 2601 3508 3523 4445 4021 2885 3491 3881 2665 3724 3238 4882 4781 3768 2652 4800 4139 4890 4275 2691 4596 4110 4906 4535 4698 4169 4986 3344 2777 4512 4241 2632 3312 4465 3495 4748 2958 4016 2525 2628 3149 4151 2635 3369 4680 4392 2562 3495 3862 3720 4818 3353 3004 4663 4012 3238 4042 2608 2585 4897 4978
16 1 34 7 3 19 6 2 27 35 20 5 6 1 19 35 32 24 37 3 19 14 4 30 35 37 27 37 22 0 10 5 37 21 9 17 29 19 27 6 3 3 27 10 20 24 21 4 10 9 7 7 24 14 39 30 36 13 21 39 39 34 9 8 37 2 17 36 33 21 18 16 27 10 15 3 20 18 9 23 36 20 12 17 25 35 30 2 28 5 39 33 1 29 11 24 15 33 4 5 35 26 21 7 25 38 15 38 18 16 26 32 28 39 8 2 7 24 22 30 37 7 14 4 17 34 9 34 35 23 19 18 6 3 35 37 30 10 38 9 39 12 16 16 13 6 16 14 28 11 20 30 32 29 18 12 31 10 11 32 10 26 8 27 15 11 22 21 36 18 5 38 32 6 5 2814 3608 2900 3160 2669 3748 3715 3170 2735 4546 3942 4365 4715 2890 2975 4747 4111 3064 3740 2508 3175 3381 4472 3876 4369 2898 4917 3710 3775 3015 4485 4141 3060 3805 2598 4120 4566 4380 4296 3162 2614 3009 4916 3635 3832 2654 2736 3977 4039 4762 4076 4671 3375 2944 3767 3639 4338 2691 4767 3909 4189 2756 2578 3604 3378 3462 4087 4552 3750 4709 3165 2565 3217 3970 4414 4921 3887 2955 2843 4081 3010 4188 4864 3456 4711 2505 3701 3659 3524 4452 4280 4138 2670 4832 2657 4543 4047 2743 4547 3060 2663 3447 4835 4329 3153 2591 3842 3920 4113 2514 2570 3172 2555 4533 3541 2665 2825 2642 4189 3149 2701 3826 3792 4214 3452 3592 4602 4037 4859 2821 3471 4772 2692 4720 4162 3431 4823 3967 4826 2884 2758 3275 3647 3008 2516 3617 4204 2787 4516 2949 3904 2655 4701 3571 3756 4860 3727 3332 3023 4127 4108 4514 3977 4954 4138 3827 4175 3380 3566 4436 3613 4314 3641 2666 3949
33 36 17 33 28 5 28 19 14 3 6 39 13 17 27 28 17 14 4 31 16 17 30 2 33 32 1 31 20 28 0 16 2 29 37 26 15 6 21 10 9 35 15 22 23 15 31 24 20 7 31 34 23 22 3 20 16 31 24 35 19 11 21 29 21 5 5 34 3 28 25 13 17 36 5 16 5 30 34 4 17 10 1 2 26 19 25 15 24 27 4 10 10 33 36 26 36 28 9 35 2 6 34 5 7 10 32 14 32 7 35 27 11 31 34 1 31 24 14 27 10 30 6 7 39 37 25 7 30 10 14 15 10 36 29 30 19 32 10 39 19 12 6 24 19 16 7 24 3 37 33 22 7 26 9 3 29 33 22 14 8 3 34 5 23 39 19 35 24 7 3 13 7 1 36 15 4547 4947 3398 4252 2594 3356 3786 4129 3981 2804 2502 3198 4484 3530 3047 4453 2604 3430 4726 2881 3470 3813 3477 3343 2742 4403 4423 3392 3313 3535 3421 2893 4556 4345 3132 4132 3556 4789 2907 2537 3883 4748 2929 4111 3182 3016 3356 4695 3989 3999 3309 4403 3061 2554 3126 4638 2901 4747 2723 4745 4277 4348 3523 2793 3639 4475 3112 3915 3234 3780 3155 3064 3994 4768 4670 3811 4066 3380 2535 3434 3798 3805 3462 3903 4079 3992 2560 3116 3167 4239 3592 3456 4882 4565 2678 3958 4537 4876 2945 3072 4425 3505 4971 3937 3899 3511 4868 2813 4283 2687 2996 4319 3992 4356 3782 4689 4750 2954 4554 3434 3468 4651 3964 3561 3850 3185 4415 2703 4207 4221 3006 2527 3942 2533 3712 3984 4121 3325 4075 3469 4686 2989 3468 3237 3400 4697 4302 2681 4605 4496 2644 2827 3256 3587 3899 4899 3116 2955 4400 3723 3416 4079 3692 3280 4347 4786 2656 3043 3226 4157 3255 4216 3929 3126
37 5 18 15 9 34 2 23 3 6 25 20 27 3 2 36 4 8 38 34 35 32 14 18 35 28 38 4 34 28 26 0 13 11 30 38 8 14 31 38 39 17 37 4 37 22 22 20 18 34 30 28 13 35 23 12 2 12 34 28 14 33 21 19 19 14 25 22 15 6 19 29 28 9 30 5 28 22 19 7 10 1 30 12 8 36 25 37 15 36 31 19 17 13 11 2 34 1 27 37 26 8 34 2 31 16 24 17 25 18 21 24 24 10 33 36 10 18 19 38 33 17 30 34 7 16 37 25 22 32 19 7 22 11 15 19 20 6 10 28 15 20 28 21 5 26 22 37 15 8 39 38 39 26 36 17 33 31 11 14 6 33 31 19 9 6 21 13 2 25 9 39 21 4 36 2886 3368 2571 4344 4516 4825 3283 4564 2929 2886 4097 3743 3968 3870 3484 2848 4627 2586 3888 3767 4176 3375 4255 3414 3551 3061 4005 3376 4101 2847 4346 3984 4084 4387 3894 3131 4771 4313 2662 4789 4331 4695 3102 3618 2824 4081 3736 4168 3295 4260 2601 3231 3059 3343 4030 3670 4841 4646 4902 2646 3501 4271 3394 4285 3408 4773 3553 4569 4081 4001 4276 2572 4297 2926 4542 3492 2633 4383 3258 2845 2612 4080 3896 2808 4888 2995 4763 3247 4963 4384 4010 4252 3872 3959 3774 3534 3334 2914 4158 3407 3823 4815 4812 3370 2903 4951 4543 4844 3872 3438 4780 2857 2645 4318 3628 3776 4366 3251 4956 2575 2522 4552 4010 4871 3126 3737 4147 4181 3336 3042 2590 3447 2659 4651 4097 3167 3591 4422 3742 3007 3425 3351 3133 4226 3831 3179 2733 2804 4875 3120 3362 4647 3658 4655 3476 4468 2914 2944 3943 4891 3867 4250 4314 3251 2667 2522 4561 4468 3300 3738 4391 2771 4084 4550 3627
23 23 32 30 20 13 17 17 32 25 38 11 37 3 8 19 34 21 18 24 28 6 20 38 6 2 37 12 13 8 2 25 0 8 14 34 3 32 4 16 10 36 4 36 10 2 39 20 22 27 11 6 18 21 31 19 34 39 14 18 1 28 2 35 4 23 37 6 8 20 15 1 18 11 2 18 28 6 4 28 36 32 12 24 7 23 12 14 9 33 39 12 31 32 15 25 2 28 24 25 29 14 18 12 30 30 26 38 34 7 25 4 10 2 26 10 3 1 4 30 20 15 28 9 38 35 34 15 14 27 27 2 5 12 4 38 21 28 22 3 10 12 28 4 23 3 6 22 18 37 31 7 36 29 2 31 33 15 2 3 22 7 16 13 25 11 37 6 27 30 28 34 14 14 27 4580 4099 3371 4115 3843 2516 4720 3189 3326 4673 4555 4748 4740 3919 4070 2581 3363 4307 3533 4468 2992 2799 3006 4677 2725 4838 3499 3490 4065 3024 3445 4602 3525 4332 3630 3067 4831 4932 2613 2648 3634 4275 3817 4341 2678 4140 3390 4692 4209 3225 4965 4370 4642 2616 4082 2903 2791 4076 4498 14 2765 2780 2609 2677 3585 3790 4563 4485 4397 2661 3762 3940 4510 3701 4366 3558 4079 3966 3570 3328 2773 3793 4872 2634 3250 4070 2692 2868 2655 3194 2681 4522 3580 2505 3018 3549 3114 3938 3056 3737 3871 4505 4724 4768 2730 3920 2653 3371 2647 3182 2642 4764 2975 3038 3791 3793 3291 3467 2845 3263 3907 3032 3980 4549 4551 4292 2868 4653 4888 4513 4024 4541 4628 3657 3729 4984 2576 3576 3873 2706 12 4603 2845 2812 2520 4904 3386 4539 4806 3695 2929 3008 4609 2564 3864 4974 4172 4392 3308 3084 3907 4157 3474 3242 3967 3510 4869 4552 3738 2804 4259 3519 3250 4222 4302
39 6 34 2 38 26 27 3 20 2 35 10 4 15 9 22 1 10 29 21 17 28 37 37 15 35 38 29 11 31 33 22 2 0 34 29 3 35 12 11 8 6 14 14 29 21 35 21 18 31 37 22 38 26 34 18 35 9 16 25 5 1 5 11 27 28 4 27 24 36 3 36 8 5 22 32 29 2 36 7 23 19 35 34 8 35 39 39 15 26 33 28 21 38 9 34 22 13 22 14 17 11 31 35 1 13 28 10 24 31 7 34 17 6 22 26 24 16 19 22 7 14 31 25 33 26 13 33 21 28 2 23 14 2 34 5 7 5 14 22 30 7 13 24 12 33 5 21 15 23 36 38 35 4 21 5 20 36 22 27 29 15 20 9 16 18 17 36 34 2 26 9 26 10 24 3438 4729 4846 3831 3361 3516 3075 3254 3340 3864 2790 3757 3202 2902 4384 13 4650 3974 4202 2943 3724 4807 3429 4192 4851 4464 4761 4377 2799 4312 3530 3175 4662 4148 4231 4326 4997 2984 3704 4166 4670 2904 3838 4235 3976 3039 2723 3592 4158 3095 4451 4976 2844 2599 4215 3046 4986 3637 4433 4839 4793 3780 3904 4186 16 4614 3691 3920 2942 3331 4773 4123 4205 3780 2780 4748 4192 4321 4741 3164 2965 4875 3751 4464 2896 3389 3757 3348 4827 3314 3521 3395 3074 4654 2658 2517 3099 3748 4124 2918 4772 3671 3657 3387 4055 4175 4143 3376 3010 2994 2756 4679 2797 3323 4311 4353 3215 4999 4413 4673 3654 4783 3250 4203 3823 3062 2718 3798 4230 4832 2777 2522 2586 2748 4964 4131 2684 4716 2735 4405 4561 3119 4685 4104 4417 4701 3197 4337 4790 4999 3919 3310 3963 4588 4348 3628 2893 4791 4434 3484 4812 3078 3381 2701 3437 3425 4002 3878 4759 3449 4857 3642 4001 3221 4133
17 11 11 2 34 7 9 29 10 4 23 34 7 20 10 33 32 27 32 11 1 23 24 21 1 14 16 18 16 7 25 32 12 19 0 17 3 3 9 8 2 20 1 28 20 33 34 16 17 22 20 11 39 4 37 26 9 20 30 4 3 3 2 37 21 6 36 32 24 21 21 8 31 17 23 25 12 38 19 8 2 25 20 29 32 13 8 33 3 10 25 9 36 25 37 30 7 3 5 38 38 29 28 11 19 26 5 29 39 22 8 4 35 19 29 11 31 11 6 3 7 7 7 11 23 30 23 30 3 7 9 14 34 24 12 5 10 35 30 1 29 11 8 3 23 27 11 9 14 13 3 23 32 1 18 20 16 25 2 39 18 23 29 1 17 38 36 8 14 32 6 15 24 4 39 2875 3260 2824 4445 3218 2657 3023 3964 2771 4539 2547 4745 2933 2822 3859 4516 2609 3417 2893 4195 2899 3937 3757 3777 3539 3144 3152 2811 4924 3112 3863 2562 4199 3591 3261 3442 3799 3655 4820 3418 3892 4604 2515 4164 3689 2906 2644 4738 4326 3264 2500 3323 3059 4371 2908 3654 4431 3577 3084 3075 3288 2857 4800 4185 4381 2703 4674 4010 4741 4142 3656 4283 2613 4012 2597 3950 3829 4592 3469 4797 3537 3141 4947 2672 2954 4414 2915 4718 3726 3497 4547 4685 4146 4961 4910 4265 4027 4688 2715 4661 3524 4088 3601 4784 2841 4420 4586 2827 4992 2979 4831 2963 2892 3074 3043 3166 3982 2659 4417 3272 4635 3080 3279 4191 2558 2521 4147 4408 3033 4001 3852 4656 3341 4257 4732 2808 4107 3489 4218 4821 4079 4896 3090 4281 3301 2971 4813 4453 12 3452 3826 4539 4229 3655 2716 4373 3564 3768 3920 3748 4321 4152 2782 4694 4870 4512 4365 3995 2653 2538 3416 3463 4646 4853 2726
35 17 21 30 23 21 14 5 4 16 39 13 1 36 37 7 38 22 12 13 8 20 25 24 20 39 17 35 22 34 6 35 24 27 9 0 3 27 3 32 11 27 32 28 26 19 33 21 31 34 30 6 1 23 6 4 10 9 18 20 31 34 38 7 22 5 31 23 23 7 11 17 17 37 28 24 20 27 28 30 25 7 28 8 22 17 33 24 30 27 17 13 9 19 16 15 15 22 39 23 13 27 36 29 21 2 17 4 4 25 19 11 22 33 7 36 3 18 2 17 37 39 14 28 30 10 2 33 14 19 8 36 9 32 17 35 26 37 26 17 20 25 3 26 26 35 20 26 3 18 35 15 8 14 26 29 34 34 8 33 14 22 36 36 10 11 38 26 18 5 27 20 35 12 33 4659 3892 4847 3192 3260 4973 2770 4049 4127 3649 4603 4822 4088 3614 2800 3920 3675 4155 4690 4384 3494 3336 4236 3598 14 3456 3115 4668 3959 3689 3441 4749 3874 4443 4858 4327 2815 3183 3385 4567 4632 3264 2965 3048 4651 4027 4641 2646 4605 3462 4621 2625 4605 3026 2944 4699 4146 3789 4720 2682 3512 4894 3837 2823 4665 4039 2582 4634 2917 4780 3534 4006 4784 2868 4267 4417 2565 4193 4323 2874 4650 4621 3462 3394 3016 2991 2900 4206 4870 2789 3248 3225 2616 4923 4940 4080 2536 3909 4288 4394 3503 3445 4875 14 2613 4837 2927 3571 3353 4670 3915 13 4320 3303 4071 3408 4730 3344 3534 2745 2715 3642 4385 4003 4904 3102 2770 3893 4131 4474 4919 3081 4103 3029 3521 4948 2556 3669 3835 4605 2819 3998 3034 4382 4293 2664 3362 3864 2586 3621 3822 3309 2592 3331 3932 2609 2916 2515 3027 3617 4801 3670 3756 2723 2717 4410 4339 4520 3794 2933 4646 3308 3270 3573 2845
27 10 11 20 5 7 13 30 1 18 39 32 20 21 29 8 15 4 37 3 37 14 3 12 10 31 1 34 37 30 28 9 11 30 8 22 0 3 31 9 24 25 19 33 39 1 23 11 9 23 17 25 11 11 29 30 35 1 4 31 34 29 12 10 35 37 26 14 14 6 16 1 17 25 15 15 1 6 17 14 30 19 1 32 28 10 35 22 10 1 14 30 27 31 22 7 7 21 34 3 24 12 26 23 5 6 17 29 7 4 23 39 38 12 10 21 18 5 39 38 1 10 13 11 8 17 27 32 39 38 5 3 20 29 2 7 10 22 10 14 35 21 20 3 26 15 11 31 25 15 25 27 3 17 9 27 21 32 20 39 15 13 5 11 4 34 27 8 30 23 4 28 34 37 34 4455 4011 3508 3266 3308 4216 4400 4553 2983 3419 2886 4411 3475 3767 4719 4846 3723 2963 3840 2889 3713 3713 3765 3971 2947 4601 3009 4031 3522 3956 3472 2543 4770 3353 3035 4522 2687 2520 4402 4179 2851 4119 4436 4039 3266 2851 2739 4100 3353 4544 4244 4248 4646 4699 3011 2898 4651 4133 4545 3531 4840 3993 3063 3786 2945 4167 2837 2829 3703 4240 3541 3965 3755 2811 4854 2609 4959 3708 2920 2526 4871 4423 9 4726 3000 4335 4968 3826 3761 4255 3720 4724 3490 4362 4085 3838 3562 3765 4352 3624 3372 4182 4110 2668 4833 2760 4173 4038 3792 2907 4349 4312 3815 4918 3293 3951 3854 4079 3594 4121 2860 2604 4064 3481 4346 4514 4309 4691 4536 4143 3609 3365 4968 2952 4227 4112 3336 3703 3765 3881 3848 4979 4865 2726 4451 2868 4937 4165 3927 3881 3977 3428 4358 4113 3146 4840 3262 2521 3873 3654 2900 2816 4700 4256 4747 2783 3702 4302 3629 3231 2752 3081 4946 2525 4803
22 5 1 9 28 18 16 28 36 26 3 22 36 34 2 29 2 26 37 33 20 3 38 26 8 17 36 35 1 11 32 6 18 31 29 9 33 0 18 9 29 14 14 36 8 18 21 23 33 20 39 3 15 31 10 12 22 18 5 28 33 6 29 34 2 22 38 24 32 15 33 2 17 35 37 26 22 38 1 17 11 21 13 9 2 18 14 23 2 14 11 16 17 33 26 21 21 31 18 10 5 31 34 36 31 27 34 1 4 13 19 6 24 38 38 5 19 6 9 37 31 24 11 16 12 25 34 28 18 8 22 27 34 32 17 31 30 20 12 38 27 26 9 2 5 16 11 38 1 39 30 19 7 17 8 3 35 23 6 36 11 15 22 10 37 18 28 2 23 16 30 27 27 19 33 2748 4286 2853 4537 3022 3938 3640 4780 3837 2831 3052 4979 4425 4044 3753 4395 4616 3993 4943 4426 2599 3089 3337 3223 3283 4798 4074 3710 3225 4202 4315 4335 4834 4760 2759 4032 2545 4839 3134 2664 3671 3225 2629 4179 4408 3580 4552 2642 3910 4518 3254 2711 4093 2995 2696 4066 4928 3813 4500 3121 4155 2875 3880 4185 3763 3480 3301 4586 4612 3482 3557 3249 3121 4981 3557 3809 3458 4596 3636 2545 4319 4254 3495 4541 3097 2590 4042 2592 4109 3299 3173 4210 3332 4110 2524 4842 3721 3955 2817 3143 4904 3432 4591 4580 2666 2964 4492 3455 4565 3932 3426 4632 3062 4170 2684 3095 3436 4050 4665 4467 4887 2601 3471 11 3259 4934 4649 3423 4524 2620 3704 3835 3466 3728 3337 2756 4330 4150 4966 4669 3081 4249 3116 2922 3880 4740 4301 3243 4328 3529 3532 2660 2989 4719 4025 2728 3338 4123 4713 4712 3081 4264 4356 4868 2964 2722 3630 4293 4668 4578 4238 2948 3363 3396 2542
16 32 13 30 34 20 15 11 13 31 1 8 15 38 22 13 7 17 15 36 5 25 30 1 19 11 20 6 19 15 16 8 30 16 14 24 30 24 0 23 14 3 3 7 39 13 22 3 5 8 39 33 10 10 37 13 36 3 12 2 33 33 3 5 3 1 9 28 11 1 5 10 2 31 23 37 31 11 31 29 34 14 12 29 21 9 5 5 34 35 8 20 8 39 9 10 9 7 35 17 25 22 29 18 27 32 19 37 12 34 32 2 39 36 15 6 24 5 30 30 15 10 38 12 21 39 9 9 39 11 11 19 7 11 5 8 13 30 1 28 35 27 28 24 1 15 2 14 37 24 32 22 29 12 1 32 30 38 34 32 38 6 34 4 30 23 14 15 28 4 39 13 26 37 24 2778 3867 4845 2844 2723 3822 3533 2608 3172 3972 3558 2799 3553 2726 4787 4621 4513 3977 4523 3833 4943 4570 4164 3598 4356 3935 4088 3619 2737 2818 3874 4648 3067 4463 2656 4448 3814 4240 3090 3975 4022 3042 4127 3468 2570 3567 2608 3337 4731 4703 3247 3437 4181 2543 3039 2936 2936 4270 2844 2660 4696 3250 2904 3286 2607 3052 4066 3537 3283 3000 2623 3095 4008 3233 3208 3233 4966 2643 4278 3777 4507 3921 3522 2962 3515 2717 3713 4626 2536 2546 3331 4754 3049 4275 4150 3707 3296 2605 4488 2709 4231 3918 3463 3343 4502 4928 3943 4373 2970 4043 3700 4380 2747 3721 4979 2954 4783 3552 2517 3815 2800 2707 4916 4507 3785 3637 3913 4717 4063 2541 2675 4552 3059 13 4975 3398 2590 4995 4902 4747 3605 4310 3264 4194 4366 4549 3478 4374 2807 3384 2540 2736 4659 3709 3141 2730 3707 3649 3502 4008 4302 4637 2911 4760 4762 4614 2759 3020 2884 4609 3985 3671 3156 4374 3071
5 19 1 37 28 30 17 37 5 12 15 20 5 28 7 23 39 14 36 3 18 19 2 31 8 9 19 23 14 5 37 33 39 21 34 3 15 28 4 0 11 24 6 15 33 2 31 2 7 15 37 38 39 14 16 20 35 24 26 19 21 22 29 35 3 1 16 3 8 24 23 26 30 3 2 14 25 37 21 38 2 24 1 36 26 18 26 26 4 30 15 34 25 21 19 29 13 14 10 34 29 37 5 12 14 8 38 32 19 3 19 12 4 15 38 17 18 31 19 2 15 18 17 22 12 4 25 15 31 29 35 34 24 37 27 31 32 39 10 20 29 30 16 25 14 11 30 23 27 22 27 14 36 33 24 4 2 17 7 12 37 39 23 39 31 30 12 27 2 21 33 39 21 6 16 2719 4368 3495 3876 3299 4815 4933 3898 4176 2577 4319 2865 2882 4992 3428 4037 2754 3857 4432 2826 3028 4695 4554 4521 4322 4360 4164 3108 3786 3358 2634 4111 3075 2561 4868 3396 4186 4221 2558 4464 3463 3806 3748 2534 4871 3452 4236 4336 3990 4665 4561 4295 3931 4975 3215 3808 2794 4725 4876 3605 3630 4069 4876 3399 2725 4706 4636 4671 2760 4003 3294 3102 3603 3373 2504 4625 4849 3612 4796 3187 3877 4948 2709 3776 3533 4232 2982 3249 3458 4879 3226 3574 3407 4933 3368 3853 4057 3199 3912 3383 3279 2511 2656 2839 2523 3979 3493 4545 3959 4878 3885 3150 4888 4108 3277 4657 4566 4621 3700 2634 3476 3167 3611 2714 3993 3205 3055 4905 3605 3723 4937 4519 2994 3545 3496 4260 3387 4543 2679 4060 3124 3843 3071 3875 3985 2560 4723 4185 4991 4694 3438 4607 3921 3304 3388 4218 3207 3443 4820 3840 3200 3104 2593 4961 4401 2832 2891 2878 3668 3886 4425 3631 4382 4912 2615
33 16 7 10 39 38 16 11 6 23 31 10 1 17 28 8 25 6 6 1 11 16 11 2 17 6 16 20 34 37 23 31 4 33 32 3 2 2 19 11 0 21 34 16 10 10 22 32 35 30 28 12 30 20 38 27 4 12 24 37 5 18 28 6 23 5 39 29 39 10 35 21 30 29 4 32 26 29 36 7 5 15 31 22 16 27 23 12 6 14 22 30 16 2 3 12 38 2 37 25 23 4 23 31 22 38 25 4 8 1 31 32 30 14 14 14 25 37 18 5 19 33 4 29 39 7 12 18 19 31 8 33 22 31 32 25 13 22 10 13 16 18 19 23 10 21 5 2 8 31 6 3 1 21 28 20 15 11 23 17 2 3 36 17 30 30 34 15 13 34 14 20 30 39 21 4519 2960 2528 4913 3682 3037 4168 3868 3602 4254 4291 4812 4218 3020 2717 3338 3623 4244 4889 2870 3127 4467 2976 3867 4928 3291 3438 3709 2747 4526 4290 3482 4238 4295 3527 4428 4124 4480 3797 4749 3659 4932 3349 4273 3118 4227 4633 3671 4909 4144 4148 4362 3858 3265 3013 4881 3301 2700 4392 4886 4101 3768 2605 4307 3219 2683 4317 3380 2810 4414 2791 2552 3457 4035 4245 4629 4982 3929 3519 2995 4812 3183 4442 2973 4544 4036 3978 4189 3130 2683 4624 3871 4403 3761 3639 3113 2717 3400 4241 3405 4629 3834 3940 2712 2893 3373 4719 3160 2549 4363 4051 3207 2619 4932 2647 4060 2571 3773 3108 2933 2782 2833 4724 2656 2997 15 4447 4398 4488 2671 3591 2713 3102 4354 4901 7 4666 4698 3841 3389 3211 2564 3694 2721 3457 3964 2971 2934 4822 3926 3969 4201 3310 4014 4360 3748 2646 3749 2768 3550 4644 4300 3340 4407 3983 2955 3889 2881 3464 3631 3754 3257 3808 3181 2830
30 24 2 22 24 33 20 2 28 32 32 34 37 24 7 36 37 35 28 16 29 5 33 17 26 16 12 2 21 7 36 15 37 32 23 33 21 30 11 3 29 0 9 3 30 20 34 17 13 21 9 38 20 22 12 14 20 6 20 1 34 39 16 38 27 7 31 29 39 22 37 16 29 28 17 32 17 31 9 15 18 17 19 16 17 10 20 22 39 15 12 4 14 14 17 9 26 35 19 2 10 27 20 7 15 34 22 30 8 2 1 2 36 18 33 31 13 5 29 29 39 10 29 25 6 9 37 39 5 27 8 6 24 23 39 14 35 21 14 9 15 28 10 18 33 35 12 25 13 39 13 13 23 10 18 14 36 2 27 6 2 21 13 26 32 34 23 28 10 7 36 28 7 37 38 4144 4340 3785 3404 4279 3678 3543 3671 4000 3624 2965 3905 2656 4627 4373 4406 3000 3619 3614 2576 2854 4375 3986 3735 4632 3469 3064 4158 4942 3334 3691 4028 2805 3202 4339 3790 3521 3940 4905 3098 4816 4122 3641 4519 3250 4470 3317 3891 2934 2676 3124 3218 3254 2965 3070 4871 4959 2671 4405 4179 3561 4771 2948 2819 4607 4297 3535 2538 3227 4862 4012 4530 4109 4990 3759 4669 3960 4982 2574 2897 2969 15 4245 2523 4272 3102 3710 3648 4041 4216 2678 3718 3470 4666 4090 3718 3806 2523 4734 4254 4577 2992 4012 4719 4693 3533 4424 2764 2795 2574 4681 4560 4172 4615 3304 3016 4674 4741 3453 4534 3917 4245 4036 3086 4839 4931 4348 4943 2987 4974 4886 2894 3115 2954 3223 2525 4235 4667 4852 4287 4601 4044 2904 3653 3574 4212 2577 2733 4639 4694 3861 3830 4123 3609 3217 2641 3203 4454 4401 4632 4343 4426 2560 3768 2877 3863 2640 4682 3871 2699 4086 4611 3115 2666 2871
34 9 16 23 33 26 34 29 21 34 7 27 15 5 36 17 25 22 9 28 22 11 11 18 20 5 34 17 28 6 28 30 19 39 26 8 3 4 28 11 20 38 0 29 39 11 34 20 23 39 16 10 38 3 14 17 35 14 1 9 21 26 17 28 25 22 38 32 10 29 20 14 10 38 24 18 31 28 23 34 1 5 14 33 21 18 8 26 8 38 30 4 14 1 15 26 16 39 26 4 9 35 28 25 7 23 13 33 21 7 39 24 28 30 33 5 19 24 6 4 37 13 11 38 15 28 36 11 20 29 22 11 33 11 19 23 4 39 22 23 10 31 30 14 5 10 17 21 7 2 9 18 12 28 10 26 8 13 3 5 25 7 4 3 13 37 22 24 13 18 7 17 3 5 13 4651 4097 3069 4325 4745 3830 4201 4574 2862 3569 4287 4464 4974 4718 3742 4752 4314 4835 4105 3174 4723 4824 4589 3443 4170 2938 4346 4228 2916 3861 3828 3184 4383 3538 3359 3844 4837 3423 4462 2552 15 3767 4458 3557 3423 3643 4562 4789 4221 3006 4403 2841 4673 2910 4379 3420 4147 2991 4402 2611 4467 2633 4363 2706 3361 3129 4161 2907 2997 3842 4897 3448 4798 4657 4213 4990 4503 3742 4842 4932 3228 3578 3337 4097 4765 4827 3316 2537 3770 4262 4239 3281 4095 4127 3550 3702 3165 2916 4610 3040 3756 4973 4357 4497 3727 4690 4624 3467 3932 3533 2758 3537 4805 4686 4269 4281 3256 4857 2988 4882 2834 4447 3294 4284 2994 4965 3834 4098 3814 3089 2648 3591 2997 3981 4305 3498 3675 4105 3345 3191 4100 3723 4646 2571 2705 3689 4724 2503 3248 4173 4414 4958 3107 4631 3914 4245 3682 2932 2798 2517 2732 4423 4515 4455 4065 4063 2828 3562 2744 2667 3807 2875 2614 2678 3168
35 14 36 28 26 19 37 35 13 12 7 32 16 6 17 11 23 13 19 8 21 32 11 23 37 36 9 38 16 23 16 19 36 26 30 25 2 20 36 19 35 37 22 0 19 23 4 37 15 34 17 18 33 32 8 6 35 6 29 38 29 4 33 5 21 26 19 15 30 7 30 8 7 39 19 19 20 24 23 2 14 27 33 36 29 11 3 36 36 33 2 11 18 14 5 34 1 32 2 25 14 17 16 20 8 31 31 2 25 3 3 34 15 27 9 10 9 37 37 27 27 37 12 32 29 19 25 34 20 17 10 32 10 9 30 14 15 18 11 33 31 5 39 6 38 10 28 33 12 13 33 17 24 38 29 26 30 20 4 21 37 30 37 12 19 30 5 5 30 18 26 30 11 31 15 3596 4172 3759 4247 3825 4235 2942 2556 4960 2565 2871 4654 3656 4225 3106 4452 4839 2983 2684 4037 3487 4769 2967 4003 4960 4080 2568 4730 3185 4104 4121 3210 2603 2772 4952 2693 4608 3989 2582 3240 4656 4959 3485 4367 3681 3111 4405 3593 3220 4936 3536 4431 2553 4056 3062 4093 4151 4618 2520 3318 3680 4079 4254 3807 4768 2591 3399 3825 3254 3585 4261 4507 3257 3619 3065 3648 3415 2786 3623 3106 3260 3288 4509 3112 4141 3867 4793 3383 3371 2516 3688 2788 4422 4712 4002 3373 2890 2671 3798 3709 3238 3169 2579 4588 4067 3457 2828 3604 4118 4780 4951 4260 3122 4406 4467 2577 3560 3133 4871 3361 4694 3792 3000 4709 4878 3785 4421 2780 3934 9 2585 3249 3434 3725 3005 2842 4634 3192 3989 3252 3650 4658 4034 3748 4753 4199 4779 3901 2719 3258 3524 4194 3608 4252 2635 2701 3234 2708 3523 3414 2713 3276 4738 2977 3063 4492 4170 3680 3203 2928 4705 3453 4018 3932 2884
21 38 38 31 10 3 30 10 28 21 12 11 18 34 22 19 33 12 5 6 18 5 13 30 29 8 24 30 16 22 11 21 23 25 6 14 30 6 9 30 24 10 13 34 0 31 16 22 36 31 17 20 2 25 29 23 28 31 30 31 32 4 38 36 30 23 23 6 2 35 31 23 23 37 13 2 34 24 14 22 24 11 11 24 14 8 22 37 36 11 38 12 12 17 19 7 7 18 5 26 7 17 1 26 19 33 29 34 17 24 13 31 34 32 39 39 28 21 10 34 13 37 12 29 14 20 7 4 9 7 32 9 39 12 38 31 4 17 28 36 15 19 15 35 16 12 1 14 11 6 1 33 15 9 10 15 10 20 2 5 11 20 37 38 1 30 22 22 1 28 10 35 36 1 4 4998 4547 2746 2905 2758 4661 2831 3837 3305 3437 2512 4015 3140 4833 3045 4199 3172 2676 4214 4618 2542 3214 4631 4026 3794 3957 4615 3815 4566 4924 4513 3777 4757 4552 4159 4990 3147 4221 4715 4007 4608 2682 4105 3352 4089 4167 2762 3245 2571 4665 3960 4651 4834 2780 4060 3647 3362 2768 3624 4355 3735 3854 4305 4696 4659 4603 3323 3298 4905 3671 3226 4297 2972 3810 3146 4427 3101 3081 3040 4020 3600 4121 3668 3814 3438 3658 4265 3727 4178 3304 3020 4737 3510 4091 4670 2714 2896 2634 2933 3361 4750 3167 3194 4590 2533 3723 4366 3062 2930 2914 2812 4626 4160 3202 3016 3085 3408 4170 3364 3830 3428 3326 4405 2984 4308 3417 3464 4802 3196 3195 3297 3940 3396 3279 3176 3651 2823 4787 3447 4472 3017 3545 2945 4946 2601 3672 3402 3881 3577 4744 4470 4190 2689 3833 4533 4215 4904 4762 2879 3505 2699 3218 3885 3724 2942 2849 3466 3047 3244 4431 3063 2521 3822 3224 4170
34 14 23 14 16 27 33 17 17 4 20 2 23 3 5 38 29 22 39 32 14 7 34 37 23 3 17 24 25 38 25 26 24 9 38 18 10 6 36 18 20 28 2 34 26 0 30 21 6 38 33 12 27 25 30 27 4 26 33 5 15 13 22 17 2 3 36 15 8 7 14 4 34 25 18 7 35 26 12 5 31 32 38 14 7 13 24 13 7 17 19 23 14 21 30 16 20 16 7 32 34 14 4 38 2 18 7 9 4 36 20 17 9 11 18 39 19 38 8 18 39 15 4 33 34 25 27 36 9 15 31 4 14 20 20 6 20 30 25 20 34 23 6 38 16 16 32 36 37 23 21 22 36 27 32 35 30 4 17 10 30 25 13 4 25 14 23 22 25 12 14 31 34 15 33 3848 3542 3409 4643 3714 3804 4364 4352 3009 4773 4808 4505 3989 2859 4473 4920 4352 4839 3886 4928 3887 4204 3306 3476 3777 2524 2755 3235 2660 4166 4153 4325 3692 3583 3420 3470 3483 3872 4890 3685 3223 2575 3167 2725 3522 2691 4007 3119 3914 3073 2588 3668 3165 4250 3088 4632 4433 3819 4919 2770 3531 3691 4944 2991 2790 2844 3783 3539 4420 3085 4100 3711 4558 2565 4507 3755 3678 4366 4315 3324 4031 3112 4785 4208 2703 4977 3264 3892 3950 3697 2817 4127 2935 2995 3321 4053 2868 2802 3742 4927 4796 4604 2769 2561 4396 4764 2557 4301 4223 3373 2509 4311 3154 4896 4874 3882 2636 3601 4544 3886 3398 4931 4204 2803 2829 4188 4806 4729 3512 4559 4429 2612 3332 3063 4845 4968 3073 2868 4448 4223 3019 15 2530 2941 2649 4388 3101 4308 2945 4549 2579 4373 3401 2904 3686 4584 3322 2865 4302 4980 4771 3204 3390 3591 2582 4043 4536 4818 3328 4059 3015 2909 4437 2508 4857
19 13 9 29 38 39 8 24 32 37 4 32 8 17 24 39 37 10 1 35 27 38 1 37 8 24 33 15 14 32 19 24 20 2 32 31 5 8 14 7 1 29 15 7 34 17 0 39 6 9 17 19 32 16 15 30 20 20 19 16 18 19 28 14 9 8 17 26 17 17 32 26 24 38 29 13 19 27 8 28 34 38 17 28 36 12 3 22 19 10 26 11 27 35 10 31 35 12 1 5 8 18 28 30 34 12 24 17 16 34 9 10 17 12 36 32 21 1 21 28 4 28 12 3 17 15 5 36 27 25 34 3 11 16 29 7 23 29 2 17 23 13 4 33 36 18 37 14 8 36 38 9 32 22 1 8 2 24 19 12 37 32 11 30 16 16 30 24 31 21 35 30 17 23 3 4560 2588 2808 4404 3424 2894 3366 3162 4759 3991 4738 4053 3342 3556 3414 4934 3172 2650 4468 4779 3998 2985 4863 3440 3184 4198 4986 3142 2782 4227 4518 4478 3428 3506 3144 3413 4963 3789 4446 15 3125 2602 3076 4325 4967 3473 3983 3055 3655 4406 3845 4780 4688 4437 3546 4137 3979 2624 2659 4934 3955 4092 3177 3525 3107 4589 2564 3147 2791 4022 4181 2818 4650 4446 3885 4451 3535 4158 4558 4425 4642 3900 2633 4446 2689 3110 4239 3943 2858 2500 4101 2931 4505 4954 3548 2780 2876 4663 3301 4894 4493 4906 4139 2642 3678 4509 3772 3998 4900 4421 4779 3321 4995 4195 2530 2590 3467 4869 3111 3810 2676 2576 4275 3515 4864 2914 3928 2773 3207 3293 3722 4112 4943 4249 4474 4572 2957 2988 2617 4280 3627 3710 2604 2958 2999 2869 4854 3155 3330 3448 4172 3687 2592 3261 3177 3071 3916 4859 3307 4744 4458 19 4329 2670 3141 4384 2639 3200 4917 4519 2822 3189 2931 4615 4552
8 25 27 22 33 24 38 25 21 3 22 21 4 30 28 1 27 39 2 32 19 33 16 26 20 17 33 12 3 13 2 38 2 39 3 11 38 38 31 20 30 1 20 2 15 20 6 0 39 20 6 3 35 26 23 35 8 25 22 35 38 38 2 36 16 10 31 26 11 27 25 24 14 5 2 33 13 39 12 20 9 3 17 7 27 15 17 32 17 25 35 37 15 35 18 28 31 23 34 18 4 4 15 22 19 33 11 25 14 8 35 10 8 20 3 6 16 10 19 35 10 38 14 10 12 4 35 19 13 1 19 25 13 1 33 4 14 31 11 36 15 23 3 1 30 21 23 22 37 34 13 9 22 27 19 34 31 28 21 16 31 17 5 7 17 12 34 11 33 35 2 5 9 5 34 4245 4699 3986 4658 4462 3979 4916 4437 4138 2690 2904 2877 3337 4811 4167 3541 4398 2657 4269 3728 3080 4824 3901 4957 2603 3888 4068 2846 4793 3614 4425 2557 4759 4148 2911 19 4724 4886 3164 2813 4018 2946 4097 4865 4318 2745 2684 4227 3031 2851 4912 3533 2751 4498 3669 4496 2723 3587 3240 2924 3599 3844 3754 17 4789 2816 4841 4785 2792 3296 4676 3068 4196 4497 3559 3582 2668 4614 4743 4023 3359 3011 4868 4979 3637 4328 2507 3061 2977 4458 4359 4654 3050 4644 4652 3224 3848 3876 2621 4349 3940 3023 3347 2927 4913 4943 4345 4673 3605 3426 2815 4832 3583 4803 4559 4986 15 2685 4770 4710 3928 2574 4530 4247 4679 3511 2986 4886 3711 4457 4634 3942 2757 3625 2709 4864 4139 3519 2982 4185 4796 3207 4423 3869 4566 4957 3288 3279 4978 2816 2606 3995 4080 3969 4551 2886 4827 3489 2997 4454 3041 4753 3952 4194 2913 4885 3461 2852 3627 2824 3705 3379 3305 3593 4646
17 38 7 24 7 27 18 23 19 22 16 11 27 30 27 13 13 9 9 9 33 15 36 36 18 9 32 18 15 24 31 27 10 22 9 7 12 4 21 22 4 17 30 24 26 3 21 22 0 32 10 26 23 27 14 29 27 27 25 32 20 28 38 8 1 6 3 11 30 26 38 27 22 39 16 6 27 8 32 14 23 9 18 21 33 11 33 34 20 26 30 22 29 33 3 14 25 6 31 31 5 29 5 31 31 4 33 19 31 8 33 37 38 2 38 33 17 21 20 19 36 21 35 3 23 13 3 6 11 15 2 30 9 19 17 3 35 23 29 27 35 3 32 9 8 14 17 29 13 30 5 26 27 33 32 1 18 37 33 11 13 5 28 34 38 31 34 37 3 23 36 13 33 1 13 4763 4939 4099 3959 3822 3377 3121 3562 4354 4162 2752 3845 4662 4450 2564 3569 3375 4610 3155 4684 4063 2786 3708 3333 2622 3737 4444 4455 2954 3796 2520 3694 3043 2797 3102 3679 2533 3465 3134 3911 4904 2746 3295 3550 4930 4149 2840 4542 3211 2701 4053 2859 3254 4373 4824 3111 3198 4606 4127 3937 4363 2564 4330 3300 3898 3623 3037 2524 2569 2555 3148 3784 3968 2546 2651 2713 3413 2545 4265 4414 4550 3933 2629 4917 4134 3252 4052 2720 3579 3194 3016 2973 3085 4408 4798 3488 2518 2955 2580 2817 2852 4433 3929 9 4951 4401 4101 2655 3279 3454 2793 2946 2808 3722 4722 2941 4515 3786 2971 3978 3370 3578 4917 2932 3183 3976 3477 4986 3007 3724 3532 4354 3817 3196 3915 3872 3574 2679 3794 2640 3748 3978 2888 2698 4250 3972 3097 4858 2843 3575 3639 2869 4152 4837 3949 3981 4144 2761 3364 3470 4747 3965 4815 4899 4556 4208 4954 3955 4377 2505 4012 4549 4398 2932 2978
34 27 33 32 2 32 37 13 34 8 34 19 22 35 15 24 13 12 27 19 19 4 21 23 6 15 10 5 30 14 31 11 38 7 6 18 29 8 35 14 29 11 25 5 6 26 23 33 28 0 33 23 29 33 17 5 30 33 2 19 32 13 23 18 28 23 9 14 32 6 14 4 14 24 37 28 30 38 7 34 4 3 30 5 5 17 31 1 28 21 34 29 5 5 2 16 24 38 5 2 24 10 28 1 32 32 21 38 18 31 11 14 28 36 34 32 25 23 23 27 28 31 28 19 5 19 2 25 15 38 35 16 33 21 35 39 7 20 39 17 2 3 4 23 16 35 21 25 18 24 35 11 16 6 21 12 14 36 2 24 22 16 11 16 29 29 10 13 2 10 30 27 34 20 27 4940 3276 2644 2662 4562 4034 3164 3001 2928 3251 2650 3488 4465 4221 3612 2605 4321 2552 3862 3213 12 4530 4302 2731 4949 2876 3467 3823 2987 4141 2659 4015 4740 3861 2926 3510 3733 3145 4294 3308 3547 3798 2682 3680 4380 4205 2755 2737 4840 3921 2811 2751 4132 3580 4916 4947 2772 2704 3408 4046 3481 2599 4051 2607 4374 3756 2981 3057 3163 3411 3591 4283 2940 4143 4954 2563 2642 4213 2574 4077 4748 4908 3336 2608 4489 4928 4054 4327 2632 4630 3579 3230 4914 3807 2623 3934 4444 4440 4897 3545 4090 3599 14 4528 4824 3647 4109 3654 4476 3366 4728 4702 3894 4934 3862 3853 3428 3922 2864 2952 3287 2885 4523 3686 3828 4559 3713 3109 3752 3287 2525 3006 2665 4441 4214 4374 3520 18 2574 4848 4540 4741 4408 4948 2570 4903 3323 2872 4381 4715 3181 4308 2558 4141 2796 2794 3240 3216 4119 4860 4134 4931 3415 4247 4042 4039 3195 4748 3452 3039 4751 3295 4855 3066 4081
17 18 30 24 6 23 15 19 6 17 7 12 14 32 38 1 27 20 29 10 27 9 5 20 37 37 3 35 26 20 17 2 25 4 16 25 10 12 21 9 14 17 39 35 5 21 5 33 19 10 0 32 5 39 8 35 4 29 29 20 34 2 38 27 12 20 16 23 5 39 20 33 32 13 32 35 35 13 30 18 23 8 23 16 16 2 22 5 19 20 3 20 6 35 20 17 21 14 30 15 14 33 35 19 1 15 20 2 34 1 22 8 33 1 19 12 23 25 2 7 15 12 24 1 23 39 3 35 7 21 25 26 8 24 9 38 26 33 10 4 15 34 4 8 27 3 19 16 5 25 35 15 5 4 35 3 5 29 21 16 9 26 25 19 3 14 18 14 16 21 39 35 20 1 10 3248 3701 3578 3540 4304 4936 3540 3423 4244 3031 2573 4722 2527 3563 3565 3770 4069 3624 4763 4923 3143 4637 3137 4280 3692 4108 2590 4557 2867 3629 2733 2663 3133 4884 4233 3266 4499 4523 3645 3287 4930 2704 3609 3834 2984 4710 4185 3220 2978 4495 3427 4658 4697 4266 2797 2729 3813 4957 3667 3876 4102 3168 3391 3215 3075 4109 3290 4498 2913 4600 4290 3607 3017 3931 4925 3111 4235 2654 2588 4323 3626 4995 2881 3354 3351 3281 3995 4815 3711 4556 2832 4985 4782 3150 4915 4968 4697 3577 4539 4608 3481 3393 2895 3236 4887 4941 3047 4617 3552 2598 4228 2638 2604 2661 2772 4046 2651 4049 4374 2663 2770 2580 3622 4774 3178 2772 2940 3372 4477 3674 3408 2923 3691 2615 4707 3269 4892 3375 3043 2561 3592 3506 3624 4651 8 4185 4341 3558 3032 4609 3436 3550 2798 4977 4065 3982 3096 3857 3367 4309 4449 2544 3199 2774 4222 3036 3198 2897 2666 3423 3619 2806 4848 3789 4172
28 14 13 25 4 32 29 32 7 31 14 29 31 16 7 10 2 7 29 39 35 37 1 39 9 15 34 29 35 23 12 15 4 33 17 28 22 28 28 20 13 15 22 3 32 22 21 20 14 13 28 0 22 30 11 21 20 7 2 3 36 32 15 18 31 26 30 26 39 27 34 21 1 36 22 22 28 6 32 28 23 19 7 38 32 23 16 12 28 26 17 15 14 3 15 10 15 25 4 18 17 17 37 35 27 35 10 32 4 24 9 8 1 3 38 37 24 13 36 12 38 39 28 36 34 30 19 39 9 15 3 7 11 24 33 11 10 29 29 32 39 16 35 24 5 17 19 19 27 7 18 14 29 33 27 7 25 33 22 18 38 32 8 4 27 10 38 25 26 6 15 10 30 1 23 4262 2855 3470 3888 3681 3812 3876 2597 3846 4879 3340 3835 3282 2849 2927 4577 3965 3258 4659 4447 2697 3324 3631 3714 2559 4087 2938 4337 3775 2801 4003 4654 3648 2748 4691 4781 3106 2877 2720 3768 3498 4907 4637 4632 2586 4934 3139 3137 2898 3484 4519 3153 3808 4755 2593 2985 3921 3579 4830 3277 3030 3518 4417 4334 4442 4278 4867 4196 4176 3599 4508 4674 2915 4348 3962 4670 3422 2907 3523 4714 3189 4949 4290 4560 4547 4969 3780 2895 4484 4371 3432 4217 3124 4666 4821 4897 2676 4719 3076 4678 2879 4877 2581 4402 2921 3668 4181 3055 3890 4454 3268 3531 2971 4242 3489 3039 3986 3304 2624 4747 4298 2868 2572 4938 4486 3533 2911 2630 4666 2840 3370 3953 2683 4508 4440 4622 4475 3997 3944 2564 4431 2550 3272 4674 3702 4882 2677 4268 3636 4304 3280 3009 2588 15 4462 3800 2648 4614 2989 2754 3977 2802 3206 2674 4400 4316 4163 3161 2889 2820 2513 2662 2699 3892 2517
33 34 4 39 28 22 26 17 22 11 29 30 29 32 1 14 37 35 33 12 39 20 7 24 25 6 28 20 21 7 15 27 27 18 4 32 9 3 27 17 23 4 9 7 37 37 31 3 33 18 29 12 0 37 25 29 18 13 18 20 28 5 20 29 37 33 14 39 23 7 12 13 24 4 20 2 21 37 25 27 10 33 26 35 2 7 1 39 38 13 30 38 38 22 20 13 37 27 26 7 30 36 3 4 7 38 18 36 7 29 19 3 22 9 35 15 14 19 27 27 35 4 25 33 18 33 18 4 28 10 1 8 13 3 6 11 28 17 13 39 5 25 34 22 12 16 24 15 8 38 26 20 20 2 23 38 12 37 37 4 30 9 18 37 8 13 10 10 33 37 36 33 24 22 34 2795 4124 4380 3773 4927 2666 3432 3726 4201 3273 4771 4013 4810 3161 3157 2998 2945 2732 4187 4754 4426 4855 3164 3655 3167 3654 3785 2507 3290 3104 4626 2642 4010 3144 4723 3850 2867 4384 4612 2606 3463 2952 4086 2530 2666 4592 2639 2723 3141 2830 3953 3721 3548 3540 4610 3083 4694 3134 3903 4750 3701 3895 2717 4541 4555 3640 2502 3223 3546 3096 3145 4441 4704 4365 4910 4974 2633 3736 2711 4403 3197 3641 3223 4445 2915 4963 3647 3613 4808 2838 4000 3766 3992 2726 3256 4344 3064 3774 3502 3029 3998 2820 3426 2741 4937 3571 3334 2825 4395 4965 4244 3857 3099 3805 3526 4239 4640 3660 2900 4432 2718 3686 4011 15 2692 3591 4641 4343 4483 2984 3286 4564 4146 4681 2647 4332 2526 4468 2665 4167 2746 4338 2721 3377 3456 3271 2647 2938 3962 3526 4015 3860 3069 3074 4271 3334 2688 3111 4019 3328 2595 4662 2738 2733 3344 2927 4467 3389 3702 3443 2542 16 4661 3140 4435
9 20 12 7 1 11 26 33 36 11 38 18 2 11 25 12 24 10 26 21 4 25 18 10 8 30 10 9 25 14 10 10 1 28 6 12 10 39 21 34 27 36 4 4 3 36 4 18 31 19 8 32 22 0 6 7 30 12 29 15 3 39 24 25 5 27 26 21 29 23 6 39 24 18 6 28 16 25 5 34 12 17 18 33 22 13 16 28 14 28 30 14 17 1 8 23 13 30 29 14 34 30 1 24 6 34 10 23 32 17 10 30 21 11 19 4 12 35 20 29 17 15 15 28 24 4 13 14 31 13 11 38 27 2 29 10 18 12 26 4 14 2 23 29 7 22 19 36 3 33 29 2 18 35 16 9 17 3 26 1 20 7 3 30 39 8 35 39 8 26 36 23 30 29 29 3981 2788 4098 4972 3255 4619 4687 4782 4964 3867 4846 4831 3372 2650 4476 3604 3959 3005 4883 4928 2545 4993 4852 4055 3709 3768 8 2557 4899 4086 4113 4541 2743 3984 3826 4640 2764 2806 3784 2549 3447 4596 4484 3287 4683 4598 2884 4317 3665 3279 4693 4452 2978 2826 4432 3106 4997 4462 2820 3021 3562 3577 4344 3372 3346 3130 2544 3851 4391 4303 2730 4717 4249 3530 3988 4419 4047 4745 3977 3062 4777 2896 4760 4467 4632 2635 4456 4252 2874 3971 4494 3849 2639 3654 4459 4014 3860 3214 2501 4870 3167 4389 2566 3517 3371 3468 2996 4443 2999 4134 3340 3080 4756 3161 3003 3088 4503 3834 2693 2886 2990 3264 4292 4357 4561 3775 3009 3157 2969 3063 2518 4591 4109 4012 2713 4845 3470 4177 3572 3352 4407 3651 4332 4381 3098 3462 2784 4666 2984 4190 4286 2802 4014 3566 4891 4892 2537 4388 4347 4501 4634 4287 3008 3964 3468 3319 4672 3051 4510 4643 4239 4403 3323 4927 4509
19 21 22 33 16 24 37 25 10 9 24 5 4 32 39 18 39 32 27 13 8 39 32 37 6 38 35 18 3 23 39 37 9 10 18 12 17 10 36 18 12 3 9 7 22 5 28 14 37 25 25 16 24 12 0 5 37 28 32 25 6 34 6 16 4 34 30 27 25 39 37 22 37 24 30 17 15 35 33 35 3 26 13 32 15 9 34 19 38 39 6 5 3 23 4 31 15 7 7 21 17 11 14 18 28 9 11 32 27 1 11 37 14 39 33 19 22 30 31 31 28 9 3 39 1 3 30 39 7 26 39 14 30 19 37 11 24 2 36 29 27 16 26 6 24 32 13 8 23 34 39 27 21 25 21 2 12 28 5 20 27 10 29 18 10 23 23 12 29 12 18 30 27 3 32 3585 4838 2871 3468 3370 3238 4002 3376 3349 3469 4441 4413 3416 3978 3515 2520 3133 2781 4638 2819 3962 3650 2739 3551 4349 2629 3433 4395 4897 4892 3219 2678 2565 3795 4994 4461 3494 4047 4128 3578 3712 4188 3847 2823 4099 3333 4498 4425 3144 3766 3908 4811 2951 4862 4660 4102 4274 4273 4004 4516 4993 4359 3802 4221 4059 4381 3498 12 3785 4168 2590 3412 3142 2915 4005 3729 4344 3483 3969 3497 2835 4593 3850 2703 3726 2798 2559 2655 2669 3070 3046 3045 3559 3142 4013 3358 4920 4870 2583 4411 4990 3358 3176 16 4267 3776 2937 4727 4223 4400 3874 4456 3103 4021 4106 4008 3690 4687 4064 3973 2608 4950 3954 4795 3218 2807 3425 3612 4744 2563 4240 4055 3156 4266 4618 4007 4023 3953 4314 4462 4631 4662 2716 3552 4871 3292 4558 3696 2968 4138 3726 3021 4683 2695 3315 3555 3886 3998 4269 4200 2907 3586 4590 3131 3197 4594 4585 2567 4732 3998 2638 3827 4011 2703 3924
27 1 23 5 35 18 25 21 32 2 5 23 35 21 21 31 26 11 31 31 30 8 25 11 34 37 16 32 29 20 26 26 19 15 25 34 13 4 16 10 38 5 25 25 5 4 38 4 36 21 18 8 38 22 33 0 8 25 11 22 15 38 38 10 18 24 23 26 29 8 1 33 29 23 35 16 39 19 3 27 21 12 19 32 3 1 16 14 25 24 34 29 13 24 28 14 38 26 2 14 4 37 21 39 39 17 27 3 33 2 21 8 34 33 5 11 38 38 27 19 31 8 30 39 34 12 23 32 28 8 27 15 7 23 3 33 18 24 24 38 30 29 33 24 13 26 26 10 26 22 8 26 35 9 31 27 11 6 10 11 31 2 36 39 20 27 34 1 1 2 23 37 13 33 34 2646 2928 2610 4473 4941 2568 2640 3467 3725 2693 4610 3408 3467 3178 3436 4954 2668 4968 3616 3316 2864 4929 4524 4040 3531 2961 2940 4580 3383 4817 3030 3158 3952 3818 3352 3977 3045 3516 2682 4418 2813 2940 4047 2952 16 3954 3468 2827 3324 4006 2959 3281 3037 3791 3856 4326 3393 3076 2873 4744 2651 4617 4590 3528 3052 3549 4015 4117 2788 4461 3370 4830 3591 4346 2616 4714 3658 3576 4470 4105 4109 4727 4435 3100 4629 2733 4450 4988 2942 4717 3236 4157 2941 2567 2954 4359 9 4839 3341 3661 2911 2767 3793 2595 4161 2746 3080 3860 4458 4301 2843 4372 3888 4464 3623 3006 3125 2582 4260 4294 3089 4772 4771 3913 3838 4731 4619 4707 4329 3094 4857 2742 3479 4801 4220 3847 4455 2943 3355 4723 4851 4744 4914 3391 4480 4509 3875 4709 4037 2816 3869 4268 3948 4596 4843 8 2503 2611 3241 4909 3962 3462 2895 4135 4429 4381 4362 3103 3096 4386 2969 4406 2952 3201 3971
17 2 20 8 11 3 8 7 32 36 5 14 13 8 20 1 8 4 13 32 35 20 38 26 4 6 8 3 24 18 23 34 38 27 6 26 19 27 2 18 25 19 24 2 27 17 32 20 30 10 21 18 35 13 22 5 0 23 30 16 21 26 28 29 24 33 6 6 3 21 14 10 16 24 31 27 11 2 37 23 38 36 3 34 34 5 19 1 4 15 9 24 29 30 39 30 32 37 25 4 26 16 1 36 16 16 24 26 32 27 20 5 8 8 5 32 35 17 9 21 7 13 4 4 27 7 16 19 36 26 6 32 30 22 1 34 29 19 37 7 7 26 25 22 6 21 8 29 29 32 18 17 36 37 16 36 24 3 23 39 6 14 16 39 27 34 25 29 33 39 9 37 27 1 33 2866 3175 3517 3085 4582 4811 4844 4735 2658 2829 3135 3842 4191 4812 3233 4612 4883 3492 2601 3081 3849 2816 4742 3605 2884 4194 4698 4029 2807 3102 2610 3976 3978 3069 3606 4666 3360 2971 3202 3576 4101 2642 3405 3020 3995 3043 2538 3529 3811 3684 2550 4409 4571 3119 4776 4172 3834 2670 3580 3946 3335 3404 2779 3315 2666 4620 4519 3657 3538 4717 3845 3084 4410 4507 4767 4617 4825 4561 2549 2624 4815 4107 2616 2789 4010 4907 4309 2534 4931 3034 4348 3359 2977 3495 2748 3438 3916 2985 3809 4782 3618 2780 2844 3712 4584 3157 4084 4178 3590 4526 3609 4702 2685 3223 4566 3962 4870 17 3581 3260 2617 3745 4336 2956 4352 3285 3007 2780 2838 3921 3060 3132 3200 4435 3001 2735 3281 4426 2554 4353 4434 2856 3702 3331 3247 4659 4890 2711 4928 4876 3814 4969 4649 4085 4928 4927 3351 4812 2905 4336 4120 2936 4503 2975 3682 3000 3120 4610 4271 3306 4333 3696 2551 3765 2959
3 28 17 31 17 14 6 1 24 7 15 3 8 16 39 3 30 34 21 30 4 17 6 12 39 20 12 20 22 37 5 18 13 24 5 19 21 39 35 4 30 24 34 9 21 27 22 26 26 24 30 20 18 2 16 15 18 0 37 20 6 31 9 21 28 32 32 32 36 5 36 1 9 12 38 25 11 31 28 10 32 11 16 4 14 37 4 10 5 26 25 15 15 32 4 23 36 5 22 6 11 4 19 12 17 26 16 35 23 3 21 23 39 30 25 25 6 37 31 11 15 9 37 30 21 14 35 17 37 26 18 1 7 26 29 6 11 25 24 24 3 22 31 6 16 8 23 21 35 30 19 8 7 30 9 1 35 30 6 16 35 8 24 20 30 34 11 35 19 11 18 4 28 17 4 2937 3196 4279 3534 4570 3137 4737 4792 4013 4594 4944 2610 4033 4071 2600 4936 4292 2985 2563 4236 4067 2934 2850 2550 4613 2683 3129 3474 4840 3747 4663 4713 3144 4534 4448 3628 4205 2776 4667 4159 3982 4895 2709 3188 3442 4614 3097 2866 3326 2778 3114 3875 4780 3011 3713 4057 4107 2737 4932 4938 4206 3618 3990 3637 2698 2662 4493 4539 2846 4211 4416 2809 2877 4513 4292 2635 3916 3966 3378 4388 4252 4118 3168 2596 3240 2583 3380 3189 4345 3063 4825 3083 15 3507 2565 3336 3541 2744 3292 2778 3607 4698 4831 4807 3498 3006 4571 3790 3942 2827 3425 3624 4046 3267 3608 4311 10 3114 3608 4176 3807 4893 2776 2949 2797 3068 2541 3646 17 2778 3578 2822 4489 2526 2924 2580 3142 3883 3085 4397 3903 3217 4778 4551 4350 2956 3022 4627 3171 3740 4538 2622 3916 4911 3008 2703 2943 3250 4439 4753 2616 3750 4970 3038 3141 4554 4580 3952 3566 3669 4982 2726 3135 4189 4465
16 26 27 33 2 15 10 15 7 8 7 18 7 15 20 14 18 19 15 37 19 15 39 21 35 12 34 21 13 24 37 5 2 35 22 31 18 19 30 17 37 12 24 8 18 21 33 8 5 29 39 23 37 2 4 8 35 34 0 2 8 24 4 19 27 24 2 9 13 37 37 33 21 33 23 25 35 31 34 16 19 13 13 3 4 8 9 22 27 35 14 33 30 38 23 26 34 37 6 12 22 9 25 9 23 15 29 20 33 29 34 13 28 1 31 23 9 16 17 11 33 7 32 18 2 3 11 36 22 33 21 37 13 21 13 12 7 6 37 15 7 39 32 12 33 36 17 3 14 10 37 11 19 11 13 11 4 38 23 27 5 7 16 19 38 18 33 15 6 18 9 25 20 2 25 4412 12 4017 3248 4906 3202 3727 4458 3966 4210 4625 3817 4393 3707 4240 4333 4118 4012 3954 2789 4147 2555 3391 2835 4692 3716 4655 4232 4054 4330 4221 2793 2936 3230 3417 4185 4385 2930 2909 3415 4839 3073 3608 3016 4926 3918 3355 3255 4489 3026 3543 3448 3586 3737 4021 3576 2680 3468 3375 4634 2877 2515 2966 3577 3435 3280 4211 3648 4614 3477 3649 3795 3696 4872 4312 3249 2705 3394 4379 3722 4575 2576 4528 3273 3414 3799 4070 3064 2991 4535 3313 4861 2637 4541 3674 4758 4650 2890 2855 3807 3238 4564 3178 4955 2829 3656 4716 4114 2886 4990 4757 4773 2703 4094 2976 4716 4473 3055 4265 3626 4110 4352 3160 3559 4612 3172 3485 4587 3444 2910 3487 4877 3854 2718 3143 2919 4953 3996 4864 4258 2895 3601 3210 4265 2708 2699 4044 4828 4891 3683 4366 2871 2534 4370 3809 3884 4155 2897 4972 2512 4904 2911 2906 3631 2735 4154 3524 4592 2976 3576 4994 4159 4743 4157 2543
33 28 18 35 36 33 31 1 36 32 14 9 12 6 8 15 32 12 6 17 18 28 6 31 16 25 19 25 23 9 13 31 2 27 4 36 6 25 17 31 14 39 15 22 34 7 21 8 20 32 39 33 1 32 21 1 27 28 29 0 24 7 17 29 1 11 39 39 15 5 30 36 6 3 14 14 12 15 31 27 38 33 33 26 14 29 16 26 18 38 3 38 13 21 8 37 39 21 25 36 24 2 30 33 17 29 31 35 6 38 7 38 2 15 37 5 39 38 25 22 20 21 11 17 11 18 19 18 27 24 1 6 19 5 29 39 27 20 28 12 37 17 10 9 13 17 15 17 38 3 25 1 17 33 34 24 31 17 21 13 10 2 3 36 24 4 27 15 16 7 11 1 30 20 31 2684 4779 4470 4290 3449 4365 3910 4884 3842 3399 3793 4296 3707 3381 3723 4275 3880 4654 2944 3005 4429 3034 4528 3216 3065 3589 3780 4773 4636 3609 2920 4264 3230 4302 3985 4605 4670 3554 4831 3868 2563 4295 2739 3487 3776 3203 2915 4247 3032 2724 4599 4551 4821 3355 4895 2751 3797 3255 4479 3295 3347 4737 4552 4206 2631 4929 2923 4409 3179 4979 2741 3259 2585 2571 4573 4469 3842 2731 3635 4647 2858 3875 4708 3746 3530 2501 4714 3631 2702 3077 2743 2906 3152 2653 4984 4513 3624 3478 4271 4348 2669 3152 3843 4076 4442 4288 3813 3137 4830 2795 3648 3985 3871 4704 4999 4222 4994 3073 4145 4434 3310 3181 3057 4248 3634 4848 3475 4359 3448 3368 3501 4683 4726 2883 3579 2944 4510 4426 2695 3008 4304 3156 3812 3088 4179 4056 3763 4816 2729 4936 3296 4270 4197 3451 4684 2996 4543 4121 3592 3619 3813 3658 3264 4879 4057 2884 2961 4436 2787 2906 3904 4995 2629 2799 3586
9 2 39 7 2 16 6 6 26 6 31 6 3 33 15 23 24 19 13 26 10 7 39 38 25 7 16 12 33 36 32 38 27 24 7 23 36 32 24 29 1 31 18 25 15 2 18 22 25 5 34 4 32 12 17 14 5 2 7 5 0 34 29 4 20 8 39 27 34 32 25 11 15 37 34 32 12 1 39 8 33 4 29 16 9 36 24 28 25 15 36 15 22 19 33 12 16 36 25 27 25 39 30 25 27 24 35 32 25 27 22 13 28 34 3 25 18 25 3 15 11 21 26 39 6 16 10 3 2 16 37 24 5 1 33 10 33 33 14 30 5 34 16 18 29 29 34 36 15 24 10 30 18 7 18 21 6 3 29 20 10 36 11 35 7 7 7 17 12 27 24 31 5 29 14 3576 2642 4221 3138 3800 2748 3362 10 2543 2786 2645 4980 4323 4888 3653 3414 3351 3593 3084 4792 3246 4270 4134 2881 3940 2945 4816 4459 2850 4101 3557 2616 3021 4760 4665 3387 2766 4420 3944 3341 4264 3450 3573 4953 3148 2889 3470 3270 4314 4435 4935 3223 4287 2589 4839 4839 2782 4061 2809 2881 3316 4831 3195 4851 3523 4302 4301 2798 4829 4745 4067 3014 2692 4478 4317 3715 2663 4795 3132 2989 4457 3300 4451 4667 3758 3694 3305 3337 4786 4575 3628 4538 4203 3084 3684 4245 2974 4981 4423 4297 3779 4648 4857 4492 4745 2999 4470 3383 4184 4680 4492 4620 2784 2662 4310 4932 3585 2828 3124 3480 4223 4604 2558 3806 3933 3960 2831 4566 4101 4121 4245 4876 3722 3670 4520 3802 3555 4519 4185 3625 2727 3976 3510 2698 3523 3247 3447 4332 2701 3645 4729 4121 3132 3520 4614 4666 2647 4316 2621 2885 3748 3719 2535 3251 2655 3198 3233 2868 4645 3998 3791 4144 4714 4978 4086
38 14 34 1 36 25 5 36 33 33 11 11 25 3 25 17 1 4 4 38 16 21 22 5 19 27 25 15 24 15 27 32 31 4 13 10 38 31 12 25 12 32 9 3 14 18 2 35 29 37 17 19 2 20 29 19 34 26 12 1 24 0 37 29 17 4 20 23 28 27 15 13 3 9 17 13 16 19 9 19 16 24 21 2 35 37 28 10 10 1 21 22 22 38 5 35 29 23 9 13 27 11 17 23 28 13 4 25 33 6 20 24 11 28 18 35 3 25 25 34 24 21 16 14 38 7 37 28 5 9 19 29 37 22 22 15 7 12 24 2 8 16 16 11 34 39 11 23 18 5 14 24 24 22 33 21 23 29 28 20 2 19 3 16 31 8 7 3 27 26 14 18 38 21 18 3059 3091 3163 4468 4823 4979 4891 4396 3480 3244 4908 4826 3328 3810 3678 4707 3460 2583 3413 4001 4415 2961 4585 2684 4750 3528 3212 3882 3429 2792 3791 3144 4939 4016 3335 2768 3965 3343 4436 4225 4788 3699 2558 2758 3065 4862 3189 2985 4608 2850 3936 2724 3883 3118 3880 4695 4265 3663 3987 3520 3368 4256 4962 2568 2721 3586 2854 3510 3322 2618 3148 3743 4903 2703 4620 3258 4728 4113 3294 3982 4364 2740 4827 4240 2665 3311 4493 3042 2812 3337 3717 3533 2836 3858 3819 4717 4191 3005 4511 4417 3671 3713 2603 4609 4489 2516 4043 4267 3053 3333 3309 2850 3905 3166 3291 2585 2579 3045 3442 4697 2882 4978 2544 3005 3023 4447 3197 4907 3672 3553 4581 3308 4481 4573 3628 4024 4621 3356 4037 3330 2973 3193 4255 3197 2514 3893 4700 4131 3387 2756 4398 4775 3835 4336 4626 3196 3651 4094 3865 4428 2656 4438 3441 4528 4299 4446 3149 4258 4258 3213 4272 4223 3287 3954 4705
7 9 7 35 26 2 35 21 8 30 10 31 25 16 32 11 28 17 13 10 39 9 36 36 33 32 17 35 5 19 26 26 21 35 32 32 36 12 34 35 33 23 31 34 19 21 8 7 25 15 31 21 8 30 21 34 26 18 19 7 5 19 0 3 28 34 23 27 12 13 32 23 27 25 37 15 34 9 5 7 28 9 30 2 4 39 32 16 4 8 12 25 32 28 30 36 17 25 25 28 34 34 12 32 2 36 4 12 22 14 20 34 15 7 28 18 26 6 1 2 28 26 6 33 7 38 23 36 31 16 8 5 6 26 29 21 7 3 22 35 8 24 25 22 35 22 30 22 30 6 34 6 12 31 26 22 28 36 15 25 14 19 24 10 23 28 33 32 3 16 30 5 20 6 24 4937 4948 3867 2670 3307 3579 4582 3584 2763 4106 4999 2822 4907 4579 3298 3066 2884 4536 4549 4321 4114 3903 3562 2856 3659 4786 2591 3003 4002 2664 4557 3983 2684 4449 2576 3951 2535 4243 4824 4406 4251 3861 3856 3983 4181 2630 3482 2526 2652 4914 3405 4815 4145 3627 3637 4179 4462 2639 3205 2699 3546 4246 3027 3809 4891 3513 2815 3495 3586 3004 3105 2641 4635 3642 4796 4933 4479 4395 2576 4008 3304 3711 2867 2578 3718 3212 2962 2937 3593 2820 4088 3994 4938 2797 3192 3884 4222 3644 3233 3191 4189 4658 3756 2708 4740 4210 4514 2894 2777 3825 3666 2757 3478 2622 4424 4872 3974 3448 3396 3760 2794 3950 2675 2890 3564 2678 4344 3989 3349 4507 4226 4540 2664 2921 3767 4605 4985 3179 3785 3075 4478 3486 3490 4767 4814 3398 4011 4241 2527 3677 3172 4991 2759 3145 3118 3788 3613 2669 3890 3369 3043 3127 2843 3000 3197 4020 2613 3122 4457 3639 4474 3092 3587 3572 2924
15 26 24 36 30 16 33 19 13 30 30 12 32 17 31 37 26 19 4 29 14 9 31 38 31 13 1 12 10 15 37 2 4 28 5 3 30 13 13 13 30 26 28 35 9 2 16 17 26 14 30 12 33 21 8 20 36 27 21 39 7 12 35 0 15 8 37 9 19 7 6 18 5 7 24 27 14 23 27 35 30 26 34 16 10 27 6 27 10 34 18 30 21 39 5 30 28 31 33 28 30 21 29 10 24 27 19 5 1 3 19 34 24 10 22 27 6 29 1 9 23 12 5 35 26 6 12 24 38 32 34 3 13 35 5 5 36 29 25 28 9 19 33 27 12 37 19 25 38 33 4 26 28 2 18 18 19 28 34 2 19 17 14 19 1 24 14 21 37 17 11 14 17 12 3 3827 2603 4644 4718 2888 2755 2570 3622 4134 4867 3606 2757 3699 3166 4359 4716 4424 4470 4018 4442 3205 4298 2850 2666 4561 4058 3879 3842 3956 4968 3047 4337 2642 3210 2541 3456 3257 2801 3656 4881 4076 3024 3752 3873 4681 4372 4162 4477 4839 4364 3395 4658 2962 3966 3674 3775 4044 4561 4127 4038 4568 3655 3463 4887 4591 3772 4519 3646 4711 3174 2976 3764 4826 4956 3655 3243 3070 4982 3263 3190 3787 2836 2728 4989 4890 2766 3285 3698 2949 4827 4193 3370 4003 3220 4892 3777 3016 3108 4366 3106 4401 2759 3577 3433 3718 2516 4172 2631 4963 4259 2522 2955 4891 2679 2678 3076 2722 3959 4248 4863 2891 3522 4105 4110 4387 3609 3303 4733 3012 3010 4442 2745 3952 4945 2912 4198 2614 2956 4556 4571 3357 2694 4284 4900 4304 4628 4895 3685 3202 3747 3481 3618 4377 3556 4900 4601 3884 3212 4521 4692 2993 4926 3444 4046 4282 3476 4759 4225 4767 3268 3960 3896 3722 2712 4012
26 7 15 30 27 4 21 20 33 1 7 25 14 1 34 21 17 22 28 16 26 3 6 12 17 38 30 18 38 3 38 32 35 21 31 4 38 4 8 38 2 9 19 26 9 27 14 37 33 26 39 34 36 32 9 23 11 26 1 39 18 29 16 21 0 36 5 27 26 5 1 36 23 9 14 7 25 24 19 30 20 20 22 15 20 15 37 3 28 29 11 16 16 13 10 20 9 34 7 36 2 18 19 39 8 21 37 16 2 32 32 19 10 10 13 15 26 11 29 9 36 23 39 5 28 35 5 10 19 14 37 33 5 15 39 2 10 14 16 35 16 34 4 17 10 33 4 19 15 39 3 10 39 16 12 38 17 34 33 14 6 3 6 39 16 10 28 12 38 10 18 22 16 39 20 4358 3699 3299 2797 4482 3060 2735 3912 3137 3710 3988 2964 3487 3780 4299 4364 3349 3915 4749 3194 3374 3303 4589 4706 4217 4310 4711 3470 2856 3664 4715 4045 4747 3784 2655 4885 2666 3404 4891 4495 2929 3596 4711 4824 4008 4940 3494 4269 4626 3470 4887 3692 3470 4870 4158 3323 3770 3954 4336 4436 3153 2888 4531 2890 2961 3967 4598 4929 2715 4341 3586 4533 3903 3770 3377 4981 3554 3888 4311 3910 4234 2981 3221 2648 2830 4031 2621 2810 4885 4811 3528 2975 4075 4845 3675 3738 3275 3690 4696 2686 3840 3400 4045 3103 4236 3818 4735 4271 3641 2824 4447 4450 4427 3888 3632 3039 4324 4680 2783 4825 2664 4866 4592 3229 3783 3467 4869 3310 4291 4085 3344 4955 4466 4688 2745 4633 4782 3098 3035 2779 4384 3772 4301 2649 4010 4529 2938 4238 4984 4809 4828 2500 3083 4996 4603 3993 3774 3174 2835 3854 3435 3507 4724 2516 4218 2767 4230 3901 3902 3692 4903 3062 4312 3576 4734
26 37 19 4 32 6 12 31 24 33 12 14 4 19 17 8 29 4 28 13 34 19 23 30 28 8 26 22 4 2 31 23 32 7 24 33 22 28 26 22 10 5 8 13 30 11 6 15 23 14 35 24 12 30 3 10 14 5 29 17 21 25 14 30 27 0 17 20 14 34 23 2 15 26 23 9 6 36 29 17 6 39 33 1 24 21 25 5 4 35 30 9 27 12 36 23 33 14 16 1 20 22 19 20 8 8 26 27 31 28 39 5 25 5 9 14 12 37 28 22 32 3 26 34 12 6 3 32 17 29 2 10 38 20 22 32 29 10 2 3 4 28 15 1 10 15 13 38 29 4 3 10 27 11 24 13 24 4 30 30 27 32 39 29 6 20 24 21 34 32 34 25 34 15 22 3512 2705 4624 4532 3454 3162 3767 3411 4476 4978 3443 4288 3281 4304 2751 4572 2521 4573 4923 2919 3166 3254 3761 3030 4191 4039 4361 2594 4593 4189 4397 3729 3500 3056 2985 4349 4498 4853 3724 3131 4098 3935 3161 2774 3763 3213 4326 4552 4597 2980 3319 2817 3512 4015 4773 4569 3554 3978 3198 3735 4747 2771 2590 4100 3492 4997 3901 3653 2662 4632 3608 4947 3482 4796 4474 4620 2610 2818 4720 3352 3727 4606 3435 2981 4303 2906 4750 3750 2860 3787 3385 2677 4579 3652 4373 3308 4559 4153 2683 4101 3593 3892 3789 3553 4298 2938 4835 2581 4189 4371 3875 3893 2622 3953 4112 4792 2773 3383 4275 4013 2558 4725 3990 4707 4664 3003 4505 4155 4006 3221 3761 3132 4699 3633 4943 4234 4886 4934 3926 4974 4799 4834 3552 4979 3748 3199 2623 3628 4577 2657 3278 3983 3088 4967 2723 2791 3362 4744 4910 2935 2910 3516 3568 3237 3802 3511 3030 4592 2565 3556 4760 4871 2800 4731 2939
22 8 34 22 5 16 21 23 31 10 30 13 27 19 38 6 8 23 10 33 31 8 22 39 3 37 32 25 8 6 32 20 28 8 17 13 23 26 38 32 26 26 13 22 29 21 31 11 22 32 26 19 19 1 7 4 24 34 18 29 1 19 25 30 18 4 0 12 35 30 14 36 14 33 35 25 17 2 15 2 12 18 17 25 25 27 3 36 23 8 33 7 34 6 10 30 37 28 3 37 30 35 33 30 28 35 27 5 39 7 1 17 27 13 29 34 2 31 25 34 11 2 15 38 3 8 29 3 17 24 36 33 8 8 20 26 2 28 10 12 14 1 9 24 6 16 19 27 9 26 12 6 10 2 20 27 24 8 39 28 8 1 20 22 14 27 22 8 19 4 29 4 11 8 13 2661 4675 3899 3711 4468 2959 3335 3330 3247 4334 2713 4521 3552 3108 4295 4374 2985 2886 3366 3947 4812 2809 3170 4025 3340 3805 3265 4903 3674 4538 2961 3792 4019 2742 3081 4602 2719 4457 3097 4446 3254 2800 4889 2567 3247 3444 4452 4358 3476 4676 2518 4033 3401 4396 3891 4521 4398 3622 3406 4481 4187 4308 4341 3950 4715 4104 4594 4984 3835 4358 3390 3044 2537 2605 3088 4842 4940 2741 3117 4458 2920 3249 2531 2604 3539 4149 4079 4704 2997 2521 3959 4533 4535 2926 4992 4970 2746 4866 3587 2804 4770 2914 3835 3896 4627 3743 3618 3548 2960 2724 3077 3154 4221 4188 3720 3612 3511 2546 4089 3767 2541 4842 3790 3160 4882 4370 3562 4208 2776 4612 4656 3539 3004 4866 2620 4588 2994 4998 4814 3511 4487 2614 3873 3464 3891 3651 3800 3585 2640 2520 3961 2764 4458 2621 4656 4921 4834 4414 3930 3700 4305 4189 4149 3869 4165 3739 2855 4577 2890 4598 4736 4659 3388 3934 4229
28 20 5 15 25 21 31 15 10 17 20 18 13 28 31 9 14 19 27 21 28 14 22 14 28 26 12 13 10 39 19 1 22 35 13 13 26 1 36 33 33 23 5 8 20 16 10 7 22 16 32 39 37 16 6 38 31 19 7 8 19 10 33 5 25 20 38 0 24 28 2 9 19 23 39 38 19 19 20 24 28 20 8 22 21 26 1 27 25 4 4 35 33 27 32 8 7 24 10 22 2 24 32 27 30 6 35 18 4 27 16 36 3 8 9 25 19 11 18 27 15 3 17 2 32 34 36 1 23 19 24 21 6 17 38 9 17 12 15 13 36 19 38 28 36 9 4 17 17 29 33 25 4 31 21 12 11 17 35 20 19 17 24 24 2 27 10 38 33 16 8 4 5 14 18 3083 4172 3971 3759 3239 4848 3199 3116 2797 2811 4903 18 3869 4711 3556 3760 4957 4964 3051 4391 2580 4612 2732 4786 11 2669 4887 4927 4312 4075 4106 3129 3145 3212 2949 4122 2556 3903 4216 4213 2618 4116 3255 3926 4718 2798 3537 2909 4181 4275 4010 2871 3642 4222 2809 4861 4827 4083 3612 4590 4679 4740 3397 3289 4965 3449 4679 3640 3577 4834 4515 3795 4130 3961 4843 2726 2843 4261 4761 3737 2728 2944 4292 4358 4152 3158 3972 3001 4607 3246 2712 2582 3877 3459 2823 4580 4455 2811 2861 3254 3585 4920 4929 4322 4847 3883 3486 3505 3330 4608 4957 3361 2736 2564 3444 4124 3536 3440 3514 2587 4850 4286 2715 3201 3413 4605 3598 2805 2983 4337 3100 2656 3072 4074 3772 3766 4022 3761 4731 3159 4455 2677 2984 3955 4623 2527 2886 3754 4420 3073 4270 3528 4977 4799 2772 4219 2921 2667 4223 3035 4218 3851 3752 3769 4459 4671 4148 4827 2761 3060 2587 3272 4292 3532 3272
16 39 35 25 3 7 23 13 27 38 21 31 5 14 5 10 31 7 26 6 2 33 24 24 34 17 3 9 28 1 39 27 2 17 6 1 1 27 38 24 8 4 4 32 14 16 38 30 13 31 18 38 32 18 33 12 4 3 9 6 2 26 5 30 28 18 36 2 0 15 33 33 8 37 36 16 29 23 27 24 28 30 20 7 36 32 36 5 13 36 28 33 38 27 16 35 35 10 34 1 17 23 24 27 36 4 29 11 19 39 1 14 29 13 9 26 8 22 31 15 30 7 1 34 26 20 31 6 8 13 10 11 18 12 16 10 4 21 23 18 16 2 9 15 14 3 29 37 39 37 33 9 30 39 12 1 28 2 5 37 35 37 37 29 21 5 24 36 35 23 5 7 1 18 22 4834 4485 3415 3418 4215 4754 3043 3830 4163 4812 2952 2630 4531 3066 3880 3573 2665 4576 2527 4762 3608 3925 4669 3832 4890 4083 4023 4881 4844 4445 4592 2696 3555 3431 3741 3327 3216 4994 2515 4105 3778 2587 4934 2650 4991 4958 2779 3153 3266 4062 4440 4444 2552 3007 4591 4263 4140 2655 2546 4608 4629 2811 4031 4105 2617 3610 2910 4047 4828 3525 3780 2894 2949 2618 4619 2667 2581 2896 3194 3241 4146 3151 4809 3196 3476 3817 4934 4882 3326 2882 3907 3097 4286 3089 4358 3873 4536 2518 3623 3675 3672 3940 4315 3655 3085 3206 4406 3517 4815 4664 3398 3221 3974 3736 2694 4302 4687 3430 2738 3114 2842 3437 2636 3208 3163 4303 4764 2722 4422 4119 3056 3247 3041 3489 2782 3704 4125 3368 3317 3024 2973 4421 4121 4651 3238 4273 3471 3288 3503 2956 4552 4522 3142 4444 4648 3208 4635 4086 2505 2511 4960 3597 3779 2580 2882 4093 3584 3081 4224 2992 3983 3557 3066 3761 4961
36 36 36 23 26 23 37 3 13 12 20 34 37 7 9 27 11 7 19 29 20 31 30 33 23 27 10 27 24 32 37 17 24 23 36 4 6 18 19 24 5 27 18 16 13 26 28 20 17 39 31 28 2 22 26 10 20 12 8 19 30 24 10 1 33 15 9 8 35 0 18 5 13 20 30 7 4 19 2 34 36 8 18 32 11 37 2 39 22 3 30 37 5 26 22 5 27 3 37 24 37 38 31 20 8 39 37 10 33 13 35 38 10 15 26 10 21 35 29 35 31 26 20 16 32 1 39 8 13 35 37 23 12 19 7 1 13 5 18 2 20 2 16 19 7 12 39 13 9 9 1 35 21 13 32 1 36 36 9 9 19 4 23 6 5 18 22 33 32 25 14 35 39 35 39 4954 3213 2751 4045 4020 3239 2811 3891 2726 3787 4205 3714 4519 2932 3641 4896 4886 3264 3676 4834 2524 2620 3638 4058 3752 3445 4232 2962 4862 4413 4794 4654 3524 4346 4791 3210 4670 4742 4448 3272 2584 4164 4032 3685 3659 2647 3055 4211 3507 4710 4687 3707 4224 4606 4570 3422 2885 4878 3978 3936 4217 3847 3664 4132 2730 3996 4224 4987 3325 4147 4786 4668 4756 4586 4804 4508 3889 4138 2847 4310 2603 4217 4440 3614 4499 3378 3647 4305 4183 3258 3411 4627 2539 4085 4695 2757 3117 2521 3296 4400 4381 3818 4310 2786 2610 3953 4615 2880 4746 2709 3665 3974 3592 3210 4947 3507 3932 3138 4111 3040 3704 3793 4784 4346 4561 4233 3868 2775 3761 4927 3453 3595 3718 4970 3516 3016 3689 4138 3490 4345 3710 4561 4195 2708 2593 4340 4272 4619 4123 3221 3832 4983 3329 4319 3153 3326 2751 4791 3219 3114 3171 4337 2821 2762 4301 4555 3005 3357 2760 3394 2541 3672 3151 3936 4947
22 34 16 37 25 21 29 21 14 33 7 30 32 22 16 24 1 32 3 27 32 6 14 13 19 4 18 26 4 15 28 22 36 4 31 3 15 10 26 38 22 1 22 31 29 35 21 1 1 3 33 2 2 17 25 15 29 34 11 29 21 14 8 16 13 35 30 16 16 12 0 38 22 9 18 33 17 36 30 22 31 10 7 39 16 12 24 14 29 13 7 4 3 22 7 17 12 7 18 14 17 23 5 18 22 37 6 19 28 5 20 20 11 33 31 12 26 11 6 36 13 26 27 4 3 14 3 12 37 32 34 17 30 35 39 11 17 32 25 29 27 38 10 35 32 6 31 17 1 7 31 4 13 11 30 28 5 32 18 25 32 9 8 22 20 11 1 24 10 21 6 31 12 8 39 3665 3157 4318 2801 4831 3653 3403 4161 4198 2648 4137 4099 3100 3853 3179 4210 4869 4727 2525 4311 4358 4985 3593 4053 3022 4692 4912 4743 3047 4990 4557 3588 3084 3947 3160 4161 2526 4413 2870 3755 2674 3240 3217 2692 4722 3159 3149 4522 2694 3486 4810 4662 4755 3839 4335 3481 3616 4727 4249 2997 4089 3130 3328 3541 4465 4426 3601 2519 2558 4384 4757 3891 4123 3089 3642 3348 4962 3705 3295 2735 2805 3856 3681 3431 4897 3187 2823 4228 4750 3698 2825 4300 4826 3401 4299 3494 2867 4540 4295 3701 4335 2837 3702 4378 4153 3885 2974 4829 4642 4655 4910 3636 4396 3087 2812 3736 3855 3308 4849 4975 3797 4101 4473 3025 4441 2833 3721 3833 4439 4158 4566 2512 4975 2565 3985 3896 3641 4042 2680 2809 4866 3039 4095 4703 3472 3714 3207 4014 3788 4700 3038 4259 4970 3862 3652 3234 2879 4884 4516 4774 3747 4592 2923 4025 2517 2790 3072 2561 3049 3483 3607 3474 4379 3194 4369
3 24 21 39 20 25 37 34 13 17 36 17 30 4 33 6 20 17 15 4 3 34 9 16 30 31 10 3 25 19 33 4 36 10 13 16 38 31 15 37 26 1 19 14 21 14 26 30 33 22 31 26 21 39 7 4 28 3 27 36 11 39 8 10 12 5 4 1 14 3 10 0 38 23 2 31 12 32 7 5 25 15 12 24 4 26 10 33 10 30 30 33 9 20 25 34 27 20 30 32 4 39 33 5 8 34 32 10 3 1 11 23 37 16 27 30 39 11 1 16 4 26 9 18 24 13 2 13 32 10 13 25 19 25 20 20 23 34 19 37 14 29 24 25 17 36 21 38 2 38 19 39 7 38 19 31 30 3 19 9 9 5 29 7 37 13 2 12 22 35 10 21 14 17 32 4702 3707 4862 2673 3238 3621 19 3965 3843 4160 4765 2978 13 4520 4412 3515 2719 3466 4583 2984 3292 3504 4111 4345 3878 2630 3238 2925 3976 3720 2510 4987 4860 3462 3639 4722 3924 3427 4743 2561 4429 4130 3011 4539 4270 2604 3394 2655 3012 4696 13 4546 3283 3084 2611 3289 4237 4981 3170 4649 3021 3851 4170 2687 4779 2879 4955 2947 3913 4967 3968 4091 2843 3018 4763 3741 3438 3148 3687 3673 4725 2510 2858 3498 3101 4713 3060 3612 3541 4641 4004 4823 3262 4288 3742 3037 3299 2789 3941 3400 4466 4006 3977 4702 4496 2690 4240 3425 4254 3667 2746 2619 3663 3668 3644 3214 3467 4114 4776 4903 4941 2954 4556 2872 3086 4067 4467 2761 4314 4913 2960 4482 2719 3340 4891 4985 3467 3488 3241 2593 4002 3740 2837 4078 3675 3217 2661 4753 4424 4834 3230 3451 4437 4851 2558 4297 4383 4766 3348 4143 2651 3225 3638 2724 2759 2592 2713 4799 4636 2804 3983 3017 4236 3062 3482
16 15 16 18 37 11 2 24 9 22 2 26 22 29 16 23 33 15 22 7 31 11 15 10 25 38 12 28 35 3 7 36 8 21 12 7 2 31 17 32 11 10 30 22 37 18 16 17 16 21 39 27 33 18 33 39 19 10 29 28 8 4 38 37 36 37 16 14 30 15 25 7 0 34 19 33 12 26 11 16 31 1 33 10 33 3 21 7 8 38 6 23 35 8 1 30 16 30 11 20 35 26 14 3 30 22 9 32 3 24 9 19 14 28 9 4 30 18 8 18 29 25 4 35 31 32 9 15 14 35 13 35 37 3 15 15 17 22 7 2 30 3 16 9 30 31 8 38 5 36 29 9 29 35 1 3 34 31 24 27 4 26 26 37 33 14 32 18 6 2 28 34 20 27 24 2898 3380 4342 3650 3660 2769 4193 3645 4919 4442 4597 4239 2814 3362 18 3642 4887 4435 3590 8 2552 4094 2602 3948 3873 2725 3111 4990 4982 4080 4909 3381 3961 3178 4987 4698 4887 3218 4993 3740 4767 3399 2966 2588 3443 3336 4545 3822 3264 2851 3174 4218 3490 2585 3132 2898 3774 4684 4450 2887 3642 4421 2529 3929 3605 4538 3028 3240 2582 3752 4164 2812 4599 3026 2526 2849 3738 3343 3117 3027 2798 3254 3781 4787 3515 4195 4181 2893 4045 3121 4377 4044 3641 2978 3703 3763 2608 3386 4593 3608 3787 3374 3411 4568 2694 4785 4987 3040 3305 3349 3853 3964 3765 3372 4489 2760 4520 3388 4228 3699 3699 2658 4771 3734 3991 2736 2521 3975 2647 3304 2667 4597 4970 4053 3272 4020 3513 3736 3255 4976 2775 4605 3481 3568 4157 4833 4286 3105 3335 4533 3579 4137 3014 3589 2699 2539 4916 4556 3001 2594 4967 2905 4623 4557 4394 3676 3900 2554 3923 3980 2626 3447 4729 4404 4469
30 38 18 22 13 23 31 29 33 2 1 14 1 6 38 22 19 18 20 17 19 17 31 35 21 26 38 2 1 37 29 2 19 9 16 16 25 36 11 27 37 37 8 27 18 17 6 14 6 19 15 8 30 25 33 38 1 14 2 33 18 28 30 35 4 9 3 3 36 9 20 38 7 0 31 9 20 2 9 22 30 25 31 33 21 17 21 17 15 11 37 7 8 22 31 11 17 27 10 12 16 7 25 16 29 34 28 3 35 14 7 32 1 1 8 9 28 4 34 28 28 6 16 31 39 7 32 8 29 32 20 30 38 16 16 31 9 32 12 36 36 19 23 17 9 15 2 10 28 5 30 4 29 28 1 21 39 22 5 24 19 35 30 14 15 18 15 16 3 10 21 5 1 33 23 4968 4769 4022 4495 3724 3804 3865 12 2967 4574 3684 4817 4321 3132 2728 4568 2554 2921 4877 3659 3078 3537 3469 3718 4586 4707 3250 4454 2569 3705 3589 4058 3349 3359 2591 3032 4863 3906 3703 4345 3971 3067 3210 4821 2776 3141 3052 3150 4210 3981 2566 2559 3590 4687 3859 6 4414 3933 4006 3033 4757 4272 3411 3801 3508 3728 2521 4763 2830 2786 4216 4727 3121 3218 4894 3463 4411 4722 3889 4720 4545 4788 4760 2592 4582 2501 4133 4846 4396 3468 2590 2763 3449 4644 4885 3026 3226 2662 4586 4696 4558 3862 4987 4026 2997 3502 4114 4102 2575 4667 2746 3531 4407 4071 2514 3936 4245 3543 3340 3710 4514 2836 3768 4622 2805 3114 3612 2648 4857 2776 4957 4502 3392 2796 4349 4795 4207 2948 4060 3651 3035 3490 3729 3964 2924 3022 2723 2728 2779 4531 2910 2567 4769 4673 3829 2853 3684 4231 4477 4193 4372 3080 4253 3187 4844 4372 2839 4154 2964 4387 4239 4999 4364 2977 3165
4 17 22 9 19 17 39 34 14 22 27 33 32 6 34 2 6 14 31 15 9 26 6 23 17 11 23 33 30 28 10 36 13 14 3 26 25 35 11 12 1 8 34 5 25 37 13 34 39 4 28 12 39 2 39 8 8 7 28 25 23 8 26 16 39 19 18 21 22 3 36 35 20 11 0 25 32 11 17 8 32 33 30 36 21 13 23 28 34 33 16 36 35 6 5 8 33 6 39 34 2 2 30 1 26 4 22 31 1 19 31 16 19 18 9 13 20 22 7 38 12 4 30 12 21 30 15 7 27 36 12 10 1 13 17 33 25 27 25 28 12 4 17 37 12 14 39 22 23 2 34 34 14 36 20 29 19 5 1 20 7 12 34 9 26 13 19 11 39 5 7 19 36 28 25 4144 4658 4197 4948 4516 3783 3365 4840 2948 2652 2651 2948 3447 3070 3886 4915 4520 4891 3561 2760 3932 4016 3557 3118 2939 4520 3112 3410 2736 2533 2685 4389 4091 3761 4120 3728 3813 3180 3796 4876 4316 3734 3814 4420 2854 2517 4329 4765 4449 2797 3482 2949 4816 2868 3595 2621 4579 4533 2758 4523 3755 2992 4305 2594 3174 4959 4999 4085 3203 4497 3623 4993 2666 3236 3781 3763 4844 4318 3617 3932 3898 2574 4469 4612 3418 2910 3667 2542 4688 3344 2965 2572 3089 4475 4803 4816 2798 2676 3868 3777 3541 2606 3781 4048 3583 4294 4017 4415 4236 4182 4908 4760 2651 4021 4232 2713 3025 2510 3768 3054 2894 2873 3833 8 3410 3696 3608 2680 3390 3471 4275 3642 2912 4873 2537 4295 3020 2756 3195 3726 3095 3011 4898 3451 4430 2552 3265 4219 2751 3330 4258 4505 2924 2917 3382 3801 4401 2582 4206 3729 4864 2606 3525 3511 2746 3310 3632 3928 2957 4362 4042 2982 4460 4153 4471
23 8 29 26 20 10 11 23 25 38 15 37 2 37 2 38 8 17 22 26 4 1 36 15 24 26 11 30 18 5 17 11 38 20 33 16 10 14 3 14 39 23 33 37 15 14 26 5 33 39 36 15 26 35 23 19 38 19 26 8 14 20 32 4 11 26 7 25 29 29 11 3 7 17 6 0 37 27 4 12 4 4 14 4 37 21 3 27 1 28 16 14 27 2 39 14 10 23 21 17 1 20 17 25 23 20 10 27 16 6 30 25 23 39 38 30 13 23 30 33 11 17 25 23 39 28 18 30 11 23 21 23 22 29 13 33 1 9 11 35 28 28 9 36 14 6 12 2 11 11 25 37 1 21 7 21 12 36 6 32 32 11 14 8 11 4 19 39 3 10 20 21 2 25 22 4670 3641 4700 4429 3987 2870 2782 3662 3339 3464 4036 4423 3220 2855 4139 4267 2877 4061 2865 4343 4910 4606 3060 3574 4611 3272 3893 3168 2891 2591 4849 4547 2791 2929 10 3304 3036 3588 2661 3742 4494 3101 4714 2694 4153 3349 4201 16 3547 4780 3055 2517 4512 4057 3690 3292 3149 3714 3757 4909 4205 3908 3732 3889 2915 2689 3510 4571 3220 2818 11 4067 2934 4758 4408 3076 9 4334 3431 4882 3438 4202 4894 4249 4117 3518 2828 4689 3550 3020 3323 4168 4411 4334 2810 3989 4031 3516 4667 2901 4711 2658 3163 3151 3550 3118 3014 4999 3172 4072 2543 3704 2940 3609 3495 4785 3351 4697 4767 3922 3305 3655 2875 3509 4427 3750 4316 2504 2914 4348 4581 4223 2795 4202 4534 4283 4004 2827 4705 2711 3460 4069 2618 2672 3208 4691 2729 4188 2671 4854 4809 3782 4631 3658 2716 3253 3485 4846 3928 3907 4465 3086 2543 3945 4715 4583 4081 2969 4254 3153 2505 3305 4208 4690 3011
1 29 26 21 13 6 34 38 5 29 11 29 4 34 31 6 18 9 15 6 5 2 28 1 11 8 19 18 4 22 24 34 12 1 12 6 21 20 24 6 34 32 33 32 21 2 29 8 16 31 27 37 4 8 17 7 32 14 38 1 32 18 25 21 14 28 15 34 17 6 21 17 18 1 20 34 0 18 32 19 35 9 21 15 33 20 37 21 31 10 19 36 12 32 19 23 29 26 8 1 2 30 14 30 8 14 5 5 20 13 20 33 38 17 33 16 20 8 20 36 36 11 22 24 28 13 22 18 24 34 6 3 34 7 9 34 21 5 29 18 11 14 19 3 28 17 39 25 26 6 22 7 19 23 28 32 8 39 14 15 37 36 15 39 9 8 8 29 5 4 36 21 37 5 20 3882 3778 4695 3398 4814 3425 4084 4693 3300 3394 4463 3436 3127 2814 3166 3110 4258 4647 3801 3031 3353 4069 4220 3248 4375 3085 3152 3925 3830 3744 3983 3442 3098 3835 3085 3209 4361 3853 3713 2665 3299 3480 4641 4996 3578 3224 3197 4933 2588 4436 3629 4813 4435 4983 4310 3787 3905 3765 3398 3356 2672 3094 3270 4243 3615 4623 4208 2623 4498 2842 3936 4543 4880 3496 4901 2603 4255 4414 3010 2714 2966 4610 2881 3811 3346 3590 2605 4676 2999 4351 4599 3187 3022 3037 4582 3172 3011 3209 3476 4660 2965 4501 3995 2779 3441 2748 3730 3472 4554 2679 3310 4211 4815 3610 4422 2783 3473 4725 3539 3357 4400 2721 3681 3553 3563 3301 3264 3373 3015 4798 2631 4520 4884 3649 3280 2603 3045 3325 4847 4887 3491 2698 2615 3305 3440 4951 4142 4130 3733 3824 3379 2856 3142 2915 3414 3352 4983 4587 2840 3327 3136 3515 3024 3458 2646 2848 3537 3360 3501 2786 4188 4542 3654 4515 3529
17 37 29 25 18 5 16 30 3 38 6 17 21 35 4 5 8 26 32 31 24 7 2 15 9 11 6 30 21 13 18 28 18 11 33 32 11 2 9 31 12 28 22 19 36 10 28 20 21 35 15 12 16 4 32 34 16 30 30 13 32 22 16 29 29 29 16 3 36 18 25 36 25 13 9 38 16 0 29 35 17 35 3 8 9 5 19 11 15 7 6 28 33 32 16 5 2 36 35 8 24 9 29 29 6 3 25 24 14 37 35 3 17 34 1 25 24 24 27 20 23 18 38 15 31 2 10 7 2 39 5 31 30 35 16 11 26 13 10 16 3 29 11 10 2 25 4 20 10 2 14 23 34 29 23 21 23 26 19 25 24 19 21 15 23 9 19 5 31 38 19 9 21 17 7 3612 4549 3234 4421 3999 4220 4298 3384 4980 2527 3086 4856 3510 2780 4573 4074 4358 4812 4513 3229 4635 13 4945 4209 3209 2590 2537 3145 2956 3674 4655 4349 3757 3515 3222 3087 3547 4378 4087 3035 2998 3814 3161 3973 2578 2799 2852 4283 3226 4031 3684 2727 4496 3900 4408 2791 3263 2768 4589 3243 3442 4711 2587 3180 3119 3126 3437 3181 2842 3971 4396 3834 4749 3589 3971 2793 4130 2723 3655 3187 3933 4607 2678 4576 4903 3887 3698 4549 2831 3613 3195 4905 4115 3564 3767 4442 4499 3590 4219 3736 3072 4992 2582 3369 2559 4294 3913 4118 3230 2813 4722 2812 2650 3938 2787 4820 3425 4871 2659 3648 4545 4527 3013 4114 4180 3515 2762 3807 2998 3724 3655 2777 4054 4280 2877 3361 4278 3681 4811 2593 2675 4837 4160 4321 4810 3786 3724 3503 3993 3821 4126 4798 3248 4912 3329 3745 2847 3406 3586 3277 3671 3101 4429 3252 4611 3241 3819 4771 2946 4511 4306 4880 3844 3996 2953
6 13 13 13 32 32 35 27 4 26 11 20 29 26 35 37 11 26 26 23 33 19 9 17 1 20 28 8 21 8 18 32 20 23 19 6 14 17 24 25 19 8 25 27 15 39 1 27 2 14 28 13 29 14 20 4 34 25 28 34 37 15 19 34 31 30 32 36 33 33 11 35 9 2 30 4 8 11 0 34 39 19 26 15 22 21 16 10 22 12 32 21 35 10 3 25 16 13 6 11 11 14 4 15 30 11 6 21 5 18 4 23 20 27 12 9 36 36 25 29 8 22 22 2 33 11 21 5 20 14 20 34 39 38 16 24 20 5 26 4 15 19 10 28 15 32 7 18 33 28 14 19 39 16 15 6 31 13 6 34 9 6 4 27 26 7 4 36 9 37 11 6 29 17 23 3252 2629 4120 4426 4439 3035 4596 3447 2813 3062 3839 4044 2834 4466 4505 3141 4457 2718 15 4432 4243 3617 3522 2820 4982 4174 3843 2600 2951 3434 2516 2942 4900 2954 4082 3517 4868 3440 3034 4398 2677 2833 4098 4607 3636 4475 4246 2740 3821 3197 2823 3219 3577 3396 3703 4640 4058 2929 4624 4472 4205 14 2833 3825 2689 4680 4628 2824 3904 4955 3375 4966 2500 2995 2530 4007 4906 2778 3154 4652 3795 2772 4382 3954 4365 3887 4687 2637 3263 4561 4733 4170 2941 4673 3168 3624 3792 3276 2753 4784 3058 3203 4113 3036 4297 4653 2824 3093 3244 4749 3779 3990 4251 4970 3427 4970 3788 4453 4776 4045 4150 4828 2812 2835 2717 3575 4833 3480 3827 3639 3690 4983 3400 4456 2940 3794 3912 2869 4193 4820 2829 2665 2557 4124 2552 4703 3711 4717 3944 4725 4139 4530 4575 3141 4561 4024 2663 2639 3810 3104 4627 3803 4460 2570 4896 4476 2716 2753 4999 3770 4468 4157 2530 4206 4985
18 16 28 31 32 8 1 29 29 15 11 14 15 37 11 38 36 7 5 37 10 24 10 11 35 27 29 25 4 10 2 5 26 22 5 38 6 23 30 32 21 14 5 33 31 29 12 11 9 14 6 36 2 10 15 30 4 2 9 9 20 11 10 23 3 29 37 39 22 30 3 4 11 27 1 26 2 1 3 0 26 12 7 24 13 3 25 32 4 39 14 6 10 36 14 33 11 37 18 14 3 35 11 14 17 28 32 15 3 30 10 28 20 17 4 32 35 26 37 4 9 8 35 9 39 11 25 2 7 12 5 32 23 35 19 6 31 25 32 5 7 35 8 32 20 36 10 13 35 30 17 11 16 32 7 14 29 33 8 20 6 22 1 21 4 21 27 2 14 17 21 28 22 17 30 4515 3930 2769 3319 4749 5 2710 3193 3960 4329 4029 4038 2746 4064 4817 4480 4462 4419 3978 3152 2612 3308 4381 3889 2963 4779 4923 3628 4479 4802 3002 2776 3331 2657 4912 2882 4881 2830 3562 4700 4290 4178 4692 4020 4122 2978 3283 3929 3848 3956 2662 3771 4255 3408 4133 2609 4483 2531 3747 3721 2879 2858 3057 3376 3265 3476 2683 4177 4764 3776 4386 3396 3899 2849 4891 2965 2689 3400 3518 3693 4098 3760 3339 4733 2506 4072 2539 2632 2748 3765 3277 3452 4878 4099 4492 4573 4935 2783 4310 3013 3457 2912 3345 3885 3218 4096 3875 3604 3201 4816 2500 4750 2826 2506 2698 3575 4526 2769 3504 2909 3319 4281 3451 2508 3675 4987 4053 4062 4659 4600 3189 3776 4437 4291 4590 3790 2572 2822 4171 4946 4583 3296 2789 3637 4164 2786 2936 4329 3551 3731 3916 3455 3111 3537 2614 4403 3406 4379 4214 4803 3774 3797 4784 4142 2880 4477 3167 4546 4434 2599 4239 3974 2868 4786 2941
34 9 38 33 19 12 38 18 34 32 16 15 31 22 7 7 10 20 2 30 35 1 6 8 23 4 1 30 26 36 3 26 32 11 13 38 7 33 14 37 37 29 17 10 33 2 13 1 4 21 13 37 33 39 30 30 29 33 36 20 1 16 4 19 24 20 11 37 10 24 14 30 25 14 16 15 33 9 24 23 0 23 9 23 4 30 11 14 36 25 4 32 33 17 27 3 23 7 18 37 22 18 3 9 30 20 31 20 33 32 5 17 25 28 2 22 29 17 35 27 19 18 20 33 20 5 11 8 4 16 9 11 5 13 9 20 39 28 14 27 23 8 39 20 32 6 29 8 25 29 18 7 39 20 2 34 2 13 31 5 21 13 15 26 19 35 4 26 26 39 29 4 37 19 38 3555 3653 3972 3906 3265 3765 4312 3790 3225 3558 4271 2625 3145 4933 2964 3173 4095 4098 4566 3828 2908 4940 3859 2735 4826 4052 4078 2575 3390 3866 3180 4071 3640 4448 4462 3732 4869 4705 3345 3252 4293 3049 4548 3750 3494 4578 4649 3508 4633 2817 3122 3154 4749 4323 4763 2551 2509 2925 2712 3951 3725 4959 3783 3762 4149 4935 3324 3292 3606 3843 3225 3758 4464 3934 2582 3712 3996 3447 4047 4898 4487 4945 3462 2540 4200 2999 4593 4652 3757 3740 2844 3634 3509 3691 2725 3613 4788 2874 2662 4024 4579 4997 3970 3612 4422 3959 3883 3455 3360 4915 2752 3753 3249 2557 4139 4694 4928 2732 4150 2591 4406 3594 4256 3869 4809 3386 3002 4629 2858 3929 4526 3608 4369 3633 4452 4315 4961 4984 4779 3601 2826 4128 2921 4902 2869 3663 4563 3305 3461 2648 2974 4884 3775 4083 2705 3933 3796 2804 3575 3026 4096 4696 4817 4238 4468 2726 3372 3499 4161 3479 3288 4984 4385 4140 3410
15 5 18 9 14 17 18 2 37 4 14 12 4 22 32 39 3 15 31 38 31 30 29 37 32 4 12 36 29 37 33 20 31 14 2 17 9 22 13 32 1 25 27 33 37 14 30 2 34 37 7 33 16 32 2 29 36 5 36 29 39 36 32 30 16 36 5 30 28 9 21 2 39 19 32 35 17 3 37 25 36 0 31 22 27 8 31 12 4 22 2 20 14 19 8 10 26 3 12 2 35 17 2 6 30 16 10 7 9 22 12 7 4 30 22 3 18 39 33 17 39 22 30 20 20 36 6 28 33 18 38 11 2 36 37 3 27 1 18 36 31 27 15 31 3 3 18 20 5 10 14 11 15 4 6 5 39 8 14 3 8 33 37 32 20 38 21 19 37 21 18 22 36 35 28 4100 3999 4178 2720 3269 4254 2663 3676 3387 3659 3214 4658 4803 4645 2877 3842 3795 4525 3424 3844 4540 3399 2985 2553 2746 3115 3977 2557 4011 3819 3714 2669 4305 3078 3512 4789 3013 3160 4608 3246 4809 4859 4648 2843 4234 4060 3177 4629 2975 3234 2811 4395 3253 4126 3018 4403 4569 3309 4202 3187 4554 4497 3131 3982 2523 2964 3361 3836 3487 2619 2545 4312 3880 3740 4467 2802 3593 3712 3761 3459 2749 4659 2876 3559 4368 4429 4388 2993 4222 2705 2960 4225 2633 3750 2832 3427 4981 4733 4551 3517 3144 3546 2623 3576 3741 4201 2614 2614 3332 3829 2767 4596 4475 3340 3251 4391 3629 2805 3411 3152 4803 4487 4066 3135 2668 4385 3505 2585 3615 2673 3316 3160 4798 2757 2669 4219 3846 3746 3124 3616 3314 2759 3582 4169 2641 4645 3212 2598 2993 3518 3451 3278 3852 4476 3894 2745 2761 4086 4406 4022 3735 4938 3873 4852 2815 4854 3857 3552 3781 4071 4466 4088 2943 3867 3262
7 12 9 32 15 7 28 8 33 28 18 11 32 15 37 1 27 22 4 7 8 3 22 37 1 19 16 37 16 28 16 9 36 8 13 16 35 34 30 12 1 18 29 23 13 16 3 11 33 1 18 8 34 4 37 33 30 15 4 4 20 30 38 13 21 19 29 13 36 38 18 19 6 6 22 5 1 26 10 7 30 30 0 22 22 24 12 24 4 26 3 35 30 24 18 24 1 18 19 10 19 17 4 31 38 14 16 24 37 39 22 35 25 39 5 7 10 19 29 9 35 30 15 39 4 37 27 38 11 8 16 34 1 9 25 2 4 12 9 12 18 17 37 27 4 25 36 30 16 6 39 3 4 14 20 32 5 15 11 17 6 7 22 1 15 4 36 23 28 17 27 22 26 11 28 3058 2869 3309 2855 4134 4074 3192 4882 3321 3868 3034 3810 2784 3954 3226 3209 4767 3152 2750 2575 4947 4809 3780 4237 4395 4608 4725 4715 2885 3445 3390 4840 4792 2807 3512 2717 4704 2796 4584 4962 4955 4981 3411 2710 2637 2806 3558 3228 3426 2607 2616 3487 4000 4026 2557 3028 4923 3157 2551 3265 4913 4479 4003 2917 4517 4849 3980 3812 3759 4074 2657 4350 3387 4101 2981 2657 2857 4237 4227 4983 3421 4872 3937 3196 4177 2885 4465 2992 3197 4904 2894 3084 4569 3777 3619 4377 8 2647 4111 5 3952 4179 2974 2916 4390 3815 3204 4918 3236 2542 3716 4919 4659 4767 3429 2766 4397 4445 3994 3963 4473 3761 2508 3338 3362 3269 3286 3932 3079 4063 3344 4727 4194 3184 3787 2819 2942 2813 4639 3441 4776 3748 2544 4894 4045 4763 4929 4953 2955 4791 4943 3439 4592 4212 3678 4273 3922 3834 2609 3970 3619 3213 4348 4773 3935 3218 4373 4289 4845 3645 3558 2548 4049 4341 2580
22 37 37 27 18 17 5 30 23 31 11 32 13 21 27 34 22 24 15 29 21 10 21 20 10 23 31 17 23 8 13 35 26 14 14 39 9 36 24 4 28 39 27 19 17 8 38 12 12 20 25 12 4 23 39 18 12 25 10 21 30 4 3 28 20 11 33 17 36 30 36 9 23 14 5 17 20 5 35 14 25 24 36 0 12 24 14 6 37 9 16 9 15 19 11 12 37 3 10 30 15 37 37 16 36 22 15 18 15 38 28 24 28 18 12 38 21 19 16 6 11 2 28 15 4 13 19 30 26 37 38 20 14 13 31 14 11 37 11 15 22 5 27 20 4 7 35 36 27 35 34 22 3 37 2 17 23 13 9 15 35 38 2 37 35 18 26 30 25 20 20 27 25 28 24 4699 4383 4262 4129 3214 4189 3881 4872 4913 2596 3128 3779 2974 2960 3961 4205 2585 3738 4113 3597 4992 3917 4861 2832 4171 2858 3938 3118 2654 3904 4511 4540 4364 3015 4429 4155 3896 3735 4479 3729 4596 3928 2539 3837 3884 4010 4413 4972 4182 4549 4117 3192 4994 3989 3673 4798 4318 3124 3346 3416 2582 3336 4444 4569 4077 3141 2845 4366 3618 4471 3391 2782 4388 3067 4284 4782 2667 3840 4055 4404 4628 3679 4780 4016 4332 4955 3633 3016 3778 4003 3434 4904 4232 2939 4257 4199 3859 3454 3454 3347 4178 3690 4271 3081 3873 4217 2591 3437 4117 3347 4728 2587 2891 4144 3811 3620 3037 3425 2888 2542 4025 3606 3328 3256 4983 3617 3870 2652 2561 3230 3589 4241 3966 3430 4574 3022 4979 2906 3648 4558 3057 2570 4177 2506 4400 4098 3819 3126 4331 3233 4755 4594 4064 4569 2677 3362 3846 4179 4363 3602 2718 4801 3331 4351 4830 4682 3606 9 4857 3889 9 4244 3152 4963 4765
1 36 15 11 10 18 20 16 33 7 8 10 15 25 25 27 3 11 25 16 27 15 11 21 15 30 27 10 34 23 4 10 31 31 33 18 33 13 19 24 19 37 26 32 5 24 4 12 17 32 16 5 34 39 23 23 4 13 39 2 19 5 27 35 25 23 26 14 21 1 36 23 37 8 13 7 32 4 21 18 17 3 30 9 0 9 28 13 23 21 30 4 19 37 12 30 29 34 24 35 11 27 8 29 30 35 1 8 16 21 6 38 38 3 28 36 5 28 38 7 15 30 34 2 19 32 16 3 27 36 16 25 9 6 4 31 36 6 3 21 14 28 22 7 6 27 18 11 17 4 10 35 9 25 27 21 1 28 12 4 39 29 33 3 3 38 18 3 15 11 8 21 8 20 21 3689 3101 3359 2542 4028 2973 3625 3447 3165 4235 3395 3521 3564 3038 4422 4445 3207 3479 3887 2890 3102 2985 4017 4959 2798 2723 4038 3737 4610 4134 4200 2911 4410 3791 3847 4678 4692 4175 3248 4087 4940 4892 4963 4018 3576 4012 2626 4400 4181 3441 3552 3744 2893 3318 2501 3220 4187 2615 4967 2876 4382 3801 3421 3085 3407 2604 3863 4295 3335 4186 3136 2570 3994 4063 3456 3749 4731 3739 4290 4247 4286 3220 3494 3332 4173 3240 3412 2852 4247 3979 4997 4162 4407 4871 4987 3180 3875 2562 4675 4074 4632 3569 2850 3407 4741 3366 4850 3923 3836 4826 3824 3159 2697 3929 4033 2776 2885 3309 4691 3268 3831 3415 4246 3355 2536 3154 2644 4407 3128 4085 2665 3219 4254 2656 4976 3014 4005 3134 3153 3073 3947 4180 4072 3405 3178 3678 3913 4468 4911 3965 2878 2989 3154 4310 2864 3472 4685 2720 4345 3416 4446 2720 3164 4394 4608 4002 4480 3372 2956 2931 3068 4394 3106 4565 2817
33 10 12 38 4 2 26 29 23 8 16 24 18 25 14 15 30 10 7 15 35 39 1 18 18 28 28 28 20 7 16 39 35 14 25 25 37 23 5 14 34 15 29 14 6 28 25 31 11 1 18 20 25 27 6 6 26 36 28 15 32 26 15 13 30 19 23 29 32 14 11 19 21 22 30 26 38 25 12 32 10 25 7 13 8 0 12 16 31 19 6 17 31 19 34 21 37 10 23 16 23 14 11 1 24 29 5 28 7 38 17 16 30 29 26 7 39 26 28 1 27 15 25 16 35 10 5 39 30 23 17 3 9 22 3 14 3 16 39 25 25 27 25 29 36 12 20 12 23 9 13 22 3 24 16 22 9 27 33 28 1 25 20 21 19 17 28 35 3 29 29 15 4 33 22 3597 4942 3506 4637 3596 3618 3855 4313 3936 3379 4802 2802 3855 3638 4501 2901 3190 3728 3563 3539 4727 3669 4343 4535 3568 3900 4727 4160 2980 4011 3855 5 3769 3959 2780 4278 3724 4144 2978 4272 2826 3338 2707 2800 4101 4859 3252 2576 3581 2660 4201 2884 3711 4187 4985 4899 4387 3432 4760 2685 2500 3659 4865 4151 4710 3375 3263 3188 4838 4868 4968 2790 4771 2549 4209 4167 2531 3196 3885 3410 2684 4439 3248 4584 2720 3696 4518 3277 2563 4516 3531 4317 2928 3354 4891 4762 4507 3833 3293 2516 4169 2965 4273 4724 4876 3203 3405 2590 4565 4878 3959 3940 4518 3953 4574 4258 4723 3044 3793 4819 2546 4931 3238 3388 4605 3625 2640 4644 4033 2511 3482 2943 2723 3775 4187 4692 3624 4490 4476 4006 3145 2596 4975 2835 2908 2587 3097 4121 3448 3239 3528 3931 2848 2863 4301 3949 3612 4570 2792 4382 2895 4175 2888 4498 4606 3697 4139 4138 3385 4508 3815 4541 4926 4783 4467
27 32 9 7 12 10 2 7 27 11 38 19 32 23 35 32 24 27 24 14 15 20 9 6 25 9 38 34 5 22 23 15 19 18 25 14 22 36 33 6 11 24 15 37 38 37 35 30 19 27 31 1 25 16 17 25 25 5 24 8 23 27 16 30 32 25 35 36 11 28 18 14 29 25 24 19 27 16 26 38 32 20 25 30 39 12 0 1 12 10 4 37 10 39 23 10 11 20 19 20 35 15 34 27 7 2 35 25 33 13 33 22 25 25 3 4 25 3 2 13 31 35 30 37 36 11 20 15 3 8 19 30 4 12 19 6 11 5 38 21 24 28 5 16 4 36 13 38 9 8 28 19 38 38 2 37 7 7 5 10 38 27 31 25 19 23 28 39 30 7 34 24 28 8 16 4234 4432 2955 4119 4820 4590 3294 3992 4192 4905 4261 4430 3402 2663 3136 2649 3325 2783 4712 3406 4802 3480 4511 2698 4669 4492 4133 4847 3345 3377 3237 4664 2717 4653 4585 3169 3997 2617 3793 4754 2947 2749 3074 3190 3425 4414 3975 4123 3095 4910 3625 3153 3650 2728 4100 2853 3601 2771 3171 4009 7 4875 3476 3441 3290 4921 2534 3274 3671 4360 3465 4511 4443 4527 4876 4985 2999 2638 4224 3887 3371 4531 3915 3125 4226 3778 4739 4187 3243 4071 3544 2886 2886 4933 4930 4712 4136 4985 4175 3418 2900 4279 2677 4309 4434 4255 3579 3663 3583 2924 3404 4349 3207 3529 3633 3864 4494 2634 2812 4145 4897 3467 4667 4484 4916 4278 4404 3732 4920 3364 3800 3943 3510 3835 3982 4846 2625 4223 3850 2506 3781 4064 2631 2876 4336 3726 4081 3524 2680 4626 2931 3034 3646 4647 4772 4568 4149 4213 2659 4707 4309 2575 4687 4692 4351 4235 4892 3763 3089 4636 2811 4252 4220 4085 2900
22 30 30 11 1 4 25 17 38 37 34 4 3 28 29 27 33 30 5 5 26 3 28 32 6 11 11 34 38 26 35 2 1 14 3 32 10 8 24 8 3 3 38 14 15 19 26 23 1 28 24 35 25 34 24 12 7 7 37 15 6 18 23 37 3 28 27 3 10 29 25 14 19 28 16 10 20 8 13 18 16 11 28 25 8 19 33 0 7 7 39 12 18 36 30 34 9 3 36 14 23 16 10 13 9 2 23 14 28 9 14 16 30 20 22 9 21 30 30 39 15 14 19 10 20 29 38 5 33 7 22 13 39 10 36 13 10 37 17 5 1 11 39 11 18 33 2 3 17 38 11 25 26 29 19 1 18 2 1 4 22 5 19 34 14 37 35 17 29 31 18 29 9 6 19 3616 3775 2719 3448 2790 4838 2882 2950 3125 3464 3662 2931 4437 3907 3511 2958 3014 4253 4641 4659 3787 3697 3574 4104 3823 3909 3541 4836 2992 3072 4035 3625 4989 2709 2736 3121 2610 3224 4923 3688 3124 2849 3466 4720 2993 2766 2952 2892 4352 2679 3252 4331 2664 3694 3274 3897 4966 4761 3427 4683 3752 2850 2783 2975 4902 2553 4134 3369 4204 2556 4844 4773 3587 3665 4998 3997 3767 2797 3862 4191 4844 4818 2874 2981 2646 4500 4414 4119 2885 3133 3533 4502 3036 3170 4420 2653 3447 2926 2954 3987 4335 3332 3812 3703 4919 2798 3525 2768 2506 4331 4958 2876 4576 2623 4871 4625 3677 4156 3957 4047 3621 4222 3093 2507 2993 2974 3338 3859 4599 3329 3562 2713 4005 4195 2517 4339 9 2835 3589 4513 4924 3675 4453 3076 2992 4494 2682 3838 3381 4632 2663 4176 2689 2514 4963 3724 2930 4141 3712 3211 4007 4434 3961 2793 3948 4952 3853 3171 4439 4208 4969 4587 3311 4429 2813
24 18 7 32 5 17 3 10 8 24 23 2 29 10 10 6 14 16 2 6 18 7 28 24 32 25 7 21 5 18 31 14 34 30 17 20 8 27 14 32 35 27 18 30 10 12 14 33 33 31 7 35 12 34 23 36 3 35 14 16 9 32 18 26 26 4 14 3 3 39 21 6 30 5 25 13 13 15 5 15 30 16 10 14 35 8 10 7 0 34 37 39 26 10 10 30 9 30 11 32 13 6 20 34 17 2 3 3 21 14 9 26 22 36 38 37 21 6 35 10 11 4 33 1 11 31 2 34 4 10 2 11 9 18 10 28 10 35 32 35 17 17 21 26 20 32 13 14 18 19 6 1 29 7 7 35 12 10 27 4 37 12 13 8 8 33 39 29 3 21 11 33 30 17 14 3784 4844 3931 4069 3651 3583 4483 4606 2970 2790 3636 4682 3145 2641 4971 4650 3998 3236 3831 2749 4825 3636 3210 2554 4410 2835 2638 3330 2713 4064 4839 3599 3572 2732 2987 2987 4494 3016 3324 3009 4073 3953 4790 4413 4127 3919 3493 2691 2738 3395 2609 2902 4660 2731 3048 4587 2712 3038 4970 4304 4998 4189 2761 2929 3118 4158 4320 3706 3720 3843 2845 4836 3738 4283 4455 4946 2606 4422 3337 3490 3037 3261 2952 3018 3824 4895 2826 2807 2657 3043 2570 4401 4784 4193 4995 3463 3798 2869 4987 4619 4549 3756 3107 3925 2667 3599 4563 3456 4136 3803 3136 2670 3490 2587 4081 4024 4637 2586 2954 3243 3586 2930 4509 3057 3943 3181 4786 2968 4395 4894 4306 2857 4681 4039 2907 3858 3301 2685 4635 4243 3587 4312 3180 2949 4558 3896 4281 3913 2705 4515 6 2519 4556 4655 3313 2766 3609 3952 4868 3307 4665 3628 4284 11 2667 4351 3866 4959 3831 3077 4696 4142 2654 3272 3591
11 12 30 12 36 7 27 11 9 14 15 29 23 21 8 21 10 32 28 3 16 13 3 13 1 11 18 26 21 27 11 22 30 34 35 30 11 34 12 2 31 23 2 27 16 27 39 13 38 3 23 30 11 8 2 38 17 12 34 5 29 10 13 26 15 11 18 7 11 35 1 29 28 25 25 4 13 30 2 30 6 32 8 12 3 36 21 36 28 0 14 25 7 10 1 25 25 29 14 5 37 26 10 31 22 22 23 12 33 36 24 20 32 29 31 3 20 19 5 24 2 26 30 16 24 25 8 16 24 10 22 1 18 15 14 12 5 37 27 20 26 20 2 24 34 35 21 37 17 12 31 20 23 14 5 18 6 29 25 10 34 28 33 37 10 11 27 10 28 39 34 12 32 34 33 4089 4655 4570 4215 2612 4627 2745 3566 4375 2680 2778 3663 3673 4940 4568 3532 3035 3435 4840 4394 4191 4242 4259 4541 4350 4341 2968 3686 4438 4674 2955 4955 4977 3803 4707 2527 4003 3461 2517 2595 2979 4842 3046 4549 4068 2729 2550 2849 4746 3073 3913 4118 3821 4238 4744 3517 3757 2576 3040 3064 4169 4865 3206 4533 4303 4541 4898 4781 4138 2646 2771 4477 4075 3571 2776 4490 4905 2652 2636 4875 2584 3234 2537 3059 4396 3187 4223 4725 3526 3627 3909 4917 3983 2981 3586 4755 3387 2665 4930 4229 3699 4167 4953 3608 4138 3455 3346 2721 3408 3609 4819 2820 4732 3381 2992 3294 2528 3275 2966 4763 4707 3673 2569 4132 4383 2842 3471 3915 2853 2888 4293 4690 4457 2972 4457 4460 4795 4617 4506 4312 3087 3109 4289 2961 4527 2809 3841 2689 4063 2772 2805 4506 3468 3332 4713 3105 3436 4207 4735 4286 17 4836 4875 4626 2543 4593 4375 3607 4588 4829 4054 2653 4995 4595 3029
22 27 35 35 2 17 20 17 5 3 16 39 38 25 18 14 35 8 9 39 29 28 38 33 19 19 37 39 15 22 11 1 10 33 9 3 29 24 4 11 19 4 13 27 23 20 34 15 15 19 11 15 31 28 10 22 36 5 6 22 20 37 8 36 5 12 11 34 29 30 36 16 10 19 22 29 29 29 38 9 22 32 27 20 15 21 25 33 17 28 0 34 7 39 12 21 25 24 39 37 24 34 32 30 8 14 27 24 23 33 3 23 14 20 26 14 5 18 17 22 33 39 25 11 26 6 20 7 23 23 2 24 14 2 14 16 20 8 28 33 10 22 34 35 18 6 25 20 33 15 5 14 31 28 25 12 12 36 10 31 31 11 10 36 27 33 26 31 22 35 3 9 19 37 9 2613 3777 2803 3388 4432 3947 3699 3623 2936 3821 3694 2649 4562 4708 4110 4308 4217 3512 3508 3544 3214 4354 3933 2553 4335 2874 3723 4932 4351 3657 4791 3733 4423 4590 4005 3254 3269 4315 4938 3472 2930 3149 4811 2809 3088 2676 3946 4832 3055 4128 4087 3466 3932 4521 4376 3720 4332 4667 2566 3692 4392 4484 4773 2917 3212 4748 3088 2656 3889 2922 3015 3071 4735 3316 4644 4426 3901 2617 3080 3603 2892 4144 2904 4844 4403 2834 3122 3337 2630 3859 4827 3280 3647 3986 3815 2869 4569 4192 3807 4406 3857 4258 4093 4711 3790 4828 4694 3603 3161 2619 2669 4285 3478 3567 4782 2716 4986 4801 3601 2584 3216 2514 3101 2680 4036 3594 3996 2513 4283 3555 2628 4347 3527 3286 4323 2793 2919 2921 3638 2802 3786 3697 2617 3832 4052 3005 3166 4070 4854 3147 2781 3995 3070 4231 2754 3930 3515 4405 3611 3937 2826 4003 3938 4872 4407 3593 3313 2728 4251 3688 4570 3342 3018 4048 3710
32 38 24 5 38 36 28 22 30 31 5 18 28 25 3 38 15 2 25 37 23 31 10 8 39 19 20 13 24 35 15 9 25 36 39 18 21 28 28 35 6 36 35 36 1 29 39 20 34 1 35 31 3 10 3 22 1 39 24 28 22 6 38 22 25 24 5 29 32 20 24 3 30 23 26 14 30 37 24 20 27 18 10 21 14 19 37 19 25 23 15 0 10 26 9 20 27 24 15 2 22 4 34 13 34 17 25 34 38 24 27 5 7 10 32 3 39 4 7 38 13 2 13 20 15 8 9 21 34 39 16 35 2 31 36 18 34 3 19 17 26 12 8 23 29 15 10 22 7 37 4 30 32 20 29 14 35 22 35 35 39 12 11 8 17 3 21 39 30 21 20 31 16 21 19 4929 3295 3895 4235 4581 2937 3799 4234 4341 4765 2913 3707 3179 3656 2886 4897 3447 4189 2646 3138 3993 3707 3063 3155 4451 3821 4235 4248 3582 4324 3237 3951 2942 4433 3929 4184 4162 4144 4064 4985 4621 3045 4698 4869 3821 4951 4019 2668 4632 2785 3910 4284 2771 3187 4714 4937 4806 3035 3360 3479 3395 4434 3643 3179 4216 2987 4105 3625 2975 2822 4119 3358 3137 3641 2569 3819 4704 4236 4047 3085 2984 3264 4968 3087 4472 4401 3651 3869 3261 3571 3481 4065 4911 3863 4651 3703 2721 3382 4100 3085 2886 2667 4354 4325 4835 4503 4657 3520 3935 2573 4091 3648 3900 4761 4037 4239 4443 3189 3232 2542 4898 4547 4542 3150 4222 3095 4901 3395 3288 4312 2761 3993 4785 14 3253 2957 2834 2811 2703 3749 3099 3758 2789 2863 3761 4817 2637 3176 4887 4972 3040 2595 3855 4644 2573 3590 3173 4624 2576 2927 4277 3531 2791 2858 4084 3093 3753 3099 3790 3465 2507 4446 3075 4041 3419
18 23 30 38 26 20 12 22 37 30 15 9 23 2 22 17 26 16 7 14 35 8 16 24 16 21 22 35 28 27 28 37 19 6 1 23 35 27 24 22 17 21 2 8 38 9 25 19 1 13 38 22 11 22 8 29 24 30 1 28 5 31 9 37 35 7 24 10 29 33 33 5 31 22 39 24 4 36 32 32 9 33 12 32 34 38 33 21 22 17 3 33 0 25 16 26 37 24 16 38 32 25 25 15 5 35 9 3 20 15 4 23 38 19 11 31 14 2 6 36 16 14 22 6 19 24 16 19 25 23 27 36 6 39 13 30 9 38 18 1 8 19 32 8 16 5 4 39 30 1 23 21 16 2 9 8 8 8 31 31 19 31 29 20 2 10 10 24 23 26 11 31 10 35 1 3835 4339 4136 2668 2516 3999 4487 4007 3121 3254 3413 3793 4181 4862 2755 2523 3414 2973 2807 3996 4308 3760 4593 3730 4233 2541 4021 3829 3956 4809 2891 3540 4413 3743 3178 2926 3493 4215 3364 4888 3256 2829 4198 2862 3924 2626 4816 4284 3418 3330 4284 4810 3478 2790 4674 4024 2530 4435 2985 4447 4834 3544 3588 3607 3612 4886 3992 3215 3099 4846 4378 3167 3989 4694 3144 4011 3918 2850 3898 4405 4938 3327 3084 4029 4838 3920 3355 3406 2817 4995 2760 3079 4929 2873 4195 3078 2506 2764 2514 3228 3678 3128 4467 3264 3803 4669 3911 2654 4822 3729 3317 3298 2838 2879 2978 3391 3107 4050 4208 2794 2928 3717 4338 3559 3394 4506 3479 4681 4524 4919 4639 3058 3833 2705 3153 3934 2521 4201 4709 4648 3338 2655 4480 4182 2605 3055 4672 4447 4253 3068 4908 3722 3425 4007 4402 3454 2712 2858 3630 2938 3758 4463 3314 2750 2661 3906 2695 3011 3359 4298 4450 4645 2697 2607 2995
19 12 10 3 21 13 13 2 38 4 6 20 25 26 1 31 8 34 7 18 24 29 38 6 35 38 37 30 25 21 7 27 12 11 39 22 24 3 5 13 17 6 26 33 21 35 25 35 8 16 11 6 31 34 10 34 12 36 13 27 34 27 36 20 6 27 22 2 37 12 17 25 28 3 26 1 21 30 23 30 27 25 37 16 39 28 11 8 36 32 7 17 3 0 3 11 1 18 29 18 23 15 38 1 26 30 16 13 6 23 11 24 38 35 5 10 21 35 5 17 29 9 10 25 21 37 19 27 14 6 26 18 17 33 13 37 12 10 33 9 31 10 15 11 37 9 32 19 17 23 37 14 23 7 39 7 12 12 23 3 23 36 8 10 37 1 17 31 16 30 3 15 28 12 1 2697 3890 3229 3660 4681 2869 2678 3245 4870 2870 3152 3471 4453 4035 4055 3297 4423 2778 4812 4770 2620 4894 3714 4768 3237 4013 4051 2558 4359 3565 3461 2702 3129 4327 4875 4656 4981 4126 2684 4448 4936 4081 3556 2795 3082 3634 3507 2897 3875 3923 4141 3977 2825 2755 3872 4058 4565 3881 3715 2763 2913 4295 3995 4243 3129 2529 3853 3769 4557 4339 2817 2883 4472 3361 3275 2539 4175 4578 3881 4637 4867 3726 4609 2997 3299 2694 2689 2786 3619 4181 3224 4158 4883 3198 3634 4900 4015 4584 2756 4873 2970 4324 3218 3777 2710 4849 3444 3620 3791 4120 2930 4764 3604 4979 2960 2723 4986 4283 4075 3810 2868 3168 4088 4950 4698 4904 3322 4493 4318 3061 2811 3386 4303 4021 3903 3186 3417 3450 4275 2741 4697 2635 4714 2507 2870 3531 4175 3228 4475 3720 4103 2533 4463 2741 2800 2934 3859 2971 3934 3747 2818 3316 4303 4291 4781 3056 3990 2955 3273 4756 3453 3855 2900 4795 4227
22 14 36 19 37 25 2 34 31 37 13 19 33 15 34 30 35 33 34 15 1 33 35 22 37 17 12 5 34 31 34 31 1 1 8 26 17 10 13 23 5 34 28 26 26 16 23 11 1 34 31 5 16 14 31 12 23 3 37 31 3 9 24 28 4 17 7 1 10 3 17 21 36 16 18 20 12 7 37 27 18 10 23 23 22 3 26 38 2 16 7 19 7 21 0 32 3 1 12 18 21 25 31 27 28 19 24 23 31 14 37 3 11 17 38 38 34 15 5 10 21 28 15 17 18 10 15 3 15 23 14 31 39 21 34 16 5 5 16 29 33 7 27 23 20 37 26 3 9 31 12 34 17 14 13 33 10 33 20 31 13 23 18 35 14 24 38 13 19 34 13 30 33 21 27 2978 3394 2505 3555 3053 3439 4932 4008 4313 3448 4904 4043 3759 4589 3727 4063 4096 4495 3407 4405 4718 2547 4846 3429 2741 3994 2692 3204 3570 3733 3450 4507 4372 4934 3701 3275 4662 4561 4833 4221 4859 4052 3743 4327 2855 4644 3006 3267 2577 2764 3053 4466 4324 2546 3702 4850 15 3601 2705 4207 4181 3817 4762 4273 4145 4745 3482 4516 3429 3725 4570 2826 4396 3249 3085 4122 3051 4572 3486 3093 3063 3476 2728 4119 2916 2523 4355 4798 3558 4265 3984 3453 3160 2776 2701 4414 3690 4933 3812 4207 4036 2711 4333 3530 4084 4933 2673 3387 3775 4167 4801 2800 3606 3621 2973 3820 3157 3304 4591 3412 4675 4261 3966 4342 3953 3132 3146 4743 3474 2591 2641 2559 3739 4365 4347 3718 4703 4085 2726 3956 3007 3295 3242 2637 2747 4442 3114 3947 3689 3765 3098 4017 4117 3031 4964 3890 4491 4393 4806 4557 4322 4879 2575 3240 3820 4099 4236 6 3238 2781 4055 3361 4784 3184 3965
30 37 1 23 24 8 26 25 1 6 16 22 6 29 8 30 13 1 35 20 37 9 16 24 16 18 37 31 19 19 36 20 8 2 14 38 27 18 39 38 15 7 7 18 33 36 6 20 22 3 6 26 15 19 20 21 17 33 21 8 3 10 35 36 28 22 27 16 4 30 35 18 26 24 25 8 31 14 5 26 12 36 13 14 16 23 9 12 32 31 31 8 39 39 27 0 38 26 38 30 22 33 7 12 23 5 22 24 11 19 32 8 38 13 2 4 5 15 22 22 25 15 3 29 28 4 20 19 16 32 36 39 24 38 30 35 6 22 6 4 10 33 4 2 6 7 14 27 9 36 26 17 13 31 10 2 37 12 18 22 38 18 26 2 13 30 5 4 36 35 17 1 39 12 9 4307 2528 4591 4448 3481 2888 3603 2602 4489 3871 4006 3898 4085 2786 4590 3882 3123 3682 4730 3444 2617 3941 3871 3654 3909 4049 2842 4609 3094 3621 4156 3384 3693 4517 4855 3609 4749 3302 4076 2939 4240 2736 2774 4014 2575 2568 3876 3760 4178 3934 2944 3076 2911 3975 3235 4984 3743 4460 4378 3425 2550 2975 4938 3057 4543 3059 4793 2746 4289 3338 4114 4363 2724 3804 3311 3194 4023 2927 3683 3709 2954 2711 4934 3157 4164 2866 2526 3545 4385 3514 3049 4684 3042 3184 2891 3284 2624 4595 3366 2517 3540 2584 3602 4710 3110 4233 4153 3905 2529 4301 3332 4246 2538 4700 4782 4381 3940 4191 2909 2800 4995 3148 3427 2787 2725 3738 4178 3120 2776 2674 3410 2686 3495 2837 3598 4103 3715 4747 4194 3550 4877 3582 3803 3561 2589 4955 2548 4940 3759 2525 4417 3957 3131 3872 4227 4374 3873 3461 4261 3342 4398 4385 2870 3675 3628 4530 4079 4208 3974 4280 4927 3263 4740 4574 4948
14 6 27 30 13 4 37 13 39 17 23 5 26 25 15 27 18 30 26 36 23 15 19 35 1 22 14 12 39 26 19 15 25 11 26 4 31 35 37 28 23 6 26 26 6 21 26 35 26 14 39 32 13 23 24 16 1 2 15 23 29 27 26 20 13 22 6 28 8 26 5 5 8 18 26 36 26 22 6 21 19 22 19 1 8 4 3 36 31 33 32 3 18 33 29 20 0 15 18 36 29 14 24 35 9 30 36 13 19 9 33 37 14 5 25 37 7 15 36 20 16 34 6 14 4 7 5 1 24 38 23 10 34 26 29 36 26 9 28 2 15 7 4 36 37 22 37 3 39 8 10 11 29 29 24 11 38 10 8 10 24 8 6 23 7 34 17 38 2 12 3 1 27 26 6 3575 4593 3438 4700 3042 3616 4181 2743 2897 3586 4319 3585 4487 3246 4600 2528 3286 2630 3443 3920 2856 4094 4419 3517 3451 4476 4228 3968 3424 3168 2919 3470 4182 4157 3210 3315 3559 2898 4565 4151 2899 4892 4005 4307 3775 2506 4686 4063 3579 4239 4824 3305 4044 4040 3343 3009 2884 3220 3721 3178 3568 3765 4915 2588 3740 3273 2929 4152 4952 4066 4030 3498 2729 4433 3659 4792 3087 3598 3645 3473 4686 2727 4352 2556 2966 3208 3740 4543 3005 4471 2569 3884 3097 4800 4449 3184 3101 3361 4405 4813 3200 4335 4966 4586 2991 2551 3170 4964 4447 2612 4030 2806 19 4752 4465 3601 2852 3161 4586 3672 4390 4935 3426 2969 4611 3595 2611 4739 3115 3479 4129 3060 3429 4189 4388 3112 4626 3842 4700 3853 4418 3929 3453 4033 3050 3012 2824 2777 3516 3964 2916 3246 3125 4029 2873 4621 3984 3463 4331 4687 4043 4625 2649 4531 4916 3936 4255 4552 3068 4679 2983 2947 4996 4530 4982
37 19 7 35 13 33 2 19 3 5 3 28 38 36 34 13 3 13 17 4 21 28 25 22 10 33 38 36 38 39 1 20 7 27 37 22 2 37 27 3 34 13 36 35 13 35 37 8 6 8 39 11 29 20 30 8 3 32 5 11 3 25 9 2 1 25 14 19 10 8 8 14 8 21 35 26 2 27 31 16 5 13 18 35 10 39 29 4 24 37 9 34 34 4 6 4 34 0 20 5 15 18 21 31 6 16 5 15 9 23 1 11 4 17 5 17 16 27 18 38 32 31 11 7 33 38 15 19 18 31 12 35 10 25 3 12 30 28 21 25 28 15 23 18 26 28 24 14 18 4 39 33 32 33 1 24 2 8 15 32 15 1 39 34 25 17 27 1 5 11 39 28 38 19 17 3059 2615 2582 2506 3006 4376 4231 2942 2771 3626 3331 2936 3976 4216 4934 3566 4940 3207 3953 4463 4651 2672 3480 3214 3267 3862 3067 2832 4671 4623 4119 3063 3880 3859 3759 2554 3381 4167 3262 3075 3651 3422 3591 4807 3878 3490 4279 4451 4147 4936 3790 4779 3383 3448 4681 3938 2938 3734 2854 3985 4446 3815 3309 4630 3648 3065 4409 3527 3728 3306 4452 2563 3176 3956 3842 4983 3568 3294 3819 2976 4818 2653 4935 4373 2765 3227 4474 4893 2858 3677 4326 3936 4195 3456 3076 2915 4682 3908 4368 4250 3318 4475 4966 4521 3320 3258 4928 4644 2892 3498 4876 4626 4179 4871 4369 4217 4690 4823 2643 3645 4339 4814 2717 4889 2844 4129 4981 4244 2976 4781 3382 4326 4361 2810 19 4088 4671 3912 4356 3243 3916 4980 3251 2941 4296 2916 3186 2893 3334 2894 2737 3913 4435 4947 3086 4464 4777 3833 3246 3207 3005 4820 3030 3139 4971 4626 4156 4144 4012 4240 4605 3253 4956 9 3349
16 10 11 32 11 21 2 17 10 15 27 8 32 6 34 24 38 8 19 25 28 5 18 28 37 22 13 9 39 20 21 26 3 6 24 26 19 20 19 15 35 24 7 17 14 5 25 23 37 5 9 19 26 16 21 18 26 15 35 38 7 14 14 17 10 14 26 32 18 2 32 38 24 12 15 15 17 23 37 11 15 27 36 29 34 33 7 11 38 19 36 34 6 27 32 10 8 16 0 8 28 6 24 35 25 17 10 15 34 3 34 34 22 25 3 30 35 23 9 20 31 21 3 19 23 24 30 17 39 23 38 18 5 33 10 27 22 8 9 39 21 6 21 14 11 20 29 4 14 37 28 31 17 38 30 19 4 23 22 8 24 2 29 24 9 20 30 19 34 5 13 36 21 34 4 3835 4014 3776 4545 3392 4020 4202 3262 4934 3290 3486 3542 4431 3689 4100 2945 4176 2515 3332 4484 3845 3266 3893 3439 4520 3547 2614 2848 4021 3298 3559 4475 3785 2582 3987 4380 3186 3275 4155 2617 4577 3746 2699 4590 4233 4848 2998 3094 3008 3260 3071 4812 4705 2790 2732 2837 3509 3537 4321 2571 2851 4822 2613 4895 4652 3555 3250 4476 4858 3269 3806 3635 4511 4626 2945 2895 4867 3212 3091 2859 3792 4648 3057 4524 3304 2787 4341 4020 4745 3707 4840 3950 3711 4734 3755 4432 4645 4719 3443 2543 4594 4188 4741 2514 3307 3882 2883 3654 4402 3386 2653 4355 3451 2699 3083 4785 2513 2966 4638 2775 4266 3018 4373 3586 4040 3910 3193 4732 3530 2900 3082 4571 2807 4461 3434 3255 4705 3712 3463 4339 2985 3083 4747 4650 3640 2765 3727 3424 4549 3792 3886 2513 2906 3032 4243 2919 6 4450 3764 2695 3967 3128 2877 3631 4328 2850 2942 2980 4016 2727 4533 4520 4574 4737 2959
15 39 6 16 26 16 36 30 37 22 38 7 16 21 3 28 6 6 21 3 20 24 16 8 25 27 21 36 19 33 2 19 20 22 6 18 9 26 33 20 3 5 13 29 24 11 14 3 19 36 18 37 37 6 35 36 9 5 34 6 27 35 6 31 24 9 3 15 9 18 12 23 39 32 17 33 37 17 9 16 19 37 12 3 33 26 30 25 23 28 18 9 34 18 31 33 4 20 32 0 27 22 28 20 12 13 7 10 32 16 5 12 5 8 14 6 25 5 27 38 23 20 7 38 27 32 17 24 26 39 22 20 12 10 36 30 36 24 27 4 23 32 35 18 28 30 37 23 19 10 28 39 31 27 28 32 36 10 7 4 28 36 8 36 2 35 10 37 6 5 11 29 37 14 38 4756 4872 4651 4887 3666 3710 3647 3342 2923 3560 2902 3839 4675 3953 4722 4801 4749 4106 2905 4569 4344 4538 4335 4566 4546 4954 4425 3571 3946 2740 3204 3101 2925 3738 2759 3334 3751 2721 3482 4357 4370 3990 2685 4250 4648 4467 2617 4020 4636 6 3711 3178 3763 4619 4510 4451 4037 2890 4126 4427 3555 4679 2869 4458 4057 3815 4938 3490 4095 3761 4268 4860 3087 4401 2722 4517 4978 4515 2875 2539 4622 3913 4308 4477 2920 3549 3136 4698 2976 2557 3211 4164 3711 4283 2680 4004 4556 3148 4266 4944 4730 2722 2970 3083 4992 4876 3735 4649 4086 2590 3010 3220 2928 4739 2801 4534 4177 2890 3479 2795 4419 4430 3070 4942 2588 3725 2829 4138 3983 3574 2854 4701 3809 2675 2972 3428 4675 3053 3808 4183 3068 4420 2860 4497 4115 4158 4015 2988 3549 3821 4116 3499 2898 3608 4119 4242 3694 3289 4645 3654 4252 2713 4268 2984 3700 3194 2814 3888 3155 4359 2621 3311 4803 3883 3581
16 26 38 33 11 14 2 29 17 28 31 18 27 34 23 22 24 21 32 20 18 23 25 6 9 30 27 27 16 15 23 10 27 12 8 22 32 37 8 20 23 19 19 14 28 14 11 21 8 35 7 25 22 28 1 39 19 31 27 36 6 5 13 24 12 19 31 5 33 11 22 34 23 16 21 39 33 35 32 33 21 9 6 10 20 34 12 29 3 3 6 21 20 35 31 10 9 2 10 18 0 36 23 33 5 14 1 1 17 6 5 33 13 24 22 14 4 16 36 5 27 35 16 11 4 19 11 24 29 9 38 15 16 13 29 10 7 7 12 18 19 17 23 34 34 14 17 12 7 14 6 2 8 16 23 18 6 23 24 7 32 10 38 5 32 23 27 13 1 7 38 24 23 39 4 2953 4473 4223 4398 3754 4584 2974 3447 3026 3580 4535 4144 2767 3469 3266 4508 4566 2833 3865 2835 4162 4998 2546 4100 4354 3227 3728 3880 4646 3573 4783 3837 3175 3788 2991 3780 3923 4323 4199 3516 4973 4202 4783 4283 4467 4940 2605 4409 4122 3281 4900 3455 3231 4189 4389 4637 4082 3842 4550 2677 4507 4292 3319 4484 4616 3120 2566 4054 4086 3668 3325 2654 4070 4849 4535 3024 4926 3934 3684 4809 4091 3277 4290 4817 3520 2772 2871 3783 3282 4642 2884 2998 3833 4842 2744 2718 3129 3594 3169 4832 3630 3240 3195 3972 3848 3529 4030 4381 4136 3662 2688 3976 4097 2556 3883 4968 3054 3348 4241 2684 2705 3297 4984 4364 3468 3013 3635 3832 4909 4721 2671 4961 3917 4525 2726 4042 4258 3163 3064 2868 4152 2950 4290 4315 4215 3400 3227 3459 3298 4731 3917 3588 3318 4645 2932 4766 2921 4909 4962 3630 3607 4916 3691 4886 4075 3602 3202 3513 4670 3956 4026 4842 4424 2590 4663
12 39 17 2 26 8 9 10 26 22 13 10 32 37 20 27 17 37 1 37 35 12 15 1 2 9 30 28 28 34 39 39 30 26 35 5 4 10 28 10 13 17 21 34 1 7 10 19 22 11 12 18 38 32 11 13 22 37 9 31 34 21 16 30 27 16 36 35 24 36 34 10 22 10 31 21 35 12 11 20 23 20 12 10 19 6 5 9 6 31 32 12 9 12 15 10 28 16 19 36 28 0 34 2 13 31 10 16 21 34 15 28 6 37 19 32 19 2 25 20 17 9 20 13 4 4 22 7 1 6 21 7 5 11 18 38 32 20 11 29 13 18 38 7 34 34 19 5 32 26 38 38 18 37 31 17 22 14 29 39 32 25 8 12 39 23 23 12 39 11 7 38 14 27 17 3046 3726 4145 3303 4857 2752 3439 4416 2928 3876 2850 4604 2939 2678 4996 3302 4146 3518 4944 3436 4492 2703 2548 4008 3392 2983 4601 3964 4510 3588 4280 2713 4451 4067 3705 2774 4001 2603 3959 3644 2793 3848 3976 3388 2835 4205 3199 4890 4374 3215 2656 3902 3771 2747 4774 4225 3085 2954 2778 3184 3232 2546 2962 4433 3398 3452 2651 3998 2708 3056 3384 2914 2937 2508 4643 4651 3325 2610 4658 3717 3575 2848 2953 2653 3429 2718 4662 4010 3361 4294 3826 3710 3690 4161 3653 2776 4544 3412 4790 3325 3737 3859 3810 3439 3727 2857 2524 3234 4547 4638 4166 3701 2907 2903 4473 4934 4515 3727 4199 2672 4911 2643 2977 4641 3459 2887 3806 2972 2715 4787 3395 2958 4137 4154 3325 3494 4042 3531 3147 4841 3453 2785 3220 4318 2766 4525 2803 3352 3122 2561 19 2688 4923 4981 4743 3783 4482 3059 3814 4464 4257 3861 4602 3645 4097 4865 4688 2861 4798 3744 4810 3871 2897 2660 2830
27 25 4 32 21 31 14 38 26 20 10 5 25 12 31 38 17 28 7 29 39 31 27 2 11 25 27 23 1 25 27 16 28 25 21 34 27 23 22 35 11 33 20 22 13 13 37 19 12 7 12 25 12 20 1 34 24 17 10 33 21 1 5 7 38 14 22 30 9 18 16 20 34 2 15 34 37 8 8 33 4 2 24 6 21 9 9 20 17 4 12 18 2 38 36 35 27 38 32 39 25 8 0 13 23 6 35 22 23 15 32 9 14 5 18 36 18 5 37 23 13 17 24 2 36 26 9 7 9 3 26 20 30 26 38 6 23 8 22 30 20 26 2 18 24 33 12 21 25 26 25 39 7 23 6 31 26 18 26 3 6 23 39 22 26 2 24 20 5 29 32 1 26 29 2 3723 4604 2971 4093 2706 3535 4118 4239 3032 4534 3066 4278 4375 3611 3418 2817 3574 4007 4067 3347 3662 2575 3506 2989 4210 2666 2596 3622 4437 2821 4386 2691 2908 3149 4627 2802 2608 3563 3162 4826 2839 3580 3469 3503 4992 4210 3208 3479 2668 3189 3558 4156 4229 2933 4499 4860 3705 4871 4991 2649 4722 3374 2550 3244 4124 2561 2591 2995 4957 3575 3286 3195 4356 2549 4983 4689 2581 3056 2695 4225 3690 3335 3510 3165 4749 2843 4561 4462 3460 3597 2941 4097 4439 4659 3576 4372 4971 3358 3566 3643 4249 4668 4468 4843 2569 4167 3162 4241 2684 2991 4082 2615 2881 3670 4519 4999 4953 4682 2932 4066 4174 3515 3549 3669 4789 3330 2907 4596 4844 3051 3665 3732 3318 4084 3922 3315 3884 4797 3535 3338 2787 3170 3046 2723 2894 3750 4005 4518 4829 3324 2639 2678 2786 3118 3546 3087 3412 4006 8 2839 4471 3438 3009 3972 3485 3997 4285 2801 3357 4509 4379 4488 4242 3670 3260
27 9 26 22 8 2 30 9 27 3 32 15 33 21 19 26 36 38 4 19 8 19 21 25 17 19 3 18 25 35 27 39 14 22 37 22 33 23 1 1 23 18 7 9 19 7 27 38 6 30 19 19 31 5 39 32 18 37 28 14 1 3 36 29 3 2 10 26 1 9 4 19 7 35 22 11 1 8 28 21 32 26 36 16 11 32 13 37 30 9 9 22 27 16 4 9 9 10 12 26 36 12 8 0 26 24 29 7 10 4 15 15 22 33 38 16 25 33 37 32 30 37 11 31 21 1 30 27 6 30 4 36 14 4 4 11 31 25 33 26 24 8 24 10 1 7 14 13 1 4 13 24 18 23 25 13 39 35 31 1 5 1 32 22 14 15 38 22 19 26 34 26 18 2 22 4649 3650 4101 3813 2799 4653 3792 4021 4726 2834 3302 3522 2625 3191 2598 4467 4048 3429 4937 3240 4645 4099 3717 4901 3920 3730 4856 3477 4499 3390 3498 3638 4566 4211 4602 3979 2591 2999 4961 4227 2694 2550 4387 4065 2851 2662 2576 4777 4416 2715 4690 3530 3994 2706 4459 2669 4237 3150 4756 3574 2691 4195 3021 4544 4122 3939 2574 2824 2785 3937 4000 3702 4528 4293 3912 3109 2843 4445 4740 3259 3372 3556 3739 3528 4952 3282 4716 3552 3752 4424 3656 2739 3130 4412 4402 4991 4842 4615 4688 3328 4805 3583 3589 2812 4394 3437 2505 4110 3043 4370 3924 4786 3659 4266 2731 4054 4525 4347 3378 4756 2600 4924 2775 4206 3193 4070 4896 4079 3040 2921 4187 2663 3330 3662 3303 3639 4826 4511 2593 2632 2751 4159 2761 4172 3002 3475 2898 4972 2711 2636 3777 4483 3851 3887 3588 3699 4516 4086 4000 3793 3049 3343 4534 2744 3627 4951 2536 4162 4654 2769 4883 4934 4993 3537 3242
29 32 39 3 3 39 21 39 19 39 23 34 20 36 13 4 15 18 24 34 7 26 5 18 37 36 27 27 9 20 29 22 30 7 27 1 13 12 32 28 22 34 5 12 33 13 8 22 34 16 33 1 28 18 27 33 21 4 20 22 33 24 9 30 7 26 8 15 6 23 22 26 7 1 31 14 29 15 26 33 32 17 17 8 22 35 12 4 21 14 10 13 32 2 11 27 9 18 6 38 39 27 21 39 0 11 26 23 6 7 28 1 10 23 30 16 37 2 7 29 34 10 37 28 29 18 34 15 19 15 1 35 36 21 7 9 35 26 22 27 38 21 27 31 24 5 37 17 4 5 7 14 18 16 2 10 28 1 1 9 38 13 31 30 22 3 28 34 6 27 33 31 25 39 10 3002 2672 4540 2790 4326 2927 3101 4738 4418 3218 4766 3976 4811 4267 4577 3631 3619 3065 4640 4810 2793 3961 2652 4002 3453 2966 4563 3582 3493 4676 3192 4179 3514 3482 3349 4158 4537 3213 2547 4994 4442 3063 3810 4966 3910 4227 4983 2751 4882 4936 3224 4548 4990 3349 3416 3358 2714 3926 3751 2819 4523 3328 2977 3261 4116 4756 3610 3195 3353 3561 4075 3507 4802 3081 2579 4246 4073 4311 3899 4335 4204 4687 3169 4999 2832 4614 4181 4453 3296 2609 4012 3064 3318 3561 4474 4039 4931 2824 3785 12 2739 4164 4375 2556 3288 2545 3604 3587 2709 3973 3552 3916 4236 2738 3755 3187 3169 2627 3990 4326 4402 4699 3951 4637 2752 4528 3506 3070 2571 4423 3676 3229 3027 4607 2516 4322 3420 2860 4810 3664 3018 3216 3170 3810 3616 3812 2742 4125 2927 3823 2985 4187 4179 3494 3726 3149 2937 3864 3441 4104 4317 3437 2842 3092 3720 2874 4941 2579 3187 4594 2968 3904 3950 4807 4702
1 30 19 14 39 27 10 39 32 36 38 29 38 6 26 1 6 35 17 28 11 3 35 25 16 13 28 5 4 12 22 37 6 28 22 38 30 5 19 37 36 36 39 15 31 37 20 9 20 27 20 38 23 17 8 1 36 5 26 29 8 22 36 30 1 25 25 1 4 31 6 4 13 29 8 39 15 35 38 15 24 30 26 32 20 16 21 38 34 2 37 22 30 15 14 1 3 32 6 17 6 6 10 38 22 0 35 13 13 14 4 19 4 31 11 39 31 25 18 28 15 4 15 4 35 7 39 20 34 33 8 35 28 5 12 36 35 7 19 5 16 37 34 10 32 20 20 30 4 12 36 26 3 14 39 29 27 36 23 39 21 7 19 30 8 23 16 34 16 33 16 26 38 36 23 3753 3411 4046 3832 3567 2759 3857 2614 2544 3592 2771 2886 4674 4679 4836 3042 3662 3219 3664 4205 3064 3463 2769 4663 3815 3655 2699 4482 2869 4408 4111 3115 4590 4323 4942 3276 4926 4205 4498 3163 3014 4743 3483 4043 4154 3754 3328 2894 3217 3037 4137 2715 4440 3290 3595 2966 3817 3651 2786 2637 3595 3233 4070 2733 4684 2912 2805 4044 2687 4076 4031 2561 3528 2855 3205 3502 3472 4887 3722 3103 3694 3086 3430 4959 3014 3785 4716 3793 3496 3630 4179 4208 3667 2679 3868 4540 2998 4678 2915 4829 4225 2739 2598 2852 3881 3411 2565 3403 2587 2529 3106 4052 3344 3003 2953 4398 3185 3450 8 4961 4149 2600 4314 3542 4623 3610 2973 3997 3392 4942 3085 4036 3643 3032 4532 2770 4973 4914 4003 4306 3921 3587 4345 2868 2763 3593 4060 3800 3314 3196 3687 2669 4889 3552 2572 4900 4195 4238 2795 4462 3563 3019 4103 2930 2749 2700 4710 4229 3009 4701 4940 4984 4310 3358 3223
1 20 15 20 13 37 24 32 16 14 37 13 2 2 23 22 39 3 28 25 14 35 35 18 28 20 29 3 22 10 36 38 38 15 24 30 34 17 33 26 33 2 33 4 27 37 25 37 28 12 2 8 11 8 20 38 12 1 33 1 19 27 1 3 13 30 4 21 3 2 13 13 26 38 8 20 1 31 9 3 15 29 16 8 12 34 35 35 30 11 4 32 19 25 20 25 26 23 5 30 22 3 21 15 8 26 0 16 11 16 15 35 22 27 35 33 28 31 12 37 35 6 3 18 18 34 35 5 24 1 3 15 35 38 22 17 4 11 6 7 32 10 14 28 18 16 16 4 22 32 21 27 4 30 23 33 16 16 17 39 39 3 12 15 17 28 6 1 15 20 32 11 21 6 5 4295 3020 4058 4446 4223 4635 4895 3752 3178 4694 3830 2627 4690 2882 3715 4550 2552 2859 2997 2693 2720 4832 3659 3319 3931 4581 2647 3616 3668 2994 4716 3222 4570 3515 4305 2927 2973 2502 3231 4480 4147 3167 4687 3166 4495 3598 2886 3184 4902 4667 3013 3936 4391 4833 4449 3135 3461 2602 4957 4038 4721 3276 2642 4095 3441 2815 2752 3161 3167 3010 3105 3835 4465 4328 3929 3305 4307 3414 3045 4986 3390 3712 2625 4585 2669 3899 2956 4024 4778 4953 4221 4142 2732 2688 4298 4214 3097 4862 3728 4902 4487 3038 4625 3661 3162 4722 4709 4631 2511 4663 3187 3763 15 3599 4505 2922 2534 3388 2681 4693 4938 3878 3475 3353 2721 4960 2655 2511 3673 4787 4856 3706 4995 2603 3206 3740 2624 4444 4078 4436 2555 4232 2914 3353 3245 4567 4896 3315 3703 3320 3354 4323 4549 2957 4115 4351 4939 2806 4932 4021 3286 2667 3178 2995 4136 4799 4504 4831 3686 2663 3375 4738 4948 3667 4396
36 35 18 12 11 6 39 24 38 6 37 19 28 16 26 3 3 9 19 21 28 20 27 9 8 17 26 3 8 16 17 7 19 11 17 38 28 26 6 30 39 23 9 6 20 33 23 12 32 20 23 22 26 8 17 25 29 20 36 11 4 25 14 35 27 33 29 18 25 10 7 36 18 25 33 37 17 12 13 23 16 37 21 10 32 9 11 20 9 20 37 37 36 36 30 3 6 21 1 32 24 39 36 25 8 13 4 0 2 32 24 27 26 3 2 1 24 5 29 39 15 29 25 8 19 19 27 15 20 26 32 6 12 12 3 39 33 12 29 21 14 18 24 7 25 19 1 13 22 39 28 14 31 19 12 31 7 34 27 39 20 19 26 11 16 4 23 37 7 1 33 19 15 31 38 4171 2503 3190 3120 4719 3731 3319 2789 4945 4789 4159 4475 2947 2524 3347 4211 4808 3233 4242 4240 3719 4013 2637 4800 4126 4700 4356 4863 3567 4583 4217 3222 4686 4412 4582 4780 3363 3848 3385 4900 3221 3660 4547 4278 4259 4312 4228 2909 2812 3798 4573 4365 2750 3042 4390 2684 4560 4671 2773 3447 4508 4572 2608 3680 4276 3025 2663 3285 3093 3888 2552 3912 3957 2629 4038 4545 4201 4912 3607 3284 3385 3266 4612 4405 3853 3084 4831 4247 4782 4051 3706 2906 4010 2749 4012 3008 4509 4131 3096 3379 3128 4812 4927 4220 4998 4002 3841 3808 3013 3043 3061 4778 4715 3118 3101 3623 3496 2786 2879 4382 3271 3631 4073 4661 3534 3848 3973 3912 4611 2840 2560 4952 4844 3826 3505 2800 3609 2680 4986 3481 4893 2514 3805 2587 3229 3363 4791 4327 4702 4844 4446 4654 2903 3375 3966 2885 3376 3398 4776 4569 2853 4868 4642 3938 4965 3063 3543 4560 3827 4603 3731 2925 4757 3093 4960
18 31 31 30 29 8 6 38 38 28 24 26 18 25 18 28 7 13 29 10 37 19 5 37 14 21 23 3 5 38 1 14 33 17 10 3 15 26 27 36 25 32 2 38 6 17 16 7 27 16 24 8 1 32 32 1 3 9 31 8 9 39 25 32 15 34 24 18 6 2 39 3 27 25 1 29 21 6 24 32 16 33 31 35 17 36 30 37 2 15 11 9 32 29 20 11 34 5 6 30 37 39 16 3 36 25 27 18 0 25 25 10 39 11 31 27 6 20 34 10 33 20 4 2 9 5 15 4 31 20 27 3 26 23 32 33 15 33 7 8 11 31 39 7 29 20 32 16 2 18 33 9 14 38 35 3 34 16 31 35 37 34 23 35 17 23 4 17 31 22 31 2 12 32 10 2886 3515 3499 2603 4144 3593 4799 3149 2564 3947 2703 3241 3824 3951 3974 4776 3381 3361 4032 4953 4215 4620 2883 4965 3662 2860 2651 4068 3697 3306 3043 4332 4707 2543 3351 3328 4379 2561 2793 4143 4006 3943 4640 2712 2842 4472 4960 2616 2735 4711 3342 2744 3683 3063 4265 3098 4432 2863 2845 4350 4140 2685 3171 4784 4500 3225 4127 4236 4340 4055 4884 2700 2631 3072 2662 3877 4197 2758 4664 3699 4820 4133 4867 3249 3635 3772 4513 3603 4757 3552 3820 4461 4508 3337 3396 4166 3438 3010 2924 2906 3355 4154 4918 2822 3986 4649 4420 2592 4352 3305 4000 2820 3437 4133 4913 4210 3997 3735 4438 2645 4004 3453 3940 4134 4176 3121 2502 4885 3063 3271 2724 3993 2612 4778 4051 4116 3934 4615 4094 3790 4254 3394 3577 2600 2809 4877 3028 3583 2537 3034 2708 4112 4270 4192 4021 4092 3901 2974 3820 4837 4452 4386 3548 4684 3718 4531 4616 4170 4949 2648 4669 3745 4925 3509 4566
16 16 2 39 32 19 21 11 34 11 18 28 32 5 36 32 23 19 14 37 23 7 5 11 31 19 26 10 18 5 35 1 23 22 15 28 5 39 33 36 20 19 28 7 11 7 38 30 33 24 3 15 21 18 24 30 34 18 22 27 4 7 11 21 3 17 13 35 33 13 12 35 9 15 32 6 37 25 27 10 33 15 34 26 19 5 8 28 19 31 5 21 36 36 26 36 24 17 14 25 26 17 35 17 12 2 22 26 23 0 14 34 4 14 10 29 28 30 36 22 16 22 5 13 28 32 6 32 2 15 4 25 6 33 31 24 34 22 21 8 39 3 22 7 23 9 32 4 16 29 20 4 21 10 15 29 30 19 24 37 26 28 39 23 33 17 13 3 27 20 21 23 20 33 23 4241 3246 3744 3271 3275 3081 3234 2508 3323 4392 3505 2816 4412 4727 3435 4873 3423 3470 4644 4401 2612 4871 3456 4173 3974 2889 3889 3821 4192 2585 3559 3303 4536 3564 4954 3863 3567 7 4922 3298 3865 3124 3151 2849 2975 3826 4087 3443 2770 3250 4092 4427 4435 4684 2647 4503 4057 4052 4733 2948 2935 3102 4366 3265 4278 3139 2574 4099 4334 3705 4835 4761 4667 4725 4462 3262 2751 2727 4192 4671 4031 3233 4284 4116 4721 3125 3822 2771 3777 2559 3900 2572 2691 3279 4936 2617 3310 2651 4764 3228 3814 4629 4752 3079 4783 3626 4963 3695 2919 4442 3962 4276 3515 3982 4953 2585 2955 4861 4825 3399 4912 2783 4877 4464 4021 4832 4341 4417 4435 2931 3331 4893 4926 4105 4344 3189 4039 3477 4323 4710 4401 4639 4028 2813 4047 3684 2904 4214 2800 3263 2811 2519 2946 3960 4324 4211 3855 3465 3779 3914 4497 4938 2747 3787 4581 3565 3949 3625 2853 2584 4775 4144 3429 4414 2556
14 9 22 18 21 31 21 23 20 20 18 23 17 4 18 32 18 30 10 34 8 31 8 5 28 33 14 11 20 35 30 26 36 9 11 38 35 17 7 11 30 38 17 25 14 2 8 24 32 30 15 5 37 30 4 38 23 36 31 12 31 28 3 39 38 4 18 37 17 21 32 28 2 34 9 5 29 9 7 4 16 12 8 24 4 10 28 3 24 15 7 3 19 6 36 33 37 2 33 34 27 3 34 20 32 12 7 24 14 4 0 31 3 11 17 14 13 22 5 33 31 18 38 7 13 14 23 4 17 2 33 24 9 18 7 29 6 2 26 19 35 27 26 15 4 25 31 10 36 29 1 5 1 22 35 8 5 6 16 21 12 19 33 32 20 33 28 34 26 1 9 29 33 30 12 3887 3808 3771 2765 3246 3735 3871 3550 3340 4969 4473 4411 4244 4988 3754 4910 3857 4671 2892 3317 3402 4467 4201 4004 2522 3899 2973 4021 2885 4419 4980 4676 2685 2903 4535 3912 3449 2663 3082 2879 3736 3199 4563 2656 3394 4539 2726 3539 3598 3695 3801 4100 3890 3959 3513 3057 2506 2789 3401 4081 3060 3923 4325 4899 3070 3267 3651 4488 3076 3586 4811 2658 4950 3890 3125 3805 2881 4398 3213 2862 2587 4774 3140 2956 4836 3747 3183 2765 3472 3833 3448 4274 2864 4595 3722 3850 3200 2555 4324 3809 2558 2580 2509 4027 2636 3372 3292 2797 4321 3542 4305 3510 4175 3426 3658 2775 4327 3195 4224 4003 4506 3006 3154 2626 3226 2656 3914 2787 4601 3513 8 4404 3382 2849 4241 3611 2978 4032 4696 2788 4826 2635 3486 2745 3249 4572 3479 8 4662 4792 4040 4736 4532 3373 4541 4251 3531 3436 3217 2833 4391 3361 4153 3284 4046 3010 3658 3428 4125 2742 2529 3623 3623 4042 3529
37 18 17 24 32 28 35 17 33 22 26 6 19 29 17 17 12 10 4 11 19 31 28 2 31 36 4 26 1 36 10 36 34 20 29 31 33 38 38 27 36 38 13 12 33 10 38 23 37 10 30 30 20 30 13 23 29 29 36 29 10 29 21 6 26 6 36 20 25 18 3 34 19 39 39 29 29 1 17 11 35 10 37 35 2 22 10 36 39 10 21 37 6 11 25 4 20 30 6 33 31 8 14 1 8 22 19 9 10 8 10 0 37 6 22 8 25 4 25 34 2 13 26 14 21 35 8 30 35 25 19 36 10 13 18 37 16 2 37 38 5 7 37 35 17 7 22 31 24 38 33 32 23 18 38 6 9 34 27 30 28 18 13 31 15 9 27 1 10 16 37 37 30 30 1 2693 2899 3257 3889 3567 4072 4522 2598 3842 3731 4340 2886 3663 3749 2884 2685 2914 2668 2798 4032 4278 3802 4120 2660 17 3634 2675 4436 4134 2634 3478 3708 3470 4979 3002 2692 3776 2629 3121 4707 3405 3161 4700 4557 3282 2685 4263 4693 3736 4734 4082 4797 4910 4573 3891 4533 3499 3124 2852 3100 2936 3902 3511 3529 3834 4984 4953 2719 3439 4804 3195 3944 3268 4060 3505 4854 3377 3394 2852 2914 3352 2632 3940 2533 3420 2590 3374 3085 4613 3671 3114 2541 2959 3271 4508 3977 3542 4537 3452 3579 4215 2965 3081 3824 4876 4509 2799 4813 3851 3635 3106 3859 3795 3791 2841 3337 14 4287 2970 4958 4606 2604 4754 2815 4117 2966 3684 2667 4299 4034 2594 4903 3027 2615 4443 4236 4033 2916 2507 3327 4037 3645 2921 4674 3446 3549 3561 3551 4554 4247 4426 2987 4842 4721 3011 4240 3294 4873 3267 4294 3665 2503 2929 3541 2918 3803 4305 3507 2792 3924 2829 3049 4324 4201 4694
28 26 22 32 1 19 12 3 38 9 19 28 22 21 5 34 23 25 20 13 36 6 24 21 8 26 33 21 25 28 33 35 25 5 8 8 24 14 30 20 12 12 19 38 25 25 34 6 20 14 20 14 39 14 26 24 36 9 26 21 18 14 4 36 17 24 6 2 16 18 10 5 25 36 15 26 31 38 13 20 14 1 30 27 18 1 29 3 37 19 22 27 35 20 7 27 12 27 29 16 34 10 37 30 30 22 34 17 15 31 8 8 0 23 37 20 38 20 16 11 33 2 11 20 27 34 38 21 2 4 26 11 29 35 11 7 3 1 18 19 26 28 18 16 7 13 12 5 21 22 12 29 24 5 4 39 2 14 21 38 34 26 36 9 6 8 6 2 23 38 33 17 39 6 16 4771 4711 3984 3547 3811 3497 2775 3040 2811 3014 3192 4173 3026 4152 4367 2875 3007 4778 4340 3671 4602 4935 3039 4266 4057 3767 2826 3474 4201 2531 4253 4944 2794 4891 2554 3796 2707 4432 4013 3945 3197 3887 2711 3652 3943 4638 4384 4325 4436 4689 4340 4904 3964 4679 3705 4952 4373 2926 2783 3347 8 3446 4783 3063 4743 3120 4081 4038 3529 3413 4810 2807 4435 2820 4760 4447 3403 4141 4134 3576 4235 4557 2696 2612 2802 3044 3772 4498 3831 3282 3734 3054 4731 3774 2769 2635 3363 3347 2530 3577 3935 3482 4763 4180 3988 4397 4531 3440 4652 3673 2637 3777 3039 4529 4227 3414 2794 2529 3819 4105 4062 2980 3988 3019 3179 4852 4531 4576 4949 3931 3407 3326 4559 2881 2995 4701 3803 2513 4961 3931 2980 4500 4443 2561 3133 3141 4188 3346 3041 2833 4308 4012 2771 3043 3644 3764 4672 3741 3589 3914 2579 2964 4923 3887 4265 3461 3853 3387 4154 2672 2768 3004 3860 3618 3612
33 7 8 6 6 15 23 27 23 8 16 9 5 32 7 34 30 1 12 7 15 4 30 23 9 24 24 7 5 39 33 34 15 1 5 30 29 35 13 31 7 36 16 32 1 14 33 32 10 23 3 13 28 32 12 6 27 13 18 29 6 25 24 37 29 9 22 29 2 27 31 21 39 3 22 19 35 2 25 9 30 22 17 24 36 34 20 30 33 6 37 24 8 30 13 36 2 20 17 19 39 35 21 12 31 37 8 35 3 1 8 29 7 0 11 21 12 39 18 24 21 27 38 11 34 21 10 37 35 32 24 23 24 34 30 15 17 29 5 36 18 5 38 38 37 16 3 12 24 32 25 35 12 15 36 19 28 26 7 4 38 9 5 24 14 35 38 5 14 38 31 24 7 31 6 2572 2552 3751 2969 4961 4460 4509 3334 3943 4178 4419 4619 2878 3363 11 3486 4762 4800 4707 2752 3149 4525 4149 3004 2818 4876 3077 3177 3749 3038 4838 4614 3221 2942 4280 4213 2734 4317 4161 4875 4777 3210 4598 3086 3588 3164 4998 4461 3621 2661 4745 3156 3942 4532 2513 3474 2600 2846 3402 3178 2999 4528 2663 2520 4553 3986 2524 2561 2904 3336 3008 4210 4102 4575 4246 3876 3140 4570 3437 4855 4515 4917 4909 3706 2775 4164 3638 3698 2756 4166 3022 3435 3653 4199 4138 4344 4676 4185 2611 4029 2770 4371 2924 4115 3602 4613 4314 3769 3662 3247 3496 4706 4654 4581 3951 2813 3622 2964 3009 3205 3926 2510 2707 3739 4150 4868 4708 4640 4995 4461 2955 4031 4141 4104 4169 4295 2906 2576 4856 3957 3043 4946 4719 4600 3028 3671 4299 4252 2844 2597 2712 4428 2503 3263 3667 4154 3722 2622 4916 3977 4847 3931 3596 3354 3289 4383 4156 2749 4958 2754 2878 4332 4704 2630 4053
15 2 1 8 4 29 39 2 37 3 38 1 34 24 18 27 10 4 26 26 21 23 34 11 26 19 28 3 36 26 18 39 16 29 15 20 9 35 18 34 28 35 22 31 8 14 23 31 33 31 29 27 6 8 13 7 14 38 7 25 18 12 4 39 20 38 34 7 15 30 29 23 4 26 20 33 11 10 15 11 38 10 31 32 9 39 39 28 30 1 16 26 37 3 12 29 31 16 12 27 17 27 15 34 9 29 14 24 18 39 3 39 13 20 0 10 31 10 25 22 28 19 15 20 11 29 10 25 38 15 2 2 27 6 8 17 15 3 21 7 1 31 26 30 2 5 31 30 27 34 13 1 18 31 27 30 24 15 37 12 35 31 33 13 25 16 30 26 38 34 7 19 26 24 37 4850 2873 3243 3067 4050 3741 2581 3221 2663 4479 2918 4070 4134 2722 4356 3694 4314 3427 3649 3375 3239 2522 4699 3276 3942 4795 4462 4006 2719 4153 4534 3622 4265 2970 4950 4944 4127 4560 4568 3559 3061 2578 3670 3489 2594 3067 3546 4647 2862 2728 3353 2718 2994 2908 3125 3930 2571 3501 4707 4947 3750 3082 3212 4630 3891 2678 3530 4745 4872 11 3484 4884 2775 3132 3416 4976 3370 4411 4836 4801 3528 3050 4412 4274 4522 3351 3243 3539 3400 4326 4101 4124 4406 2858 2660 2617 4565 3893 4660 3271 4524 3830 2949 3125 4498 4437 4288 4579 3672 2869 4709 4790 2801 4809 4732 2525 2594 4242 3783 3196 4032 3302 4511 4757 4539 4398 3499 2631 4299 4817 3145 4763 3931 3654 3164 4839 3963 4409 4768 4163 3676 2900 4007 3270 2872 3296 4023 3795 3363 4910 4518 4602 2913 2565 4253 3002 3540 2612 4136 4490 2661 4601 2730 4439 4411 3213 3571 3775 4065 3752 4289 4421 4688 4854 3827
32 23 34 1 19 34 15 8 14 30 21 36 22 29 30 12 35 6 25 5 31 30 19 33 34 20 20 24 5 28 12 34 28 11 15 35 8 39 32 6 32 23 2 30 3 20 8 22 20 27 2 6 23 21 11 32 1 8 2 17 12 20 24 39 4 8 11 38 24 34 29 28 23 4 17 35 10 15 32 6 7 19 23 37 12 19 27 37 5 9 20 19 22 31 9 24 3 36 20 14 23 31 2 22 16 10 16 13 29 13 6 35 26 19 35 0 22 4 5 15 6 1 16 12 1 36 7 14 18 3 25 2 20 4 15 23 3 35 27 32 22 20 39 25 5 6 31 6 11 30 35 36 20 26 4 4 1 21 7 5 14 32 33 7 13 15 34 25 16 28 17 3 8 21 33 3950 2612 3527 2895 4432 4293 4173 2678 3502 4524 4536 4419 4302 2616 2553 3279 3369 3687 4864 4579 4533 3194 4336 3936 4965 2669 3206 3513 3709 2536 4364 4089 4890 3622 4933 2548 3070 4867 3481 3990 3375 2958 2615 4204 4017 2529 4060 4151 4013 2838 2506 2584 2871 2520 3606 3670 3773 3908 4557 4947 3863 3083 4469 4464 3170 3288 4009 4253 4390 2705 3203 4361 4386 4757 2981 4419 2540 2702 2910 3505 3655 2666 3423 4569 3523 3328 3854 3811 4740 4712 2782 4990 2648 3367 4766 3050 3424 4949 3272 2862 4418 3721 2598 4920 4858 4772 3497 4009 4407 4637 4727 4924 2835 2788 3513 3040 3028 4563 3549 4976 4639 2529 4686 3269 3628 4970 2635 3570 4861 4991 2563 4689 3044 4111 4302 2529 3278 3650 3220 4628 2773 3403 3899 4050 2647 3157 2784 4679 4584 3600 4369 3857 3363 3086 2650 3092 4630 3412 4695 4496 4477 3329 2658 3934 4143 4985 4619 4139 3306 4478 2818 4210 3507 3717 3798
24 17 7 25 30 35 36 33 36 2 36 36 12 5 24 19 29 22 9 26 21 4 10 34 2 14 7 27 29 37 10 8 20 4 32 39 4 13 1 39 5 14 23 25 11 15 20 35 9 38 36 1 16 27 29 39 32 39 29 1 39 17 22 8 14 8 11 16 1 35 15 18 36 6 2 39 35 22 15 23 34 24 9 20 36 28 19 39 18 39 5 21 22 34 14 1 15 19 29 13 22 16 13 26 12 30 22 6 11 22 7 36 4 2 27 19 0 33 2 12 5 21 8 16 28 11 8 12 11 37 5 38 22 27 19 6 31 8 28 3 14 21 35 39 2 19 37 32 24 1 16 16 23 37 38 29 22 9 29 27 12 28 10 20 34 29 13 11 2 1 10 32 28 18 25 4118 4654 2991 4596 4799 3342 2629 4368 3811 4235 4715 4425 4171 2518 2560 4526 3842 4465 2778 3324 4705 4196 3076 2783 2743 3911 3503 2927 3384 4273 3699 2788 4959 4720 3554 2913 3823 3150 4202 2790 4705 4319 3010 3393 4152 3752 3183 3621 3459 3235 4024 3513 3642 3962 2924 3300 2974 4896 4799 2988 4171 3489 3681 3465 4515 2543 3091 2651 2663 3721 3600 2516 3394 3683 3335 3259 2727 3160 3006 3621 4064 2599 4031 3565 3877 4670 4740 3296 4770 4144 4298 2550 4876 3488 4301 2558 4011 4550 3492 3877 3485 2721 2547 4294 3106 3180 4498 3355 4451 3988 2853 4032 3698 3088 3879 2520 2580 2745 2733 2586 3593 3422 3206 2942 3159 4855 3223 2889 4332 4902 2802 3182 3821 3463 4964 4248 3492 4143 4232 4981 3339 2511 4936 4452 3619 4427 3391 3863 4713 3096 4694 2512 4581 4073 3401 4370 4736 3385 3005 2904 4095 3416 3858 3266 3421 3590 3836 2886 4158 3260 4122 4363 4976 4283 4663
22 14 23 26 22 13 37 27 10 17 7 20 9 25 14 7 23 10 7 4 15 28 33 32 32 11 29 9 26 26 22 33 14 23 12 21 11 34 19 22 38 23 5 39 5 26 19 25 31 22 31 7 34 11 19 4 11 30 28 24 3 11 2 37 14 17 16 36 1 9 14 33 20 12 9 12 13 23 24 4 8 2 27 3 35 9 33 28 32 36 5 16 6 38 2 25 15 4 7 21 30 7 26 38 30 31 12 35 17 20 20 20 34 36 11 21 30 0 3 14 14 3 35 31 19 19 23 31 39 10 12 17 20 16 34 24 12 3 18 18 38 18 37 35 5 34 20 33 26 4 32 7 8 1 4 21 20 23 33 31 37 32 15 16 12 10 14 8 20 25 15 2 19 31 7 2923 4624 4652 4649 3102 3820 4741 3560 4146 4100 3953 4300 10 3652 3159 4156 4431 3640 3647 2521 4642 4883 4769 3983 4611 4278 2699 4972 4470 4692 2823 3145 4403 4551 3223 3967 4708 4857 4066 2587 2675 4312 3514 3415 3569 4092 3765 3813 4254 2612 17 3750 4395 3496 4925 4003 4922 4470 3179 2953 3402 3053 3882 4949 3278 2953 4578 4470 3198 3997 4769 3623 4781 4884 2606 3431 11 4537 4133 3772 2852 4543 3490 3504 4763 4981 2643 4379 3097 3033 3313 3639 4757 3830 2928 4406 4952 4420 3937 3482 2564 2742 2678 3425 4201 4590 3317 2954 4721 3399 4124 3155 4184 3181 7 3459 3370 3986 4888 4818 4990 4173 4623 3076 4670 4985 2982 4740 2562 3426 4712 2609 3926 4888 4798 4366 3070 4186 2810 3696 3467 3389 2691 4950 2760 3932 4879 2806 4174 4389 2804 4167 3126 3437 4144 4127 4821 4486 4250 2814 3606 3993 2897 4638 3421 2649 4262 2798 2683 4561 4827 4329 4175 4181 3367
11 27 27 9 1 26 22 30 5 13 12 27 34 39 36 12 2 26 19 36 29 39 1 33 23 15 32 22 13 26 38 18 34 27 20 1 14 37 10 32 17 38 8 5 21 16 8 33 5 3 6 28 37 37 11 33 24 13 30 13 30 18 37 35 10 23 16 22 19 29 32 33 36 1 26 7 14 14 17 24 18 15 18 12 32 14 6 34 23 6 36 27 31 5 13 5 22 28 30 23 10 14 1 5 29 27 22 18 38 17 4 27 32 30 19 21 2 38 0 31 33 7 12 6 21 34 14 18 36 1 11 15 12 14 17 22 8 27 23 9 31 1 4 39 39 29 29 14 2 17 32 4 24 36 30 10 4 26 9 38 34 21 29 3 33 15 27 32 3 15 3 31 29 38 17 4033 4652 3667 4139 4420 4644 2721 4730 3707 4925 4206 3699 3413 3533 4926 4560 3756 3668 4268 4011 2985 2762 2777 3326 4385 2567 3929 3889 3878 3977 4478 3724 3120 2775 4446 3602 4244 3419 3194 2798 3392 3006 4726 2690 2832 4181 3691 2860 3625 3238 2579 3325 4675 3595 3893 4851 3527 3567 4988 4958 2517 4817 4063 4701 3386 4998 3087 3470 2518 4909 4614 4219 2762 4910 3954 2982 4019 3783 3740 3991 3013 2839 4561 3659 4752 4066 3000 2796 2611 4233 4744 2504 2559 4376 3656 4847 2705 3737 3365 4076 3217 3267 3836 3311 3343 2610 3012 4149 3924 2838 3231 3674 3166 3891 4005 4672 2851 3530 4252 2615 3293 4383 4441 2944 4157 3890 3660 3807 3484 3309 3766 2676 4561 2751 3562 4789 4010 3980 4486 2722 4049 3889 4591 4185 4661 3862 2555 2703 2766 4994 4599 4897 4565 4497 2571 2535 2687 4439 2588 4660 3397 4759 4825 3725 4812 3148 2980 4341 4107 2893 3015 4922 2562 4012 4843
17 31 17 10 21 4 8 13 22 34 39 10 15 5 36 23 16 21 1 1 8 16 38 12 1 39 22 29 35 23 13 19 18 32 20 13 17 9 35 10 18 13 11 31 38 16 32 39 33 16 22 11 8 37 5 38 22 9 20 29 18 11 19 28 4 21 21 26 1 32 38 18 9 7 12 17 35 31 18 16 30 6 26 30 13 23 10 25 14 19 32 21 22 16 16 22 26 27 22 36 19 1 16 14 22 24 39 27 22 34 13 17 6 10 18 13 16 33 37 0 13 28 36 28 16 16 19 37 32 12 22 10 4 31 15 38 2 34 31 25 3 38 13 21 22 22 9 38 6 28 5 37 21 30 25 10 22 11 37 6 28 1 27 37 17 27 26 33 8 25 15 1 7 21 17 4419 2851 2755 2636 4548 2638 3632 4087 3549 3778 2721 2525 2941 2620 3829 4925 4210 3541 3530 4504 3645 2977 2863 4578 2872 4041 3060 2852 4542 4743 4481 3006 4617 3613 3110 2689 3448 4425 4529 4377 3118 3344 3127 3733 3826 3976 3406 2881 4120 2834 4186 4758 3973 4133 3196 4411 2649 2762 2851 4811 3149 3894 4123 3919 3611 4022 3808 2787 2602 4801 2664 4529 3372 4273 2992 4669 2669 3516 2733 3406 4194 3439 2908 3013 4195 4114 2756 3883 3249 4215 4327 4587 3468 4001 2923 3646 2858 4974 3607 2680 3124 3581 3063 3773 4159 3861 2568 4199 2713 3157 3086 4713 3605 3191 4592 4421 4867 4948 2874 2664 4372 4987 3010 4534 2746 3194 4189 3669 3278 4122 3996 2819 2632 4267 4270 4520 4538 4174 2749 4612 3310 3478 3311 3740 2833 3898 3706 3415 2987 3825 2511 2913 4618 4153 2711 2645 3071 4310 4062 4164 3224 3050 4859 3493 4333 4659 3778 3385 4126 2806 2942 4096 2849 2881 2770
8 27 35 15 21 18 6 27 12 27 35 13 23 16 15 21 21 21 30 24 31 32 5 13 22 33 26 23 9 39 23 20 1 37 17 39 14 4 33 12 37 3 17 26 1 4 35 34 7 12 9 14 13 13 10 18 26 27 5 26 5 12 31 28 3 27 6 32 13 24 2 35 4 30 15 33 30 20 16 31 6 17 29 29 4 23 37 4 10 30 18 34 1 24 28 34 22 38 13 7 37 23 31 12 24 22 26 35 27 9 23 24 7 23 13 20 8 35 19 31 0 11 23 10 15 20 32 33 23 16 37 26 38 24 5 9 29 22 22 28 4 18 26 39 30 9 8 22 17 26 18 17 4 17 14 31 24 15 31 22 35 25 10 6 21 1 5 5 36 37 28 12 16 2 4 3146 4581 4143 4127 3413 4031 4638 2896 4795 3115 3441 3770 4834 3914 4526 3044 3836 3754 3758 2798 3503 2678 4521 3895 3974 2548 2989 3486 3184 4774 3331 2524 4907 2836 2742 3132 3771 3617 2550 4618 4170 2713 4015 3179 4882 3915 2731 4711 3834 3353 4276 3089 4064 4721 3143 2917 3755 3466 4536 3872 3879 3640 3943 3393 3863 3760 2579 3471 2650 4425 4487 4633 4690 3339 4152 4758 3002 4484 4075 2953 3434 2641 4766 4879 2907 2531 4811 2825 3634 4461 4130 2607 3708 4179 3555 3499 2801 3736 4601 2693 3865 2874 4145 3247 3264 2921 3765 3415 4726 2988 4685 4376 3838 4603 3932 3994 4773 4892 4858 2674 4474 4358 3065 4144 2954 4014 3807 4140 3774 2733 4679 3879 4998 2973 3504 3162 3580 2882 3506 3760 3711 3445 2687 4401 2911 3464 4886 4090 2999 2984 3326 4351 4235 4001 4302 4102 3378 4497 4947 4293 3890 4175 4064 3254 4111 3632 4291 3219 3095 4655 4495 2771 3264 3664 4917
22 1 25 26 2 33 9 1 6 6 1 24 35 30 31 6 24 30 20 17 14 25 34 8 14 3 39 4 31 29 15 5 6 3 4 5 7 13 26 32 7 25 27 23 12 16 9 12 25 37 12 27 21 10 7 2 11 9 27 23 7 29 18 38 26 16 4 30 5 12 27 23 6 15 14 36 31 9 7 8 24 9 24 2 10 7 32 32 18 24 23 12 22 29 36 14 5 35 13 1 32 17 39 4 18 34 28 10 15 28 22 34 1 5 1 3 13 38 27 27 8 0 4 17 36 17 29 23 30 18 36 20 27 8 18 12 21 39 1 33 33 4 18 29 29 37 3 23 31 33 9 26 18 23 11 19 3 14 3 26 32 2 10 7 17 34 38 1 20 17 6 18 15 27 7 3864 3432 2534 4923 2916 2906 3217 3066 4719 4612 2750 4109 2821 3787 3522 4176 4535 4308 2579 4483 4038 4918 4378 3420 3990 4398 4473 3484 3837 2668 3096 3973 3375 4962 2851 4826 4654 4385 4899 4085 2505 3912 4377 4906 4505 2891 4954 3998 3675 4717 3796 4889 3795 2878 2996 3170 4447 4307 2763 3736 3784 3923 3358 2810 4427 3981 3648 3369 3172 3004 3446 3239 2858 2656 3513 2525 3725 3389 4204 3730 4635 4640 3215 4833 4490 3312 4065 4851 3072 4249 4540 4190 2519 2808 3592 2869 3443 4086 4246 3251 3360 3770 3394 3640 4056 4405 4802 3473 4783 4312 2767 3310 3527 3688 4897 3273 4197 4164 4582 3200 4586 3321 3742 4666 4232 3995 2717 3809 3114 2844 4460 3432 2965 2878 3953 4469 3795 3474 3201 3420 2633 4266 4236 2643 3628 4662 2616 4512 2830 3904 4081 3287 3156 2624 2733 3551 2921 3242 3663 4865 4357 2821 2716 3987 3257 4148 3563 3745 3014 3846 3541 3364 4219 3929 2918
21 24 35 9 6 8 2 6 20 16 3 30 18 27 32 29 35 22 27 20 27 20 38 3 11 19 24 2 9 11 13 26 23 13 6 3 11 29 38 20 5 9 31 22 14 10 16 9 16 17 12 20 26 35 20 15 29 10 35 6 3 24 34 21 3 4 30 17 31 16 26 13 19 9 33 36 27 32 21 6 21 35 25 32 25 38 23 16 5 14 16 39 10 28 33 35 26 28 3 22 3 26 31 8 10 7 31 17 17 6 20 20 29 31 19 6 39 28 37 27 30 21 0 35 10 38 7 8 34 31 3 20 33 4 6 29 37 16 4 33 7 29 33 31 12 19 38 30 37 38 38 3 27 10 27 28 19 19 33 19 20 11 23 26 13 11 7 5 4 39 8 39 33 20 9 4968 16 3647 3936 3220 2794 2920 4646 4717 3778 2967 3303 2543 4935 4662 4804 4686 2681 2686 3083 4253 3934 4355 3122 4172 4560 4761 3385 4795 2690 3553 3948 2761 3687 3903 4346 4069 3352 4983 4699 3492 3732 3135 4648 3012 2884 6 2713 3308 2549 3633 4015 3291 4812 4969 4484 3683 3779 3258 4376 3185 4554 3427 2536 3270 4316 3311 4200 4203 4157 3178 4867 3031 4168 4929 4678 4071 2994 2684 2587 3521 2886 3730 3121 3641 3612 4539 3394 2759 4740 4612 2680 4070 3858 3984 4096 2591 2540 3192 3192 3636 3743 2656 3021 2599 3376 4260 3154 2749 4809 3746 3307 3796 4393 3904 2742 3042 4720 4524 3028 3311 4649 4080 2943 2867 3658 2845 3542 3423 3611 3177 3683 2719 4560 3300 4654 3602 3636 2629 4922 2624 2817 3384 3418 3469 2888 4152 3900 3696 2690 2775 4016 3317 3222 3859 4308 2976 4425 3278 2919 2594 3459 4472 4794 3060 3523 3315 3527 3187 3689 3294 3764 4239 3630 4430
14 16 19 22 29 13 23 32 19 5 13 29 14 3 37 14 31 38 33 2 13 27 6 6 11 18 13 24 4 27 7 23 21 39 31 22 22 38 4 28 14 17 18 3 28 30 9 20 23 15 14 28 2 27 7 16 27 8 31 22 16 5 10 32 7 1 5 16 14 24 35 8 32 2 16 8 16 26 29 8 34 14 1 37 25 28 35 16 5 35 16 27 25 26 24 14 39 7 33 19 21 34 24 35 18 4 17 5 30 7 6 35 33 12 9 2 17 15 20 21 13 16 8 0 30 18 19 19 34 20 29 15 4 24 14 36 23 15 7 32 17 3 13 11 4 26 6 27 4 9 8 7 17 3 26 16 10 33 29 5 16 30 23 18 4 9 14 23 14 26 19 21 11 35 15 2960 4994 3036 3474 3008 4924 4499 3950 4332 2877 2650 4369 2543 2663 2824 3437 2858 3104 2925 3669 2901 4054 4367 4136 3095 3393 2785 3597 4491 4092 4443 3169 4974 4386 3937 3551 3188 3593 4197 3098 4854 2795 3119 4637 2806 3358 3146 4320 2925 3793 3831 3748 4675 4804 4022 2501 3590 4015 4043 4680 3763 4006 4681 3907 4247 4186 4938 3154 2943 3253 3413 4753 3464 2539 3807 4020 4284 3121 4135 3828 3728 3843 3768 4591 2918 4919 4274 3239 4127 3555 3980 3243 4574 4488 2777 2960 3259 4531 2972 4165 3922 4918 4744 3071 4213 2838 3549 4477 3662 3649 2907 3656 4684 4132 4103 3326 4001 3211 4261 2637 3313 3458 4513 4650 3364 3022 2584 3176 4704 3762 3974 4591 4417 3842 2692 4349 3795 4008 3181 3372 3227 4877 2557 3911 4209 4979 4304 3408 4263 2970 3922 4040 4379 4300 3863 2994 3740 3188 4976 2725 2758 2677 4000 2721 4289 2762 2652 4301 4741 4183 3388 4698 4062 4549 2994
37 16 18 13 13 17 14 35 15 5 16 26 28 18 31 22 33 30 36 18 14 6 20 9 2 8 20 17 31 21 18 2 19 39 1 38 22 19 15 36 32 5 2 19 37 2 28 2 12 22 16 4 31 13 10 22 22 35 11 28 39 33 8 36 9 11 17 22 35 35 15 12 20 8 32 1 5 23 31 16 17 10 19 22 26 26 24 11 34 10 4 31 7 15 15 24 3 26 25 14 18 15 4 7 34 6 9 36 6 26 35 24 29 39 10 12 30 39 10 36 29 12 4 14 0 39 9 17 23 26 1 36 36 7 18 27 24 17 25 25 32 16 19 21 6 12 21 30 11 23 18 3 33 30 9 9 36 16 15 3 8 6 13 19 36 2 26 11 16 36 38 32 3 7 31 3600 2671 4033 3270 2722 3218 3251 3016 4621 2930 4359 4326 4691 2637 2760 2601 4789 4702 2517 4506 2501 3939 3129 3046 4228 3058 3126 4889 4150 3596 4466 3786 3218 3366 2630 4043 4411 3005 3534 4250 3416 4911 3451 3337 4727 2951 4488 3829 3159 3190 4892 4670 4684 4537 4021 4889 3372 3983 4380 4227 2619 3281 4371 4785 4709 3583 3277 3718 2985 4243 3032 2545 3128 3772 4287 2568 3898 3042 3045 2509 2735 4147 2883 3903 4367 3045 3573 4329 4828 4753 2778 3382 4031 4717 3499 4493 3048 3167 4972 4669 4798 4246 3881 4599 4640 4089 3380 2731 3186 4719 3693 3496 3539 3759 3682 4607 3714 4241 3977 3716 2553 2579 3092 4251 2944 4552 3417 4339 3829 4594 3863 4895 2687 3326 3776 3499 4343 4838 4681 4402 4130 4748 4590 4757 3113 4266 2753 3949 3881 3354 4426 3064 2976 4984 4179 3279 3585 3975 4183 3983 4629 4027 3120 3017 3897 8 4405 4341 4593 2827 4087 3880 3506 4604 3106
35 7 27 24 16 16 9 28 15 27 22 24 21 14 34 27 14 7 37 13 16 6 7 26 19 8 16 33 19 18 29 24 21 39 7 7 39 37 20 12 32 6 24 26 11 2 21 14 13 29 37 3 23 5 26 28 3 32 31 28 28 6 13 2 37 10 29 15 4 5 34 19 38 6 32 30 17 32 19 32 20 13 22 19 15 7 29 3 30 3 27 35 1 19 30 20 39 14 1 35 31 11 10 33 10 32 36 6 27 16 22 21 28 16 30 18 25 23 16 12 35 8 32 16 39 0 39 4 7 3 26 34 3 16 27 14 16 21 13 1 4 30 31 2 3 35 12 26 4 33 17 3 14 24 17 8 29 7 12 12 6 21 15 5 21 35 19 32 4 1 37 35 28 1 27 3442 4155 2906 3478 3542 3382 3359 4260 2505 2811 3038 2945 4939 4121 4683 4347 3281 4123 2515 3454 4400 3360 3832 2687 3669 4715 4523 3562 3242 3616 3673 4625 3721 4143 4459 2725 3745 3242 3069 3181 3556 2827 3277 4751 4434 4042 2843 2522 2605 3929 3182 3272 4119 3051 3077 4134 4242 2520 4405 4442 3559 4713 4251 2644 3536 3809 4680 3349 4445 2711 2899 2550 3286 4047 2737 4210 3697 4999 4327 3175 4633 3708 4460 4150 4648 4109 3088 4546 3630 4599 2869 4940 3228 4912 4755 4497 3717 4108 4111 3996 4678 4535 3693 3218 3816 4499 3424 4215 2943 2597 4482 4202 3372 2745 4100 4690 3446 3650 3405 4551 4792 3495 3245 4821 4766 4676 3273 3513 4765 3582 4986 2793 2864 2954 4240 4237 3110 3694 4544 3210 4578 3138 4962 3493 4005 4525 3746 2776 4839 3623 4367 2639 4494 4696 4191 4925 4713 2919 3801 3712 3795 4057 3714 3632 3194 2883 2894 2525 4150 3288 3748 19 3750 3904 3617
29 6 35 18 15 2 12 29 36 22 31 35 32 1 12 32 37 3 7 16 3 32 1 23 35 8 35 26 22 3 24 12 22 7 14 38 21 25 18 10 9 20 17 23 17 24 27 7 7 22 32 18 10 20 13 30 19 35 15 11 33 36 31 14 10 38 12 23 35 2 20 25 19 14 10 3 38 35 30 19 1 28 6 5 14 29 36 34 9 20 23 8 21 6 31 6 11 35 5 27 11 19 4 11 34 33 35 30 34 38 31 35 9 25 31 5 31 21 9 24 8 28 18 1 15 13 0 10 23 5 4 24 33 10 33 19 16 30 34 36 16 37 27 24 23 30 1 29 17 6 36 28 31 17 32 36 34 4 7 14 25 26 38 5 9 35 34 38 38 15 27 22 12 32 5 3732 3819 3515 4409 3758 4477 3600 4655 4802 4636 3129 3494 3637 4019 3166 3578 3122 3943 4838 4023 3481 4317 2644 2651 2696 4502 3619 3324 4606 4811 3202 3091 4114 4005 3251 3517 3632 3890 4043 4202 4774 4762 4317 3301 2646 3313 2658 4792 4542 3223 4256 4323 4308 4150 3513 4106 4054 4878 4013 4483 3904 4338 3665 3995 3175 3485 3085 3257 4395 3226 3364 2772 3120 2964 4212 3714 2634 3175 3442 3195 2716 4140 3248 3323 4876 4611 4955 4986 4108 4514 4264 3272 4075 3503 2865 3607 4303 3250 2823 3552 4473 3513 4084 2980 2933 3325 4055 3214 3052 2589 3955 3074 4808 3515 4471 4344 2604 2599 4450 4569 4865 3203 4605 3093 3667 3693 4596 2756 2613 2700 3382 3747 3290 4610 3930 2702 2948 3042 3051 3627 3479 4548 3714 3061 3740 3859 2866 2565 3054 2807 4118 3583 3789 2798 4669 3503 4230 3690 3973 3078 3364 4205 4517 4820 2580 3177 2571 2582 2756 4979 2769 4139 3807 4278 2599
23 6 15 39 5 36 7 7 26 16 9 23 17 27 28 32 31 29 12 6 8 27 2 38 28 17 26 10 14 34 34 11 19 23 19 38 21 2 2 38 26 4 22 24 11 18 29 36 38 9 36 20 20 33 6 9 33 24 26 33 21 23 30 8 12 38 32 12 3 6 7 22 16 32 39 3 35 10 27 5 11 35 27 31 23 7 33 8 13 3 3 8 12 3 14 16 38 32 20 5 23 20 24 27 14 22 20 22 25 15 37 34 8 15 33 10 22 28 29 3 9 20 24 15 4 26 31 0 35 39 8 14 21 29 22 26 39 18 4 15 18 3 33 33 9 26 6 22 12 37 8 37 4 2 35 6 33 30 13 7 27 28 33 22 33 27 32 18 2 36 2 16 20 1 22 4920 4886 4298 3488 3304 4514 2550 4245 3598 4521 3398 4021 4137 4025 3061 3616 4266 3077 2885 3288 3929 3872 3196 2865 3045 2711 3062 3842 3045 3866 2712 4752 4098 2976 4084 4011 4097 3113 4762 4630 4344 4545 4521 4565 3902 4635 3758 2704 3540 2581 3675 3930 3876 2564 3822 3168 4363 4499 2581 2636 3470 3697 4352 3385 3317 4415 3984 4393 3586 2792 3563 4165 2976 4867 2961 3945 4821 3390 3180 2948 3805 3479 3716 3222 3848 4908 3717 2706 2623 3933 3123 4819 4599 3963 3485 2594 2652 2708 3510 2509 4245 4617 2705 2939 3260 3106 3016 4691 2508 2832 4822 4105 4441 4723 2860 3171 3115 3919 4797 4654 14 4193 4945 3182 4431 4613 3116 3373 2815 4365 4010 3536 2787 4390 3382 2771 3233 3207 3593 4392 2986 3484 3407 3639 2544 4156 4293 4800 2800 2694 2567 3884 2717 2868 3488 3095 4612 3085 4057 3945 3529 3682 3897 3670 2897 3912 3824 2616 4825 3569 2546 3405 2857 4470 2625
36 38 34 1 24 18 37 1 33 26 18 21 13 31 37 9 8 22 28 14 1 37 36 23 17 31 23 24 27 15 37 3 19 34 19 39 21 12 34 19 24 14 26 9 35 35 39 3 7 10 7 29 37 14 19 10 2 30 13 4 28 3 35 36 3 20 21 3 37 26 35 38 7 16 23 16 18 1 36 8 29 29 30 29 13 36 29 20 31 19 14 1 39 19 36 2 10 15 33 34 22 37 7 3 7 5 30 9 13 9 6 5 35 7 16 14 37 37 19 13 6 16 5 26 15 23 36 3 0 3 22 18 38 14 13 6 29 10 26 2 29 39 26 19 3 32 29 26 31 7 8 27 33 24 2 19 30 12 6 10 11 39 23 32 20 9 31 2 34 27 27 26 39 14 12 4889 3209 3239 3149 4438 3971 4304 4667 3990 3017 4074 3031 3226 3287 4012 4627 4047 3264 3400 4198 2762 3609 3151 2798 2794 3851 2900 4864 3097 4527 3493 3057 3462 3420 4971 4066 4850 3125 4018 3635 3487 3379 3385 4728 4835 2659 3823 4337 2528 4157 4786 4125 4633 4885 3266 4343 4850 4557 2832 4865 3332 3694 3894 2914 2507 4077 3093 3191 3260 3539 3827 2526 4790 3088 3103 4047 3807 4184 3880 4162 2683 2845 4973 4685 3696 4313 4901 3635 4770 4951 2538 3409 4009 4248 3723 3960 2768 2688 2912 3043 3180 2703 3964 4747 4959 4071 3605 4556 4964 2841 3914 3452 4708 3373 3787 4720 2711 2795 2818 4105 2989 4375 2501 3100 2718 4981 4995 4553 4163 3826 4539 3624 3761 4209 4595 3316 4974 3307 3224 4977 2886 4951 4702 4627 4412 3168 4024 3897 2682 4422 2573 3040 3041 3150 4193 2770 4115 4399 3345 2832 3996 4684 4610 3569 4203 4391 2819 2661 4849 2695 4112 2863 2820 4483 2655
30 27 14 20 21 23 7 5 22 20 21 6 36 37 4 36 39 31 11 35 24 4 10 29 20 23 11 29 3 29 31 27 36 9 34 7 32 22 36 13 39 1 37 6 29 16 7 11 9 15 6 38 37 10 21 12 26 26 29 9 23 17 39 7 23 20 8 36 7 20 39 11 24 38 32 35 3 8 37 23 15 32 12 13 20 29 9 28 16 39 20 33 22 38 26 8 26 25 9 22 36 6 18 22 14 2 38 24 6 32 3 2 8 35 13 29 13 21 24 16 21 24 14 8 29 35 16 16 22 0 37 24 15 27 11 34 37 16 5 7 8 8 2 29 34 9 15 13 19 31 35 26 15 17 23 28 7 17 3 2 31 6 37 9 6 9 39 4 22 13 31 15 37 12 13 4410 3842 3144 4917 4821 2990 3351 2957 4730 4397 4946 3874 4336 4520 3490 3406 4221 2725 2878 4577 4447 4064 3624 2704 4835 3941 4617 3218 2651 4792 3601 3604 4752 4077 2798 3046 4979 4646 3712 3980 2907 3964 3687 4530 2570 4374 3327 3990 4170 2677 4918 3089 2677 2672 2680 4220 2802 4997 2544 2895 3360 2744 3770 4186 2515 3548 4316 2670 4605 3253 2753 4185 3762 4371 3737 4159 3145 4262 3632 4883 3101 3168 3171 2724 3595 4810 3151 3571 2624 4670 3819 4488 4022 4496 2562 4210 3750 2658 4027 3659 3249 2708 3561 3518 3746 4632 3121 3144 2651 4041 4770 2633 4385 3019 3366 2825 4192 3181 4563 3630 2836 3055 3698 4168 4394 3540 2649 4666 3673 4609 3860 4524 4764 3237 3633 4705 2941 2749 2675 3098 3278 3839 3319 3668 2825 2561 4376 3073 3676 2651 3629 3809 3143 4554 4761 3889 3545 4103 4525 4803 3888 4908 3205 2581 3435 4190 2978 3744 3748 3965 3363 3302 2555 4586 4646
23 38 26 35 24 33 7 8 28 6 25 36 30 15 25 22 14 7 37 14 33 16 15 14 15 4 2 15 36 30 22 4 25 27 14 9 27 14 39 33 38 38 30 30 12 7 31 12 35 27 1 27 36 7 17 16 15 13 35 34 20 23 27 12 24 7 1 38 8 24 29 28 6 6 21 17 6 17 13 35 11 34 30 38 7 14 7 26 21 8 19 26 38 9 30 5 13 18 29 20 33 31 27 23 36 20 13 30 22 22 33 3 24 5 28 10 34 9 18 6 11 26 15 19 18 24 39 15 23 33 0 15 33 9 4 18 26 15 11 19 26 27 31 29 11 32 31 18 25 9 36 15 5 23 15 21 37 21 38 9 10 19 38 8 33 36 17 10 35 30 32 26 2 18 5 3030 3381 4247 4415 3571 2948 4462 2967 3492 4186 4417 3138 4135 4991 2935 4070 4577 4183 3421 3205 3314 2805 4796 4571 4576 4277 2871 4807 4609 3116 2820 2527 4385 2685 4161 2772 2938 2813 3947 4664 4152 4259 4900 4954 3734 2808 3157 4846 3361 4290 3436 4722 4385 3391 3579 3692 3863 3231 4289 4443 3974 3332 3847 4062 3551 2516 4871 4738 4071 3538 2759 4581 4305 2514 3750 2689 4572 2595 3556 4234 3394 2711 4628 3972 2592 3734 2674 3586 4683 3295 3888 3061 4988 4207 3053 3324 3100 3388 4464 4742 2604 3427 2797 3850 2737 2714 4238 4301 4308 3897 3149 4484 4943 3324 2866 3197 2608 4771 4116 3543 4289 4899 3929 3534 3708 4320 4936 4833 4249 3242 2994 3250 3543 4022 4445 3223 4516 4024 2748 4801 3378 3696 2654 3964 3993 2771 3193 2519 4059 3917 4286 4821 4211 3239 3703 3287 4507 4377 3053 3288 4918 3241 4653 3788 3384 3357 3641 4717 2790 3149 4603 4428 4730 2932 4889
16 32 15 25 34 10 24 26 6 15 26 21 20 28 25 11 22 35 31 30 23 12 8 35 2 2 30 2 30 2 13 13 34 11 28 9 39 6 39 8 29 8 2 32 20 8 35 39 3 15 19 32 16 23 38 14 37 22 17 14 33 27 22 6 34 26 16 21 13 7 38 18 4 1 13 39 26 30 32 33 25 39 5 21 17 35 4 28 27 15 33 9 23 14 31 27 35 13 27 35 1 29 16 34 1 25 6 2 25 12 16 33 20 19 17 15 22 2 36 26 5 36 3 30 9 16 37 24 7 11 1 0 21 38 35 11 20 35 36 9 32 19 9 18 17 11 17 15 21 14 3 32 30 16 20 36 23 26 12 37 36 7 8 26 20 16 28 19 8 39 17 26 20 23 27 2797 3015 4764 4605 4200 3067 4735 3862 4000 2546 4249 4598 4613 2881 3349 4455 3683 4260 4006 3913 4077 2555 3722 4560 3860 3246 4394 4863 3217 4516 3086 4421 4155 4019 4865 3988 3895 2895 4973 3662 2591 2624 4728 3450 3757 3015 4839 3779 2710 3762 3507 4361 3498 2726 2522 4724 3764 2673 4642 4090 3825 3931 3028 3745 4548 3734 3611 4271 2764 4938 3893 3016 4086 3167 4522 2764 3195 3278 2792 4491 2698 4951 3978 4160 2640 2762 4888 3825 3533 3341 4174 2669 3540 3688 2837 4181 3684 3418 3992 3353 4680 3453 4729 2811 4395 4779 4841 4539 4548 3139 4972 2536 3691 3006 4895 3852 4995 3421 2896 2730 4874 3688 4633 4715 3788 4198 3646 4846 3914 4274 3443 3037 3654 4495 3784 3658 2919 4250 3124 3982 3113 4420 4236 3223 2640 3382 3536 4534 3433 2927 3176 3688 4388 3914 4230 3099 4823 4195 4906 2962 3892 3690 3099 3200 3547 3240 2619 3932 4106 4764 3764 2923 4007 2937 3173
17 17 29 34 36 5 28 28 13 28 13 39 11 7 3 17 37 23 10 23 39 1 3 8 19 32 30 6 18 11 1 25 31 15 29 7 4 26 14 35 4 21 21 22 29 1 14 29 39 31 3 18 1 2 12 2 27 8 23 31 26 7 18 25 3 34 28 14 33 26 16 18 26 30 28 25 11 16 17 29 17 10 7 18 33 38 2 21 12 9 19 32 4 20 15 31 27 29 30 13 12 7 31 27 28 38 5 6 5 10 29 30 26 8 16 3 37 12 39 19 21 28 35 6 9 32 38 25 17 28 21 11 0 24 32 21 29 4 22 22 19 31 20 24 37 23 4 18 25 3 3 10 1 32 7 2 23 16 16 24 15 27 15 20 27 31 17 22 20 16 23 36 29 3 11 2841 4936 3003 4417 4442 2734 2651 2659 4269 4632 4071 2977 3335 3689 2720 2818 2539 4721 4813 3868 3338 4979 4787 3957 2900 3289 3910 2600 2751 3951 3474 4610 4901 4348 3825 4512 4641 3595 4970 3956 3688 3816 3599 3882 3367 4626 4214 3353 3191 4304 3132 3772 3648 4675 2982 3678 3779 2527 4433 3305 3410 3632 3578 4202 3898 4671 2559 3044 4497 4982 3224 3955 3698 3940 4078 2729 3847 2819 2817 3110 4471 3129 3148 4312 4772 4714 4208 3990 3949 4427 4743 4911 3242 4484 4097 4405 2956 3073 3690 2527 2589 4708 2896 4357 4745 3261 4896 3290 4212 4291 2777 4517 3734 3545 3749 4492 4691 4028 3333 3455 3184 3002 4733 3381 4423 4760 3315 3755 3841 3218 3161 2718 4772 3432 3071 3007 3228 3986 3376 3260 3635 4854 3042 4959 3119 3424 3379 2952 4952 3966 4075 3713 2631 4415 3169 15 2835 2897 3232 4562 3276 2953 4553 3630 3487 4279 2665 4498 3015 4784 4984 4481 4656 3845 4915
23 37 39 28 13 38 37 9 33 8 32 9 21 6 18 5 8 16 2 8 10 6 8 34 32 23 16 19 25 20 30 13 39 5 38 20 25 5 12 19 7 18 32 9 28 29 32 10 37 26 13 22 26 11 7 38 17 28 38 21 1 19 17 11 26 27 18 35 24 33 2 38 20 13 18 25 19 12 21 26 4 6 4 10 24 11 38 34 12 1 33 27 5 22 28 15 37 12 20 14 16 10 1 15 14 34 5 26 6 22 37 2 1 17 10 15 9 3 16 6 31 34 3 34 8 5 28 8 16 33 39 6 23 0 33 1 32 28 16 29 19 24 17 28 32 20 9 1 17 28 35 6 23 29 1 1 19 32 2 7 17 6 2 38 9 13 2 16 1 28 13 31 21 29 19 4128 3748 2913 3644 2746 2910 3491 3348 3453 3482 3397 3506 3523 4826 4039 3136 3509 2573 2681 4713 3261 4105 2734 3208 10 3167 4618 3836 4087 4960 2909 3419 4247 4971 3176 2567 3807 2994 3687 3429 4243 2828 4500 4457 3503 3077 3922 2841 3321 4702 4224 2654 2842 3588 3858 4569 4232 4686 3499 3170 3653 2535 2662 4714 3377 4568 3632 4342 3624 4138 3325 4479 3953 2966 2535 4795 4344 4212 3651 4276 3063 3372 3145 3213 4832 4032 4445 3509 2911 3145 2827 2604 2789 4127 4543 4135 3702 4255 3247 3254 3845 4849 4927 3953 2604 3508 4953 4141 4671 3942 3038 3114 3500 3686 4719 3580 2792 3755 4725 3668 3473 3665 3875 3551 4371 3488 4007 2984 4052 4361 2865 4175 4720 3223 4211 4830 4451 4074 3072 2782 4084 4811 3376 3847 3072 3330 4845 2820 3927 4099 3274 3948 4075 3973 3186 3239 4437 2692 4964 3429 3470 4452 3619 4051 4031 4824 2810 2927 4986 4121 4145 4200 3270 4689 4338
38 15 2 35 12 8 20 33 25 37 34 12 30 25 31 22 21 7 3 19 22 27 38 19 28 29 33 34 3 37 39 23 22 9 27 29 35 28 7 1 39 35 33 2 36 12 31 3 18 32 32 37 37 36 6 3 17 39 13 22 27 5 24 11 38 9 8 20 28 21 8 25 20 17 6 33 21 36 8 27 2 35 26 24 24 23 3 23 9 36 35 29 31 36 22 15 37 21 7 26 4 15 7 2 7 22 17 33 38 34 35 20 32 15 37 7 38 31 19 32 33 17 39 7 33 14 7 30 36 31 35 22 27 3 0 11 33 33 17 33 7 24 34 21 23 10 27 4 3 7 21 8 24 7 3 7 23 35 25 9 39 34 8 23 1 12 6 13 29 3 9 30 18 9 37 3231 2935 4945 3010 3306 3302 4527 3521 3364 2800 4791 4398 2976 3815 2872 3109 3249 2953 2906 2887 4416 2594 4175 2596 4501 4063 2570 3987 3951 3071 3138 2865 3224 2569 4194 4270 4497 2814 3667 3308 4370 3342 3379 4008 3139 2671 2735 4482 2880 4090 4618 3900 4728 3219 4760 4913 4750 4840 4785 3985 3712 4455 4925 4026 4031 4716 4424 4936 4735 2586 4329 3068 4738 3792 3035 4180 4432 2790 3082 2810 4174 3474 2916 4257 4263 4865 4208 3257 2575 2660 4773 3451 2792 2705 3888 2919 3025 4376 4033 3400 3570 4974 3239 4103 4781 4959 3462 3723 4775 3336 2840 3551 3459 4310 4997 3219 4919 4944 3186 4768 4593 3017 13 3874 4031 3384 4451 4121 4968 4342 3785 4598 3744 4941 4681 2832 4753 4639 3378 4447 4959 3303 4394 2595 4640 4657 2895 3253 3151 4341 2916 3986 3629 2740 4923 4566 2636 4466 3600 3955 4013 4633 4851 4310 3632 4458 2922 4030 2739 4894 2512 3868 4748 3606 4457
9 37 23 12 13 22 22 21 33 35 23 21 9 23 31 6 15 37 34 33 17 20 10 35 14 5 20 25 31 26 37 26 4 37 21 9 25 25 1 14 14 23 11 23 9 27 21 39 17 33 13 17 38 34 21 31 28 36 34 25 2 3 24 12 18 8 24 35 21 25 24 23 22 2 26 25 33 9 38 5 34 30 26 25 37 26 12 38 15 12 20 1 21 34 16 10 30 18 2 8 4 8 18 24 1 32 9 27 1 26 28 35 11 8 30 14 33 32 11 17 13 10 14 3 26 21 3 29 27 26 14 9 16 11 37 0 30 13 27 27 36 36 2 35 37 37 31 39 32 11 37 6 18 29 24 39 36 33 5 36 12 19 15 38 30 29 38 37 7 9 28 25 38 2 12 2682 4941 4719 4215 3400 3468 3582 4655 2937 4103 2946 2900 4920 4480 3264 3725 3039 3874 2967 3486 4948 4395 4531 3099 3313 3000 4570 2593 4819 4873 4873 2564 4293 3307 3518 4021 3685 3506 4058 4401 4989 4600 4658 3693 4977 4816 3344 3163 4978 4547 3733 4931 4970 3408 3578 4468 3000 4511 4189 2522 3132 4152 2680 4682 3895 4716 4400 2719 4369 3552 4514 2652 3824 4160 2581 4633 3417 2818 2782 2667 4353 2764 3139 3201 4347 4022 2627 3168 2983 3984 3307 3545 4020 3949 4228 3100 3528 2986 2637 3995 4929 3847 2952 3125 4995 3538 2830 4617 3992 3362 4014 4224 3473 3711 4997 4259 2899 3406 17 2690 4255 3036 3446 2526 4023 4164 2521 3621 4674 4405 4236 4057 4308 4481 4261 4760 2570 4314 4139 2788 2694 2511 3717 2890 4082 2952 3868 3693 3555 3168 3787 16 3849 2988 2525 3773 3018 3371 3104 3144 3581 4258 3368 4406 3148 3235 4631 4639 2762 3629 3685 4926 3230 3011 3455
6 19 35 33 21 9 33 9 35 13 12 29 24 20 23 5 18 15 25 30 14 4 11 31 20 39 6 23 13 15 12 1 8 13 5 11 20 20 16 19 5 30 14 11 18 27 34 15 24 19 32 3 8 34 6 39 7 4 19 39 18 28 12 16 38 22 22 2 9 10 6 8 1 1 9 3 24 1 1 30 29 2 9 12 9 21 13 18 18 23 10 15 28 27 8 5 14 26 38 30 23 5 24 35 5 10 36 17 33 29 18 22 18 27 11 23 15 30 32 16 7 3 32 38 1 12 24 5 39 20 12 32 22 25 2 34 0 18 1 28 35 14 26 29 28 22 12 17 23 9 29 7 26 27 15 31 2 27 5 20 11 39 39 12 1 6 8 16 10 20 30 18 35 31 19 4413 3193 3676 3391 3271 2743 3211 4913 2879 2914 4741 3214 3823 4118 3162 2524 4901 3549 3179 3880 2746 4108 2919 4322 3260 3937 4925 2813 3024 3219 4551 4876 4216 4588 3310 2985 3829 4859 18 4605 3379 3217 4673 4222 3569 4392 3795 3287 4538 4013 10 2596 4281 4628 3066 2515 2790 2868 4525 4746 3442 4881 3736 4844 4271 3922 3074 4766 2616 4587 4519 2909 3889 2500 4881 2590 3689 3626 4837 2936 3736 4729 3130 2918 3317 3675 4048 4524 4756 4861 2981 3304 4508 3299 2571 4905 3061 4663 3837 3103 2670 4962 4872 2573 4691 2633 3521 3341 4980 4150 3234 3177 3259 4404 4880 10 3580 4759 3174 2615 4179 4104 3694 4180 4041 3428 2993 2751 4931 4572 4086 4418 4900 3834 3072 3727 3722 3696 3848 4994 3970 4366 2569 4172 3274 3483 4888 3748 4818 3076 3020 3594 2943 4224 3299 4456 4168 2512 3860 3603 3844 3774 4064 3833 3226 4991 4156 3248 3796 3110 4536 3182 3481 4171 3496
1 25 25 7 26 38 34 38 1 34 25 34 2 36 13 39 34 7 1 11 16 13 6 33 35 31 13 1 13 8 26 32 22 29 33 8 6 32 14 9 24 9 33 33 34 18 16 7 11 6 39 17 25 24 25 26 37 18 11 33 24 35 14 12 26 30 28 1 36 25 38 5 30 25 33 2 14 5 28 5 14 18 10 25 1 26 1 20 1 15 10 22 21 13 1 39 21 36 17 29 30 29 35 24 15 32 2 18 35 7 2 26 31 3 37 1 23 37 38 15 24 17 36 31 6 33 27 38 24 7 7 13 10 17 24 37 21 0 8 18 31 8 23 22 15 11 4 29 16 17 4 33 15 8 28 19 27 10 36 27 26 39 30 28 13 24 39 2 26 12 39 26 9 30 38 4131 2921 4951 4992 4400 3770 2615 3619 3309 4939 4246 4935 4123 4489 4139 3953 2753 2636 4250 4345 4948 4299 4178 3730 3925 3632 4537 4504 4199 3207 4776 3833 3022 2692 2554 3338 14 4557 3372 3764 4826 4138 2829 2903 2949 2795 2679 2740 4808 4534 4767 3187 2908 4449 3608 3554 3435 4933 4278 4034 3634 2539 4628 2529 4487 3740 2511 4665 2822 2550 3189 4478 2616 3672 3128 4133 2707 2686 3430 4467 4317 4806 3652 4425 3873 4984 4310 3542 4562 4585 2861 3430 4291 4199 4283 4360 2813 4039 3711 2952 2526 4169 4166 3940 2812 2883 3891 3276 3381 3696 4366 3205 3740 4067 4935 2809 2836 3743 3833 2939 3809 3675 4475 4035 3160 4266 4679 3747 2667 4816 4474 3449 4602 3105 3498 3341 3897 4942 3987 2943 3409 3000 4451 3492 3988 4632 4731 3987 3301 3667 3263 2592 3932 2914 4597 4538 3695 4419 4295 3295 2774 8 4060 4575 4995 3274 4828 4091 3609 3035 4499 3403 3627 2661 3311
14 19 4 35 34 1 31 25 31 1 38 6 8 29 6 36 13 22 38 28 27 39 23 10 7 3 30 33 26 23 27 3 38 15 34 37 3 3 7 9 24 11 23 4 18 6 35 21 22 9 4 5 29 30 37 21 15 11 26 36 30 27 31 32 17 11 4 37 38 2 15 13 35 33 10 20 18 36 2 15 14 12 11 9 23 32 14 1 18 10 12 19 2 28 4 14 28 35 16 4 6 17 28 18 20 25 33 31 23 23 20 23 37 33 6 14 26 31 22 13 9 9 29 9 24 30 19 3 30 4 23 16 20 1 5 33 23 14 0 13 36 36 30 38 17 5 39 5 36 5 31 1 24 26 10 4 4 11 11 24 37 18 36 36 25 5 23 39 18 12 18 2 37 19 6 3054 2648 4118 3959 2810 3294 3989 3525 4603 4986 3490 2627 3396 3773 3664 3178 3267 4307 2858 4551 2651 2755 2779 2610 2503 3423 3891 4791 4261 4110 3530 2570 4240 3313 3229 4723 4349 3124 3875 3684 4361 2710 3485 4728 3944 4347 3126 2609 4207 4626 3861 3656 3645 3835 4625 4715 3780 3720 4286 4898 2599 3912 3759 3841 4209 4240 3860 4064 3715 3900 2745 4748 2650 3728 3885 4342 4882 2680 4011 4712 4812 2509 2773 2800 3415 2937 4755 2536 4350 4423 3670 4849 3556 3064 3754 10 4113 4407 3462 4573 4508 19 3213 3364 3433 3656 2992 3617 4450 2796 4266 4508 4532 4009 3568 2940 3805 3259 4678 2554 4195 3265 3400 4863 3388 4967 3432 3118 4798 3089 3653 2674 3194 2992 4180 3799 3092 2659 4192 3869 2734 2621 3507 2730 4128 3200 3228 3351 2886 3052 4173 3863 4519 2629 3123 4037 2871 3206 2783 4679 4323 3942 4737 4011 3532 3377 2834 3181 3774 3647 3793 4904 3091 3104 4646
5 36 10 15 19 36 30 1 39 10 22 17 12 25 6 11 17 24 16 1 21 16 5 26 6 15 6 33 37 8 14 29 16 25 2 1 10 10 12 25 29 2 21 24 12 22 36 27 28 8 20 33 4 13 34 17 20 29 9 18 20 33 23 28 35 6 33 15 30 15 29 25 21 23 19 14 31 31 13 27 33 33 17 16 29 17 10 39 24 34 19 27 32 13 20 17 28 24 5 4 28 32 6 22 29 4 27 31 10 22 14 10 9 36 13 24 12 28 23 33 12 38 26 24 34 11 39 12 8 12 32 33 14 1 9 16 19 10 9 0 18 25 6 3 35 8 13 7 9 24 12 2 5 6 21 33 29 2 4 17 9 34 19 28 20 29 12 13 26 13 19 13 36 34 6 4387 4717 4107 4254 3494 4841 4223 3463 4437 2633 3789 4505 4300 3507 3109 3540 4770 3811 4705 4918 4009 3250 4353 4971 3307 4713 3226 4070 4739 3154 4491 3372 4289 4504 4362 4499 4176 3651 3448 4899 4562 4380 2753 3927 3872 2817 2771 3313 4349 3203 2680 3577 4198 3660 3145 2780 3706 3841 2737 4429 4956 3140 3168 4093 4719 2915 3166 4262 3465 4511 3360 3635 4293 2627 4667 3695 4368 2652 4624 4196 3243 3704 2728 4996 4421 2633 4681 3345 4014 3818 3643 4175 3532 4275 3709 3298 4914 4080 3359 3877 4526 4067 4571 2556 4497 3829 4246 4931 3007 4030 4742 3926 3389 3998 4468 4239 4764 2756 3043 4920 4029 4800 2678 4419 3394 2729 2592 4137 4326 4525 3243 2678 3618 3773 2930 4201 2520 4530 3859 3732 3689 4087 4048 3221 4709 4092 3455 4678 3460 3823 4633 4995 4171 3024 3650 3979 3954 3577 4151 4864 4552 4821 3949 3185 3244 2882 4445 3278 3154 3195 3622 2894 4429 4995 2919
12 14 20 7 36 14 4 39 35 32 38 14 9 35 2 14 20 21 7 31 18 12 23 16 18 18 14 29 9 1 17 5 39 4 10 37 38 6 14 6 10 26 35 27 22 4 18 23 35 31 29 21 26 25 37 9 39 1 24 22 5 32 6 34 10 23 32 32 12 13 21 7 2 38 21 19 39 36 9 25 37 32 35 9 34 21 11 11 36 17 22 21 37 29 7 34 5 3 7 16 17 24 37 5 21 18 2 12 6 13 19 32 24 33 39 27 29 36 16 29 18 29 24 30 4 6 22 16 2 14 2 23 11 29 18 34 32 32 11 27 0 1 9 7 37 15 34 38 19 13 12 2 15 18 1 24 5 11 8 22 38 23 34 33 30 1 32 10 6 11 5 12 5 4 34 3617 4944 3243 3053 4847 3528 3627 4366 2640 4551 3028 4462 3638 3776 3570 3578 4674 3633 4933 2772 4624 3924 3425 3770 4143 4689 3165 3903 2651 2693 4318 4108 4795 4562 4310 4176 4610 3641 3015 4407 3411 4563 2883 2609 3710 4363 3999 3489 2598 4430 3764 3989 4395 4523 3113 4238 4952 4063 4207 4799 4223 3895 4862 3194 4025 3406 3610 3530 4393 2790 2832 3079 4306 3723 3178 3482 3350 3667 4103 4952 4402 4352 4503 3456 3380 3940 3588 4020 4259 4942 4618 3138 4817 3107 4702 3085 3521 3674 4112 4059 3828 3252 4192 3846 3653 3712 4465 3345 3465 4989 4458 3743 3612 4457 3622 4935 3562 4884 4387 2580 4998 4005 2934 4548 3724 3698 3696 3762 3558 4741 4611 4346 4423 4823 3416 4315 3344 4061 3038 3817 4719 3169 3256 3549 3087 4632 3167 4047 2800 2590 4051 4959 3513 3296 3502 4947 3257 2632 2504 4087 2922 4595 2861 2734 4951 4354 3775 3907 4419 4889 3915 4638 4759 3667 4180
12 31 10 14 33 13 6 16 30 25 16 20 13 15 38 29 19 9 34 19 35 9 18 6 35 10 7 28 18 27 20 11 35 35 38 17 8 22 23 6 30 5 24 13 8 36 26 36 12 5 25 15 26 19 35 36 3 3 29 3 8 24 23 31 20 20 26 9 36 28 30 22 11 22 29 14 23 11 2 37 21 6 10 7 5 19 1 18 8 22 10 6 30 10 28 7 36 16 1 26 27 38 4 33 10 21 27 4 17 14 39 18 7 36 23 31 13 30 2 15 35 9 5 39 31 7 16 36 16 30 36 30 15 27 39 1 26 29 16 7 9 0 32 29 8 32 21 36 36 2 39 4 10 27 35 20 3 3 28 24 27 39 28 3 6 16 37 28 34 15 35 25 6 31 30 3645 4766 3688 4925 4743 2905 3954 3509 2557 3638 3916 3055 2815 3312 4774 3072 4629 3193 4911 3104 2617 3271 4419 3791 3751 3303 3504 4447 2604 3686 2833 2795 3370 3774 3337 3597 3121 3444 3732 4633 3026 2603 2735 3516 3002 4287 4263 4547 4426 2748 4437 4668 4204 2810 3806 4288 4243 4689 4759 2942 4224 3652 3644 3150 3067 4881 3823 4048 4372 3076 4004 4922 4050 3508 3356 4763 3433 2711 3691 4291 2798 2898 3458 4589 2973 4096 2934 3983 2708 4753 3944 4534 4118 3393 3221 4031 2858 2819 2533 3007 3069 3634 4571 4088 3486 2748 2985 4288 4514 2677 3203 4280 4536 4775 4735 2561 4413 3057 3986 3684 2708 4199 2750 4491 4648 3445 3351 3427 3950 4239 3623 4946 4386 4953 2798 3987 3484 4939 4391 4635 4160 2545 4922 3580 3757 2502 3688 3950 3988 4579 2526 3056 4795 4878 2754 4538 3334 3085 2732 4715 2655 4076 4738 3615 4073 4430 4669 3512 3727 4203 3941 4999 2875 2625 3266
4 10 29 39 8 25 31 39 18 32 16 24 15 27 1 21 2 27 31 39 13 32 5 3 24 15 11 22 38 33 31 29 8 19 1 31 35 16 20 26 15 19 1 20 39 15 13 10 1 37 30 35 11 8 31 34 30 23 29 30 5 16 21 32 34 21 15 18 16 33 11 27 31 36 37 7 14 13 33 20 14 36 39 15 30 25 35 34 23 4 23 32 37 30 14 9 35 25 33 26 14 6 9 25 1 4 24 4 10 17 10 11 18 16 31 6 6 17 34 39 21 36 2 6 38 28 31 10 2 15 14 30 3 28 4 35 30 17 25 17 2 9 0 14 2 17 20 21 39 19 22 12 33 15 22 2 25 19 32 6 37 31 6 16 24 15 20 27 17 36 27 14 6 23 25 4788 3262 2763 4604 3859 4578 4787 4159 3297 4960 4045 4820 2994 4598 2741 2627 3737 2747 4380 3213 4939 3668 3966 4081 3648 4690 3281 4322 2734 2866 4141 2602 2634 2541 2520 3666 4089 4242 4529 2579 4655 3837 3122 3716 4522 4269 3781 3046 4718 3712 4331 4880 2762 2573 3510 4109 2508 3077 4814 4766 3467 2697 3728 3188 4326 3720 4345 3957 4433 2587 3191 4701 3761 2882 3454 2583 3398 4181 2616 4742 4604 3592 3226 2529 3542 4885 3989 3779 2851 3771 4837 2959 3270 4784 4624 2637 4295 3027 3395 3981 2802 2615 4936 3970 4811 3247 3835 3950 3555 4302 2883 2831 2646 4045 3611 3203 3512 3471 4567 3962 3228 3597 4431 3591 4381 2969 4130 2958 4474 3968 3973 4012 4173 3852 4614 2866 3324 4533 14 3703 4107 4927 2921 3285 3381 4244 3822 4311 4970 2624 4894 16 2999 4783 3198 4566 3032 3611 3851 4896 4321 4804 3821 3819 3906 3376 4520 4317 3566 4005 3306 4168 9 3491 4468
20 2 34 18 34 38 14 27 17 9 18 12 32 15 30 30 31 11 9 30 35 10 27 30 24 8 11 13 6 10 38 35 31 20 28 36 10 23 33 8 8 16 29 22 24 22 21 33 24 3 34 5 17 22 14 34 9 14 37 17 4 37 18 35 18 34 29 32 7 25 8 35 24 26 28 20 11 1 17 13 32 1 26 23 21 37 12 19 20 3 27 18 19 20 39 17 35 18 27 36 17 29 21 9 35 15 35 31 24 22 37 4 11 26 29 29 11 24 35 22 15 22 16 12 6 13 8 12 17 31 13 13 5 4 25 14 17 25 32 26 35 3 26 0 3 10 15 21 19 27 3 11 27 39 20 15 3 1 11 1 18 4 33 30 12 8 30 4 28 16 18 28 3 39 19 3875 4040 3810 3279 3610 2894 3407 4399 4601 4802 2544 3920 3548 3125 3985 4532 3320 2776 2780 4130 3420 3143 2764 4595 3296 4484 3026 4556 4208 4740 2945 4813 3303 3846 3416 3366 3529 4448 4865 3245 4012 2865 3257 2699 3808 3902 4791 3645 4653 3250 4834 4529 4472 4659 3953 4490 4111 3847 2946 3090 4482 3046 2849 3572 3199 3920 3518 3243 4376 4048 3863 2896 4240 3974 3259 4836 3453 4568 4245 2811 3733 3056 2738 3726 3404 3851 4882 3628 3771 3364 2853 4020 3110 4367 4252 3596 4815 4945 4180 4192 3865 3453 4881 3307 4404 3038 3365 2798 3758 4992 4555 4581 3095 3558 3227 4884 3514 3887 3648 4569 2748 3974 4831 4950 4143 4913 4304 3522 2676 3410 4052 4671 4540 3552 3594 3977 3331 2986 4407 3006 3886 4654 2883 3499 4726 3935 4094 3630 4358 4033 2910 3877 3214 4856 3572 3631 3498 4148 4247 4085 2611 4900 4860 3961 4582 2933 3731 4022 2709 3297 3815 2816 4495 3641 4232
7 24 38 23 31 36 15 27 5 2 7 37 11 33 26 29 30 18 20 37 8 37 24 30 27 22 15 34 2 37 17 12 27 28 23 5 28 32 19 10 29 18 39 32 33 36 4 16 12 35 16 24 27 28 39 32 24 28 3 35 1 38 1 28 6 12 2 12 34 25 18 23 15 32 15 17 28 23 7 4 15 38 25 24 31 10 11 14 16 20 12 24 34 36 29 39 12 1 11 37 35 23 13 10 15 37 26 4 6 20 34 34 25 20 36 13 13 33 8 10 18 31 39 13 32 16 6 11 38 35 22 33 16 1 35 32 34 26 15 27 13 9 29 1 0 21 31 11 4 6 29 19 1 6 27 9 33 17 18 20 6 14 3 14 19 11 22 38 30 24 30 30 14 3 19 2773 4290 3656 2763 2644 3577 3597 4005 2783 2808 2571 2559 2577 3483 3821 4393 3467 3367 2568 3712 4532 2525 2538 2832 4139 2807 2928 2880 3778 3650 3034 4776 2695 4216 4901 4277 2799 2514 4990 4806 4070 2768 3263 3000 4545 3954 16 3078 3321 2903 4389 3654 4637 3251 4520 3750 4268 4413 2884 4130 3495 2885 2665 3731 3099 4717 3251 3768 2823 3558 2742 2609 4526 4376 3694 3678 3668 3045 3792 3618 3691 4865 3088 3158 4001 4054 3592 2861 3707 4957 2670 2542 3519 3345 3814 2565 4550 4906 4685 3341 4293 3653 4003 4100 4630 4952 4614 2815 4550 4084 4769 4696 3426 3625 3505 4936 4801 3358 3757 4241 2542 4290 4165 4657 3024 3926 3933 2830 2526 2838 3478 3022 4031 3382 4981 2614 3880 3827 3676 3431 4283 4238 3412 3940 4652 3845 4215 3636 3536 2911 3733 4444 3313 3061 3423 2804 3422 4700 4396 3665 3562 4094 2624 4015 3563 4934 4167 3995 2865 4114 3624 4985 4289 3182 4112
13 26 32 5 11 5 37 33 27 22 12 2 3 3 35 26 35 6 10 24 21 1 26 29 23 36 7 2 28 1 15 13 26 39 33 17 15 5 6 21 21 5 24 35 30 10 29 36 3 30 29 13 21 34 33 14 28 37 11 21 19 27 7 30 37 33 27 34 12 19 25 14 17 35 2 5 2 24 9 34 18 20 35 22 15 25 35 22 38 22 30 21 25 36 31 19 32 37 8 35 3 13 14 20 4 33 11 37 12 6 35 1 32 4 28 21 22 3 9 15 18 33 33 29 38 10 11 18 29 12 35 21 24 25 22 17 3 17 13 38 17 32 11 37 39 0 9 12 27 6 5 32 35 29 33 15 39 19 36 1 26 37 30 24 21 23 30 28 35 26 31 28 39 18 31 4096 2614 3147 3793 3841 4572 4293 3581 3596 3935 3064 4738 4117 3860 3747 4578 4457 2645 3058 4444 3164 4018 3419 3682 2507 4056 3873 4236 4290 3822 3051 3555 2710 4982 3209 3960 3317 3501 4284 4834 4123 4776 3432 3062 3350 2604 4050 4271 3463 4590 4826 4476 4670 2724 4723 4851 4399 4904 4841 4249 3107 3774 4364 2566 3071 4626 3635 3167 3580 2603 3600 4039 2641 3833 3995 4215 4638 4850 3286 3394 4037 4857 4475 4433 4303 3394 3824 4307 4479 2711 3666 4838 4132 4632 4762 3705 3786 4578 4767 4924 3086 3616 3368 2583 4391 4701 2907 4888 3854 4950 3719 3597 4427 3550 3822 4705 3970 3845 2534 4149 4506 4588 4419 4892 4217 3457 3800 4523 4574 4266 4672 3961 4055 4184 2514 4329 3548 3448 4423 4523 3752 3605 3558 3734 4857 3091 3470 4664 3254 2835 3268 2612 3307 2559 4535 3791 4014 3184 4428 4496 2801 3307 4443 3904 4898 4899 2903 2990 3331 4757 3186 4513 4455 4610 4276
4 5 26 27 33 9 15 19 10 17 27 23 33 35 16 5 18 19 22 26 24 25 18 32 1 35 39 11 32 14 36 7 16 26 28 1 25 26 19 5 35 23 17 20 6 21 21 26 7 30 20 27 19 39 1 21 21 33 32 31 30 24 32 20 1 37 9 28 11 38 34 21 12 21 32 5 30 7 1 14 7 26 14 4 37 9 13 23 2 27 16 17 11 12 15 19 10 6 4 21 24 14 11 27 38 12 38 28 21 19 27 12 20 4 23 22 4 27 39 11 25 35 2 26 11 4 37 16 34 7 10 35 2 32 12 25 25 28 2 11 18 3 31 20 6 12 0 13 32 31 20 16 4 24 28 2 32 33 15 16 33 1 24 31 27 34 38 22 34 26 37 7 17 11 11 4360 3539 4859 3690 4457 4387 4314 4882 4527 2684 2753 2501 3121 4699 3999 2800 2909 2537 2955 2705 3301 4120 4291 2809 3843 2840 2953 4667 3293 2709 4392 3714 2905 3272 2888 3320 2586 4435 4059 2673 3926 4933 3187 4263 4786 3056 2658 2989 4701 3188 3109 4941 3159 4170 2523 4233 4300 2539 3414 4958 4546 2879 4284 3399 2622 2825 2875 4704 4623 2510 2771 3908 3460 3904 3591 3235 4502 4025 4684 2568 4255 4637 4255 3682 3705 3526 4518 4088 4243 2672 3656 4571 3749 3343 2928 4835 2525 3498 4022 4336 4662 4052 4169 3158 3859 4790 2505 3041 3928 2618 3666 4063 3902 4043 3053 4623 4420 3597 4603 3732 3023 3533 3469 3877 2919 4376 4029 4959 4520 4840 2843 4612 3046 2701 3056 4241 4512 3750 3275 3256 4373 3236 4585 3029 2680 3414 4431 4161 2525 3020 4322 4025 3919 4547 3422 4322 3501 4954 4432 3059 4984 4895 2784 3996 2704 4915 4521 3087 4253 4688 4764 3988 2868 4918 3563
8 5 27 17 37 32 33 14 11 22 29 4 32 17 28 27 8 32 17 33 27 33 2 35 13 24 16 39 21 30 3 33 17 22 31 36 14 12 38 9 8 39 34 33 1 14 24 20 6 1 36 1 1 20 22 8 7 2 13 11 21 19 16 7 26 17 31 11 33 9 26 37 2 34 31 18 18 16 28 31 3 1 12 9 4 29 17 2 5 6 20 16 30 28 28 37 7 6 18 28 11 6 8 25 11 32 15 16 32 28 4 20 25 19 23 19 21 34 1 9 6 31 28 12 20 30 15 30 19 10 31 13 10 31 23 38 23 11 20 24 36 15 3 6 18 12 22 0 14 6 19 3 30 3 19 19 25 28 28 10 17 30 10 19 24 11 6 13 20 15 20 25 27 25 31 3726 4845 3783 3813 4854 2852 4086 2817 4229 3195 4631 3823 3926 2516 4260 3145 3311 3311 3067 3677 3243 4344 3087 3673 4561 2542 3572 3538 4132 4471 3213 2741 2840 2575 3610 3887 4039 4495 4509 4428 4151 4427 3313 4462 4481 4954 3661 3657 3442 4517 3241 3042 4973 4505 4755 3595 4862 3758 3692 2893 2677 2963 3905 4517 4756 3405 3471 3591 4975 4374 4847 3824 3665 4086 2840 3340 3105 4702 4328 3755 3982 3658 2567 3308 2776 4682 2596 4983 2829 3252 4616 2651 3521 2717 4644 3043 4674 3183 3049 2677 3008 3873 2836 2790 3002 3477 2518 4740 3118 4552 3001 3103 3778 3687 3187 3055 3954 3095 2983 2545 4679 4685 2583 4711 2812 2794 4568 4305 2740 2890 3803 3966 3600 2674 4805 4813 3322 4525 3951 4188 3965 3651 3239 2846 2987 3545 4278 4982 4462 2643 3996 3371 2990 3560 4711 3084 2866 2510 4937 3553 4559 4909 4279 3662 4818 3302 4858 3580 4794 3247 2620 4065 3805 2564 3242
2 20 39 21 22 27 34 9 14 18 5 26 33 4 10 17 15 22 4 1 13 39 19 29 32 4 36 6 10 25 26 14 38 15 6 2 19 6 23 16 26 30 1 28 3 34 27 32 14 39 28 32 34 28 32 29 8 4 23 12 36 33 5 12 4 26 8 22 27 21 34 12 35 9 17 12 1 9 23 38 1 13 33 26 23 28 7 24 24 16 17 18 36 17 9 11 35 14 24 15 26 10 29 24 9 19 27 21 16 39 25 11 24 26 16 29 38 7 18 38 17 9 22 38 17 36 34 39 39 39 38 19 35 5 34 15 6 20 25 24 19 21 34 5 26 30 27 33 0 18 12 3 11 29 34 26 25 35 18 27 36 7 26 8 33 8 24 12 24 19 17 8 39 30 3 4515 4465 3497 3468 3088 3751 3188 2942 4765 3157 4722 4831 3809 4016 4953 4018 3622 3157 4372 4825 3699 3176 3359 3707 3979 3748 2680 3530 4649 4436 3897 4158 4891 4725 4949 3396 2523 3842 3209 3177 4614 4965 4388 4219 4645 4070 4996 3361 3483 4364 4075 4384 2725 3173 3994 3491 4013 4504 2528 2550 3071 2733 4004 4603 3074 4463 3539 3319 4921 2848 3347 3176 3303 3134 3417 2831 2856 3977 4676 3149 3066 2922 3847 3790 3580 3900 4511 4501 3073 4299 4572 2583 2558 2707 3770 2651 3067 2730 3933 2614 4948 4628 3013 4501 4563 3904 2955 3246 2881 4772 2693 4183 3444 2981 2922 3935 3592 2923 2517 4411 3320 3392 4645 3615 4958 3297 3712 2622 4532 2886 3368 3801 4823 3357 3245 3533 2636 2720 3314 2816 3633 4065 2924 4562 3726 3042 4632 3762 2698 4934 4441 3929 3548 2793 2692 2979 2958 3467 3882 2697 2863 3219 3569 3412 4317 4914 3456 3750 11 4537 4693 2880 4391 3547 3890
35 13 4 37 26 3 14 16 24 33 25 1 31 8 9 4 14 6 1 5 21 19 26 28 33 29 6 11 4 14 9 6 1 18 26 32 22 30 11 39 38 9 9 37 16 27 13 35 5 3 36 20 31 9 3 17 34 6 38 2 35 7 2 2 8 33 22 31 34 38 20 18 7 35 18 31 14 9 5 5 6 7 27 24 5 12 37 24 37 35 39 30 4 28 16 13 1 8 32 23 25 24 4 2 29 39 5 22 2 28 19 38 23 2 36 8 30 9 7 13 29 8 11 21 7 29 35 10 38 27 20 36 13 10 9 29 3 7 22 32 2 34 18 10 15 13 16 20 7 0 18 22 9 16 38 37 3 38 14 14 35 23 8 4 28 36 12 10 10 7 34 14 27 19 34 4515 13 4395 3144 3337 4694 4586 4606 4901 2984 3654 4337 3278 4147 3634 4795 4523 3321 4849 2990 3172 2720 3644 4528 4022 2543 3836 3359 3351 2508 4266 4239 4812 4002 4023 2802 3656 2990 4859 3355 3897 4242 4888 3237 3661 3089 3569 4648 3277 4388 3448 3919 4173 4180 4054 3910 4153 4689 3271 4798 3572 3834 4137 3669 3641 2974 3535 3737 3700 4481 4121 3216 4378 2756 3557 3650 4414 4099 4463 4020 4787 4674 2641 3767 4112 3814 4590 2758 4337 4140 4514 3321 2792 4950 4227 3544 3259 2961 3838 4966 3800 4172 3741 4005 2529 3930 4160 4272 4061 3613 3477 3149 2601 3981 4072 3428 4745 4219 3133 3871 4879 2839 3974 3224 3330 3313 4957 2630 2672 4313 3223 3101 4863 4629 3725 3821 3729 3796 2696 4731 4617 3593 3043 2959 3349 3024 4854 3484 2692 2507 3248 4870 3679 3117 4278 3777 3954 2954 3391 3649 4666 4146 3238 2612 4012 9 4030 2861 2744 3427 3248 4626 3756 3827 4240
30 25 35 22 11 29 31 8 31 35 22 2 37 39 9 37 20 39 18 1 4 36 12 2 16 36 19 9 36 34 12 36 4 10 33 29 34 25 31 39 14 1 18 15 24 10 20 17 16 15 30 32 12 35 19 8 25 16 14 25 18 33 34 32 37 23 3 17 16 9 17 2 25 21 11 22 1 26 27 35 33 4 17 6 33 24 10 26 27 21 1 19 7 19 8 19 28 19 9 2 36 20 24 28 25 20 23 9 15 27 4 27 12 21 33 17 4 1 30 15 6 5 22 35 2 11 36 2 23 30 28 23 23 10 4 2 33 39 38 37 26 12 38 17 37 39 29 10 30 39 0 31 16 2 21 18 23 34 31 24 36 11 33 15 5 23 23 21 3 20 5 35 38 22 1 4151 4063 4212 4745 4768 3764 3559 4317 4206 3644 2959 2554 3972 4530 4731 4025 4415 3792 2706 2783 3957 3021 4093 3850 2847 4815 2817 4451 3190 3340 4061 2900 3049 2865 3937 4215 2608 4059 4677 4397 4149 3504 2919 3523 3701 2668 4576 4518 3921 4676 4660 4547 4188 3286 4789 4837 3573 4663 3444 4771 4810 3129 3767 3369 2803 3492 3026 3159 3638 4431 2731 4703 3438 3439 3704 4231 3861 4585 3486 3588 4989 3349 4643 4411 3279 3985 2637 3650 4683 4091 3710 3310 3017 4600 4558 2898 4558 3950 3287 3872 3401 4389 3759 4446 4690 4232 2678 2571 3729 4648 2870 3084 3355 4648 4045 2839 4480 4340 3063 4482 3883 3621 3563 2619 3859 4520 3936 4922 4645 3634 2838 3482 4850 4139 4673 4709 4162 2783 3135 4236 2533 2626 4136 4782 4391 4824 4181 3752 3699 4561 3609 3123 3616 4944 4509 4185 2708 3907 3547 4318 3802 4616 4025 2976 4947 4128 3958 3387 4612 4164 2692 4774 3998 3009 2546
20 20 25 3 17 13 17 34 26 37 38 38 5 13 28 31 9 6 9 17 3 4 10 1 10 5 5 39 19 25 33 23 7 30 4 10 26 31 25 3 6 16 4 39 1 4 11 6 12 5 20 28 9 8 5 22 3 4 9 32 31 25 31 37 20 17 1 26 27 38 11 27 28 4 11 5 32 23 3 29 5 16 8 3 36 2 29 38 18 3 2 17 33 33 29 6 27 28 34 15 39 5 35 6 27 18 9 5 34 22 13 28 36 14 10 39 31 30 35 15 18 10 34 26 35 9 32 3 20 15 15 38 23 21 29 15 28 6 6 8 24 31 2 18 35 38 28 1 24 21 37 0 15 20 20 39 32 5 3 35 26 24 21 37 4 25 28 24 10 35 11 23 34 25 37 3998 3102 4238 2886 4807 4938 4571 4213 3555 3806 4348 4582 3869 4444 4428 4628 2810 3374 2894 2541 2989 3288 3524 3566 3744 4120 2679 2587 3947 2602 4553 2982 4960 2633 2923 3518 4542 2867 4770 4905 3388 3183 3372 4812 4434 5 3831 4255 3383 3727 4380 4682 2633 3940 4689 3468 3510 4765 3726 4640 3437 3891 3525 2954 4990 3632 3284 4187 3496 3747 4984 3316 4001 4677 2820 4753 3420 4980 2614 3790 3781 3715 3728 4604 4113 3145 4345 4735 4218 3380 2714 3595 3402 4451 4322 3255 3973 2705 3382 4710 3485 4249 2735 2812 3908 3407 2762 4534 4787 3937 2625 3576 3433 2539 4962 4303 4275 3213 2501 4288 3024 4794 4504 2813 3977 4943 3296 4719 3932 3022 4080 3851 4245 3589 4794 2768 4879 3276 3588 4324 3099 3568 2957 2857 3463 4478 4321 3210 2547 3770 2839 4936 3128 3390 2967 4036 4828 3274 3631 4489 2593 3345 3727 3227 4132 4140 2758 4853 2777 2882 2964 2897 3738 3973 4691
33 25 1 20 8 32 19 2 34 24 17 22 20 18 10 3 34 29 33 33 16 25 21 34 2 39 36 30 7 10 19 18 37 18 39 12 26 10 27 26 37 36 34 10 10 21 37 16 15 10 32 3 26 7 24 37 2 6 34 1 1 36 37 14 34 15 30 12 27 31 5 12 26 29 37 13 22 14 15 26 24 36 35 21 20 22 30 35 22 16 22 5 10 2 34 37 16 27 28 9 15 27 17 18 7 15 34 20 30 15 12 22 29 24 26 34 22 32 17 23 25 10 7 29 23 38 34 18 34 27 11 30 24 32 24 25 37 37 29 33 5 32 22 32 3 14 8 17 8 5 22 11 0 13 19 10 7 7 1 18 32 26 27 34 13 22 35 39 26 31 16 28 34 10 24 4095 3875 4811 4459 2873 3892 3807 4932 4359 2886 2605 3160 3235 3285 3313 3316 4213 4815 3341 4898 3448 4398 3048 3401 3459 4241 3706 4400 3919 3814 4075 2820 4695 2529 2906 2639 3578 2723 3276 3940 4418 4316 3877 3359 2651 3458 3219 4030 4220 4906 4644 3006 2575 3001 4798 4431 3423 4361 3962 2594 3257 2792 2847 3620 4198 2776 3253 2884 2858 4325 4078 4464 4660 4254 3175 3946 2706 3241 4790 4715 3448 4161 4893 4409 2642 3865 2929 3748 3660 4256 4093 2604 4948 3832 2501 2980 4086 2544 3050 3700 3747 3718 4216 3874 4513 4883 2906 3964 3815 3630 4175 4763 4098 3333 4047 3467 3562 3985 2608 3982 3705 4294 4287 4068 3642 4213 4669 3085 4895 4697 4540 2608 3826 2628 3356 3573 4994 3532 2889 4864 3387 4246 2867 3146 4487 3548 4892 3781 4800 3886 3443 3889 2671 2788 3353 3584 4192 4669 4365 3693 4493 2522 3723 3866 4439 4017 2892 2610 3509 4090 3105 4888 2967 4746 3432
14 11 15 12 26 12 14 24 17 33 5 37 28 18 5 22 1 11 9 7 33 3 30 7 17 9 13 16 21 26 2 18 35 39 15 13 16 9 2 27 3 4 34 9 29 36 28 25 23 8 39 31 39 39 12 10 39 36 18 9 3 23 23 32 5 28 14 38 6 14 17 24 18 19 1 8 21 36 2 36 12 10 37 1 23 4 18 9 15 21 10 4 10 31 7 31 36 21 38 33 20 29 39 2 10 37 39 26 36 26 27 1 8 21 9 23 22 14 8 3 17 23 9 11 21 37 16 5 15 21 13 34 5 38 8 17 4 4 1 9 22 11 20 4 2 37 35 14 31 8 18 6 33 0 23 35 27 19 13 21 19 25 17 24 24 21 32 24 39 33 1 38 27 13 3 3152 4059 4467 3338 4903 4556 3547 2845 4342 3600 4392 2592 4907 2599 4915 4458 3343 3719 3210 4072 4889 3397 4676 4249 3288 4356 4999 4968 4024 8 4120 4502 3010 3583 3637 2959 3963 4933 3284 3111 4515 2534 4453 3476 2634 4464 4018 3308 4414 3087 3700 2586 2837 4712 4940 4469 4585 2823 2713 3483 3082 4838 4116 2813 3711 4987 4861 4031 3255 3542 4711 3913 2815 3933 2611 3470 4184 3684 3613 4259 3563 3287 2829 3852 3398 4551 4162 4461 2550 2558 4809 4703 3228 3521 3841 3747 4154 3119 4457 3792 2575 3202 4245 2815 3255 4082 3202 2878 4071 4056 4107 2915 4392 4103 4608 3637 4602 2999 4056 4931 3125 3122 3639 3757 4726 4960 2643 3575 2880 3375 4250 3807 2784 2689 3786 4956 3254 3532 3100 4449 2959 3750 3015 4095 3703 4133 2807 3048 3915 4568 3390 3145 3066 3026 2756 4869 4139 3275 3627 4090 3389 2917 3851 3152 3902 4299 4789 3916 3255 4656 3544 4475 4074 4222 3794
38 3 20 28 23 25 20 9 30 27 21 37 19 7 37 36 22 9 5 27 21 16 13 26 6 13 15 12 2 22 4 18 27 8 18 24 24 38 38 29 21 38 9 34 15 25 30 32 9 24 34 21 19 29 33 35 16 36 25 6 22 20 22 29 22 25 15 20 38 4 18 19 28 1 12 18 27 32 9 20 7 15 36 14 20 13 7 19 7 35 30 34 26 22 23 12 32 39 13 10 33 39 34 38 12 23 16 30 15 37 6 16 25 5 8 33 37 27 2 23 4 19 28 2 30 6 15 17 6 35 37 6 37 17 4 22 24 29 5 34 35 33 1 39 27 24 30 3 17 2 8 38 2 26 0 32 20 32 13 3 11 32 13 12 38 34 7 7 16 17 23 33 31 29 16 2639 3261 3221 3644 4547 3641 4039 2658 3426 3732 2609 3281 3725 3906 3389 4701 3831 4812 4579 2701 3555 2565 3707 2861 4587 2564 3185 4882 3601 3853 3384 3341 3492 4146 4251 3230 3852 3614 4883 3768 3690 2677 3495 3122 4979 4452 3932 2600 4348 3486 4392 3187 4358 3141 2533 4657 3325 3645 4038 4950 4031 4289 4111 3083 3452 4344 4213 3102 4308 4936 3303 4432 3297 2560 4233 3936 2695 2854 3700 4026 3540 2863 3814 4728 3713 2816 2900 3331 2758 3352 3863 3967 3054 3776 4650 2719 3059 3339 3310 3814 3876 3643 3211 3223 4776 4832 3294 2752 3760 2512 4036 4402 4685 4438 4028 4385 3705 4376 4167 3918 3137 3643 4875 4886 3517 4290 2821 4363 3283 3949 3218 3283 3827 4158 4836 2616 4501 3538 4366 2504 2570 4027 4799 3239 4136 2599 3099 2567 3286 4786 3623 3009 3632 3082 3615 3376 4275 3461 4492 4523 4763 4765 3781 4865 4016 2774 3220 2963 2998 2956 3748 2971 2782 4534 3365
38 19 37 7 19 6 36 1 6 35 17 2 3 36 29 11 10 15 37 38 8 28 27 26 8 5 38 10 27 11 33 30 29 38 13 12 13 2 13 15 21 27 30 23 6 12 7 10 30 33 38 16 21 17 13 1 15 30 28 2 35 5 17 11 7 11 39 38 11 5 24 1 8 5 27 32 3 6 22 15 31 13 2 38 7 7 38 13 26 1 34 14 22 1 5 10 30 24 32 22 15 16 20 21 13 37 10 3 15 21 27 29 8 5 34 7 17 39 7 21 31 35 19 5 20 13 39 37 12 23 11 8 15 11 19 20 16 11 1 10 18 21 39 18 20 27 8 35 23 24 29 19 27 37 31 0 38 37 7 8 23 2 39 16 7 36 35 34 32 15 34 5 23 20 4 2867 4476 3746 3738 2982 3467 3300 3575 3873 3457 4336 3388 3156 4535 2638 3793 2792 3273 4298 4672 3387 4137 4314 3704 3284 3060 3338 3632 4649 3855 2575 4485 3204 4073 2656 4085 3130 3628 4676 2684 4793 2587 4119 3033 3837 3764 2574 4685 2642 3488 3646 4881 4887 4259 4291 3676 3573 4786 4278 4985 3892 4973 2849 4721 2724 4479 4852 3863 4612 3894 3936 2675 3318 3267 4245 4784 3001 4039 2717 2760 2858 4430 3692 3462 2967 4427 4932 3365 4570 3763 3300 3868 4484 4255 2652 4142 2690 4321 3209 4051 3211 2971 4325 2782 3929 3341 2637 3671 4938 2676 3210 3361 4251 4744 4707 3982 2650 4583 4861 4060 3270 3783 3060 3515 4940 2768 4553 3375 3349 3600 2847 4274 3816 3459 3161 3642 3303 2657 2865 4012 4399 3935 2884 4897 4676 3284 4448 4940 3631 4753 4686 3703 2515 4827 4115 4496 4028 3257 4689 4863 4162 4080 4327 3781 4636 2961 4208 3900 3714 2900 4107 4609 4120 4560 2827
2 2 26 37 23 10 3 33 2 9 36 24 20 1 28 15 14 27 6 6 38 16 37 2 10 36 16 2 14 19 38 36 36 15 15 6 31 19 1 29 38 18 29 2 2 22 31 24 25 14 26 16 5 14 25 4 26 7 38 9 18 25 7 15 2 21 15 22 23 36 10 8 34 30 12 15 11 36 25 29 15 1 26 27 29 10 35 2 20 18 22 12 2 17 2 12 1 16 32 20 28 35 24 29 28 21 14 31 18 34 28 11 6 1 11 39 34 23 25 13 35 20 18 14 2 5 29 3 9 4 33 10 13 28 25 1 21 15 33 5 5 16 5 14 19 14 38 25 19 31 38 18 37 3 31 38 0 20 2 25 30 32 9 14 34 38 34 6 6 2 8 30 36 35 10 3476 4114 3813 2872 2509 3792 4593 2668 4896 3022 3376 3733 4946 2793 4758 3741 4484 4136 4405 3725 3324 4503 2774 4782 4744 3783 4490 4686 3143 2828 3566 3250 3563 4552 4703 4319 4801 3917 2901 2844 3866 2851 3370 4570 2967 4565 3924 4888 3699 2634 2917 3636 4537 4575 2617 2555 3507 2712 4284 4886 3470 4048 3152 3610 2785 3049 3181 4461 4886 4982 3701 4424 4439 4290 4935 3223 4831 2911 2535 4243 4902 3119 4829 2691 3423 4641 4086 4946 4622 4359 3582 2585 3610 4864 3911 4544 2503 2561 4351 3769 4005 2887 2553 4664 4607 4154 4987 4006 3211 2737 3214 4865 2994 4687 3821 3701 3853 3235 3868 4021 3185 3455 3735 4258 2863 3798 4432 3641 4916 4337 3524 3581 4366 2955 4240 3386 2559 3238 3291 4659 4761 4723 3756 2593 4164 3310 2774 3786 3484 3350 4912 4632 4011 2564 2675 3811 4677 2865 2599 2725 2752 3849 4613 4328 4975 4108 3560 3243 4110 4016 3661 2662 2610 4003 2789
14 33 35 21 33 4 39 2 21 26 32 15 17 10 38 39 23 17 16 4 14 6 23 39 18 26 14 24 12 33 3 8 1 10 2 34 36 35 28 38 14 15 18 1 22 24 39 23 23 33 32 27 14 9 8 11 18 11 32 18 19 24 14 5 33 11 35 9 29 36 9 30 12 3 28 2 15 3 38 39 9 22 17 28 33 3 24 24 14 25 35 33 32 25 20 37 1 15 9 38 14 36 36 30 33 24 16 30 28 2 19 27 13 30 6 27 17 21 5 2 32 22 7 30 9 31 22 19 36 15 23 22 6 20 21 11 18 22 10 9 21 37 39 1 29 16 26 9 31 32 11 27 6 13 37 16 31 0 26 39 19 11 4 8 28 37 9 19 9 32 33 36 17 10 26 2851 3862 2749 4871 2736 3891 4700 3628 4002 2526 4675 3104 3801 17 3962 17 4361 4281 4387 3380 2968 3677 2863 4151 2735 3258 3726 4618 4755 3752 4716 4197 2505 4262 3864 3658 2958 4911 3265 3256 3340 3014 4556 3303 4810 3124 2505 4615 2928 2920 2685 2926 4158 4755 3069 2980 2834 4270 3426 3651 2837 3165 3168 2723 3490 3013 2756 3439 2913 3003 3370 2759 2956 2552 3725 2611 2815 3525 4277 4557 3706 2808 4759 2724 2711 4348 4162 4940 3908 4178 2550 3869 4201 14 2972 3798 4791 2828 3748 3490 3144 4065 4509 4715 4473 4273 3967 4151 2759 3162 2718 3588 2861 4526 4908 3547 3618 3640 2532 2825 4073 2910 3769 2973 3992 4717 3377 4700 3004 3848 4745 4178 2963 3149 4370 4976 4573 2863 4084 4955 3929 4382 3304 2945 3484 3895 3653 3286 4176 4375 4043 2533 3827 4185 4714 4448 4577 3964 2990 4921 2536 4032 2590 2913 3329 2695 4682 3990 4335 2848 4925 4792 3219 2793 4546
31 22 3 24 16 31 15 6 26 33 17 6 3 4 14 38 17 37 31 21 2 25 13 25 25 17 17 2 25 22 10 33 39 19 31 12 13 31 38 19 1 23 6 33 22 1 26 13 23 7 24 26 28 31 7 19 25 37 12 16 1 18 22 2 37 36 8 27 5 39 8 28 22 26 31 33 4 22 22 23 21 29 5 10 37 9 37 36 25 6 34 39 27 38 27 14 29 10 34 36 33 26 14 8 9 24 14 7 5 35 32 30 34 4 28 29 31 35 22 5 14 11 29 17 35 12 30 27 11 36 12 33 11 34 26 9 15 13 2 31 27 11 15 36 24 38 16 15 30 37 33 3 2 27 34 6 29 4 0 16 37 5 20 16 19 28 18 9 23 16 21 32 26 36 17 3042 3106 3179 2939 4129 4980 3639 4819 3066 4958 3366 3517 2979 3224 2513 4958 4821 3125 3009 4401 4047 4991 3595 2952 3977 4922 3584 3308 3842 4010 4145 2958 4876 3565 4577 4432 4411 4996 3906 4682 4174 3872 3172 2913 4950 4080 4929 2646 3453 3573 2643 3618 3477 2854 2714 2779 3471 4816 3399 2620 2789 3942 3680 3542 4237 3091 2789 2605 3807 4331 4315 3180 3188 4763 3043 2880 3676 4425 2899 4098 4631 3503 4829 3482 4924 3303 3819 4751 2956 3459 4421 4713 2574 4571 2946 3959 2762 3671 4135 4614 2851 3882 2662 3743 2549 3490 4116 3069 4834 3183 4376 3044 3638 4981 4784 4413 2714 3064 3549 3977 3493 13 4837 3313 3525 4584 4130 4084 4061 2754 2813 4339 3297 12 3406 4834 2868 4415 4974 4321 3905 2758 3668 4455 2501 3274 2692 4777 4761 4224 4790 4590 2686 4884 4574 3302 3684 3388 3922 4414 4617 4907 4111 4894 3180 3587 3474 3247 2866 3393 3687 4476 4767 4849 3747
28 17 26 27 29 22 33 19 26 17 4 38 3 28 35 13 23 12 3 20 26 20 35 35 6 14 33 4 29 3 12 34 15 37 32 35 19 20 23 26 19 13 28 12 24 39 19 30 13 5 3 15 4 26 39 1 24 19 27 37 25 24 19 36 5 9 36 38 28 5 24 18 24 3 13 39 38 10 31 1 20 8 4 15 30 28 1 10 29 15 18 16 16 35 25 13 36 24 23 31 34 29 13 8 5 30 35 29 34 18 33 20 39 23 23 3 32 18 5 22 6 27 19 12 25 37 20 37 5 18 10 8 38 1 32 4 36 29 17 28 13 4 8 19 14 16 6 39 12 4 9 26 28 6 36 29 37 31 31 0 3 13 20 6 38 5 12 36 13 15 2 9 31 11 7 3831 3534 4107 2996 2777 4589 4470 4823 4367 4301 4583 3745 3859 4371 3798 3614 4683 4048 2592 3708 4828 2811 3353 2606 3098 2683 4649 3837 3650 4870 3056 2860 4430 4909 4638 4002 4881 4973 2888 4476 2555 2859 3648 4749 3015 3584 3790 4831 2581 4002 3284 2748 3762 3698 3487 2667 3332 4732 2895 4758 4433 4278 2725 3856 2981 4235 3597 3971 4719 4019 4260 3534 4750 2991 4321 3288 4464 3316 3817 4556 4708 4326 2630 3339 3205 2614 4214 4448 4390 2890 3460 2903 3675 4392 4055 3532 3646 4872 4279 3974 3329 2807 4942 4305 3469 4894 4676 3524 3194 4088 4468 4134 3646 2886 3833 3636 3226 3687 3586 4617 3914 3248 4298 13 4473 3779 4963 3383 4714 4543 4544 3840 4848 3706 3610 2663 3965 3284 3690 4242 3104 2841 4392 4399 4277 2600 2917 2917 3184 3864 2540 4132 4278 4313 3871 2582 4464 2576 4990 3119 3311 3837 4897 2651 3368 2837 2711 3647 3629 2609 2711 4745 3339 4935 3398
17 18 37 14 3 4 21 18 2 27 17 1 24 32 23 38 30 10 27 29 29 12 9 22 25 21 17 28 18 11 2 32 34 30 12 22 26 12 4 11 22 5 8 37 29 14 31 10 9 11 39 2 27 28 16 29 26 11 22 25 7 34 3 23 7 22 28 20 37 26 28 3 5 19 33 17 7 34 18 33 24 23 39 11 15 12 36 28 3 20 6 36 17 10 34 14 11 26 11 34 25 8 13 11 10 3 12 5 9 11 33 6 15 27 23 39 11 28 8 34 22 34 36 34 17 21 28 2 8 33 8 7 7 26 10 10 8 36 33 18 13 27 19 10 3 35 12 4 3 35 27 6 6 21 39 4 5 23 17 24 0 24 35 30 5 18 2 4 11 19 35 25 16 12 32 4602 3260 2504 3920 3912 3795 4043 3250 4754 2983 2590 2907 4740 2637 3710 4684 3017 4676 4070 3112 3632 3350 2590 3285 2634 3935 3372 3973 4367 2554 3779 3831 3468 4410 4822 2768 13 4276 2964 4393 4293 4405 2893 4957 4525 3534 3992 4747 2919 4680 4600 3014 4537 4610 3434 4911 3997 4992 2949 4890 4926 3977 3465 2702 3823 2706 4517 3633 3233 4039 4516 4130 4091 4752 4405 2852 4408 4319 3328 4276 3340 4575 3571 4580 4835 2655 3474 2610 3382 3236 2674 4138 2593 4599 3239 4011 4402 3162 3879 4845 2779 2980 2832 3621 3419 2896 3250 3834 4192 3696 4419 3303 4902 3322 2697 3266 3726 4595 4993 2567 2916 2807 4506 2922 3522 3237 4781 3706 2535 4972 4617 2734 2946 4190 2616 4600 4510 4851 3397 3991 2675 3615 3852 4180 2569 4719 4388 3933 3854 4608 4067 3792 3404 3860 3228 4064 4122 4547 3144 3806 3947 4297 4762 4210 3125 3148 4213 3648 3914 3588 2521 3156 4056 2636 3442
32 33 16 34 25 14 30 38 1 7 8 16 11 16 32 9 19 25 29 25 30 12 11 2 17 38 23 6 18 10 11 4 35 18 35 14 31 7 23 5 26 37 9 10 12 21 12 20 5 35 12 20 3 3 38 3 6 38 27 38 31 20 19 15 22 21 3 13 12 37 29 33 10 35 21 5 11 17 25 21 14 15 12 36 1 20 31 37 18 17 15 11 39 23 32 9 29 23 37 26 8 10 8 14 34 35 17 16 7 27 33 4 19 3 28 1 26 21 16 15 19 14 2 21 32 6 2 23 4 35 38 11 35 37 11 17 23 12 36 38 28 4 2 7 3 28 2 26 5 18 36 11 17 36 17 33 12 34 14 32 9 0 36 9 22 1 30 35 23 38 33 6 1 27 31 4651 3684 2777 3577 2526 4182 4657 3628 3041 3271 3157 3729 4981 3299 3045 3837 4792 4418 4864 2797 4941 2930 3244 3495 3746 3746 2907 4982 2555 2814 4635 3341 4158 3521 3889 4947 3121 2538 4089 4658 4770 3042 3949 4059 3223 3655 3323 2576 4368 3712 3660 3819 3847 4984 4428 2762 4181 4234 4489 3697 4679 3992 4525 2552 4812 3927 4435 2563 3564 2856 2885 2590 4346 3707 3538 3417 3139 3838 3911 2886 3956 2796 3597 3505 3415 3296 4792 3021 2940 3577 4560 3856 4017 2652 4596 4775 4586 2546 3068 4907 2708 3435 4479 4030 3351 3269 3031 4608 3350 4811 2575 4870 3548 2748 3491 3066 3015 4821 4939 4229 3121 4261 3455 2748 4481 3583 4553 4845 3525 4389 2642 2517 3274 3055 3287 3882 3959 3449 2709 4455 4358 4659 3775 2629 2619 4225 4158 4180 3511 11 4180 4373 4248 4164 3678 2883 3657 2781 3018 3391 3374 2611 4958 4781 4637 4972 4767 3818 3516 2612 12 4544 4129 3671 2841
32 30 39 7 8 14 11 3 36 15 5 7 5 14 39 37 36 12 26 18 11 2 24 25 7 36 38 26 9 8 28 12 19 30 30 9 11 21 30 38 11 2 37 24 11 9 26 39 35 20 31 18 3 9 36 29 19 37 10 2 1 11 9 15 11 36 8 20 38 5 21 23 9 34 5 13 30 16 16 14 31 33 2 4 19 19 25 24 8 9 5 31 5 12 24 20 7 35 18 30 21 37 4 26 26 32 32 31 24 23 32 28 5 30 35 18 7 8 6 30 34 8 24 34 18 32 7 24 22 31 33 23 25 29 8 21 13 7 27 25 25 32 36 4 22 33 28 35 2 22 32 27 35 33 7 30 35 29 20 3 13 26 0 26 11 20 20 3 27 23 29 22 36 12 32 3417 4130 3441 2642 4481 4092 3749 2755 4074 4544 3639 3434 4988 3405 4064 3747 4713 2513 4797 3302 4389 3373 4114 2848 4183 4624 3780 4103 3213 10 3425 4905 4692 3093 3227 3977 4082 3221 4692 4104 4827 4355 3567 4703 4969 4404 4738 4959 2791 4348 3807 4725 2740 3260 4069 4589 3582 2752 4657 3197 2600 3231 3339 4977 4195 3294 3276 4293 4956 3750 4332 4388 3562 4483 2692 3694 3940 3028 3447 2568 4306 2989 3120 4999 3398 3577 4641 3372 3891 3193 4030 3841 3889 2978 3581 4537 3177 3809 4626 3378 4760 4917 3647 3987 4910 3535 2793 3034 4375 3098 3710 3788 3852 3595 3475 4419 3363 4979 2995 2595 2551 4918 4147 3937 4814 4320 4653 3677 3005 3661 2868 2877 3498 4968 3737 3745 4680 4940 2537 3618 2506 4145 4239 2861 3774 3542 3173 4317 4481 4363 3976 3944 4449 3028 2618 4508 3118 4637 2746 4102 3444 3849 4179 2927 4026 3590 4739 2602 2898 2773 4141 3458 3610 3770 4291
2 1 23 37 36 13 13 17 4 34 20 32 2 6 18 15 33 21 33 27 6 16 33 4 32 2 14 27 2 34 10 37 7 35 36 8 33 20 17 12 5 4 22 36 15 9 5 38 15 8 26 6 31 9 27 16 36 14 28 12 25 24 5 29 22 28 9 17 34 4 24 15 24 4 31 20 18 28 3 38 7 7 28 7 23 12 21 20 25 12 18 25 27 37 20 26 16 35 9 19 30 26 30 16 2 21 12 22 21 15 25 20 39 39 26 2 2 11 27 35 29 9 7 11 8 38 18 6 26 25 21 4 15 23 23 16 25 25 3 28 38 3 9 17 2 18 23 35 24 22 31 13 33 15 22 6 9 25 1 28 13 15 25 0 22 1 15 6 36 36 17 24 25 6 38 4148 4258 4243 2924 2859 4416 4730 3428 3876 2584 2877 4840 4817 3430 4789 3297 3835 4395 2607 3292 3832 3014 2550 4232 3235 3367 3594 4711 3657 2764 3375 3018 4445 2659 3890 3813 4354 4252 2951 4485 4836 2586 3590 4073 4703 2788 4946 4801 3631 4063 3479 3119 3165 3044 3716 2586 2820 2514 4621 3828 4404 2606 2624 4319 2911 2921 3105 2797 4001 4896 3226 2816 3456 2518 3812 3465 4409 3363 2557 4109 4731 4077 4828 3503 2648 4348 3542 2842 4744 4157 3220 2531 2547 3479 3164 3501 3833 3275 3589 2981 2581 4683 3698 4107 2784 4167 4812 3712 3660 3248 4785 2634 2613 4493 3933 4182 4241 3993 4069 4403 4882 3943 2835 4968 4283 2707 3784 4466 4046 4169 4266 2815 2638 3982 4130 4501 3357 3273 4788 3005 3992 4168 4854 4930 4695 2976 4025 3439 3022 3947 3891 3686 2861 3669 3657 4738 4590 3828 3608 3754 3145 3293 4668 3595 3216 3063 4214 2509 3298 4316 3499 2563 4127 3001 4649
1 23 26 34 30 11 32 27 14 8 23 22 33 13 33 12 12 25 10 25 13 37 10 34 27 25 19 16 21 14 4 14 23 28 15 35 29 18 28 12 20 33 6 22 36 14 3 31 31 12 3 4 26 39 17 23 17 20 38 6 3 19 33 18 2 39 11 35 26 36 17 4 11 27 36 25 16 19 32 16 31 10 2 28 22 27 34 38 31 8 31 25 28 35 38 31 29 15 20 4 24 1 12 34 8 3 16 22 13 33 34 8 38 29 9 10 29 2 21 4 5 1 28 17 38 31 25 25 25 25 33 25 26 29 35 38 26 31 38 24 30 26 32 12 16 24 29 28 24 32 38 20 20 33 33 13 20 31 24 19 28 30 4 36 0 11 7 28 18 23 3 6 26 28 30 4214 3388 3428 4292 4571 3393 2928 2693 4782 3828 3406 3101 4046 2898 3676 4121 3013 3635 3805 2578 3331 4456 2866 3717 3247 3004 3398 3707 4844 3905 3492 4652 4895 4557 4439 4572 3118 4036 3359 2687 3072 2591 3242 3795 3487 4205 3766 3340 4758 2660 4461 3267 4772 2570 4554 2626 3456 3237 4158 4795 4715 3351 2757 3412 4484 4763 2867 4324 3396 4908 3435 4251 3706 4655 4992 2634 2614 4272 2579 4335 4392 3906 4845 4883 3288 4629 2647 3022 3053 3919 3272 4855 4393 7 2857 2938 3394 2797 3798 2655 4345 2765 3142 2699 3994 3915 3468 2582 3543 3448 3142 2525 4009 2647 3439 4762 3366 2756 3309 2867 3176 2899 4634 4235 3929 3328 2908 4153 3541 3029 4605 4770 2787 4029 4331 3850 3368 2707 2611 4898 3258 3526 3945 4955 4389 2627 4098 3410 3728 3628 4723 4976 4348 3449 4518 3680 2755 3780 4815 3682 4002 2800 2821 4221 3161 3464 3239 4098 3904 4766 4468 2797 4184 3465 3144
5 32 12 37 17 21 9 22 27 5 39 18 23 20 33 3 39 18 30 5 15 22 29 7 11 28 5 12 34 15 19 14 23 16 4 39 9 21 29 39 12 30 8 22 22 21 37 16 4 14 22 6 33 31 14 19 8 4 8 27 3 31 29 18 35 39 10 11 6 37 5 18 12 14 2 1 27 38 34 7 3 26 33 7 27 16 9 15 9 18 24 17 39 7 23 26 22 32 18 33 23 12 19 16 17 11 33 10 30 10 36 12 35 12 27 18 26 37 5 19 33 12 8 5 12 26 2 27 23 36 38 5 6 1 5 18 33 28 12 16 19 16 7 20 8 37 15 18 37 15 32 11 19 16 39 7 3 19 35 3 27 12 8 5 9 0 25 4 18 1 5 9 3 27 12 4674 2585 4034 4965 2865 4037 4941 4397 2742 4193 3569 4539 3863 2607 4099 3296 3727 2539 4278 4790 4407 4030 4943 2550 2861 4311 2583 3325 4968 3207 4683 4159 4088 3847 2862 3564 10 4752 4332 4610 3864 3067 2950 3935 3001 4049 3704 3014 3967 4773 2851 4982 3407 4508 3469 4805 3590 3908 3284 3154 3153 3068 3198 2554 3236 3441 4359 3483 3463 3620 4880 10 4377 3261 2519 4546 4956 2878 2897 4293 4205 4533 3335 4744 4158 2886 3610 2693 3005 3158 4066 2919 2849 3571 3707 2986 3659 3515 3723 3136 2512 2678 3108 4241 4994 3406 4802 3026 4095 3546 3883 4152 4184 3642 4202 2995 4232 4019 4302 4805 3397 4992 2949 2674 3910 3454 4309 3373 3674 2661 3709 4633 16 4770 2501 3376 4185 3542 3530 4856 4084 3898 4613 4011 4582 3095 4948 3248 2954 3110 10 4691 2664 3910 2727 3574 2653 3791 3001 3621 2865 3647 3361 3064 2771 3007 4288 3850 4699 3287 4287 4401 3066 2924 3577
19 27 34 31 4 36 30 25 35 12 35 26 34 23 37 29 16 23 39 18 27 25 21 16 7 2 2 3 9 34 15 9 29 23 31 24 11 39 35 35 8 36 13 37 37 14 28 32 17 26 24 30 21 19 26 7 37 12 25 31 36 32 36 30 27 3 20 21 4 38 30 17 12 34 14 31 23 34 5 25 29 3 33 6 14 27 37 19 36 14 4 34 13 9 39 16 20 16 15 23 18 38 28 24 3 35 23 16 11 39 28 26 38 14 36 13 8 10 27 26 21 38 22 32 27 16 3 14 3 39 18 18 26 33 11 32 5 36 5 36 7 12 12 18 37 11 4 16 7 22 4 24 13 14 25 2 14 33 24 23 39 6 15 9 23 30 0 10 16 9 21 22 18 36 12 3497 4826 3087 4959 4817 3039 4657 4709 3130 4342 2568 3421 4373 4479 4554 3672 4793 4004 4740 4948 4717 2575 4931 3815 3822 3593 4370 4908 4783 3423 2931 2696 3013 3885 4561 4825 4158 3740 4041 3495 4754 3966 4104 4356 4159 4211 3368 4270 3396 3522 4893 3380 2743 3507 3987 2617 3169 3620 3641 2861 3619 3275 3509 3806 4050 3673 4758 2608 3907 3624 2501 4610 4923 4114 4041 4303 4344 3624 3661 2658 2869 2848 3793 2898 2866 3895 4699 2791 3357 2554 3330 4820 2835 2799 4235 2818 3958 4875 2579 4969 4535 4566 4410 4309 3616 3241 4179 3785 4418 3649 4735 4434 3751 2567 4938 4746 4389 4656 3446 3410 2857 4458 2943 2550 3954 3630 4548 2595 3832 3126 3690 3909 3357 4652 3354 4634 3281 3081 4935 4112 3162 2814 3943 4881 4303 4053 2786 2617 3911 3124 3827 3752 2595 2765 3009 2557 3230 4279 4747 4094 4919 4484 2530 4591 4270 3048 3551 4696 4741 2656 3283 3716 4693 4995 3546
21 37 33 36 12 5 28 20 39 38 12 23 5 31 38 38 4 24 32 32 9 1 1 32 9 9 17 31 31 13 8 7 11 32 17 18 13 12 28 12 27 24 9 21 24 30 23 2 31 17 33 4 17 37 10 33 11 13 22 18 25 33 9 19 34 1 1 9 13 33 34 7 30 38 33 2 10 31 39 33 37 12 3 33 6 7 16 26 36 33 30 36 34 30 5 9 7 34 18 36 4 20 36 19 7 21 5 4 39 10 32 2 7 1 23 15 21 28 2 28 36 9 24 20 19 21 37 34 30 17 1 29 17 36 14 17 21 33 24 9 7 8 23 31 3 3 27 6 38 27 15 26 13 33 20 12 25 9 3 36 34 6 35 5 31 2 23 0 7 32 23 25 24 35 11 3075 3498 4409 4519 2861 2665 3387 4046 4482 3463 2845 4890 3758 2953 3645 4123 4627 3497 4689 4977 2718 3188 4354 2858 2526 3301 3765 3141 2513 4669 2617 4259 2711 3182 4080 4897 3150 3379 3753 2929 3193 2583 15 2677 4554 4560 4795 3167 3536 3344 3879 2718 3663 2898 4734 3131 3712 4366 4941 3347 3163 2634 3378 4018 4198 3463 2689 2864 4482 4666 2986 5 4223 3203 3264 14 4072 3530 4964 3913 4901 3448 2898 3802 4874 4680 3236 2589 4241 3010 4614 4891 4170 4978 3039 4567 3788 4550 9 4643 4808 2577 4585 4419 3997 4335 4250 3297 4756 3231 4867 3004 4265 4398 3419 3592 4538 2771 3470 2632 2975 3508 3236 3043 3157 4664 3190 3073 2781 3913 4959 4876 4334 3011 3889 4623 4457 3223 3307 2595 4915 3791 3754 4177 3597 4252 3632 3399 3861 4912 2527 3563 4351 4133 4732 4323 4971 2738 4175 3088 3381 4999 4154 3515 3356 2928 4062 2502 4545 4634 4921 3418 3241 3342 3965
16 3 29 20 32 13 33 5 30 12 5 19 17 22 36 21 25 21 8 14 28 22 14 25 30 38 14 5 35 22 20 34 38 5 25 9 19 25 9 6 38 37 16 30 28 23 9 30 27 5 20 17 9 19 32 5 2 20 28 15 10 33 11 1 32 24 7 19 15 25 21 12 4 16 31 26 24 16 39 8 3 6 2 12 18 35 28 10 37 3 16 23 28 14 8 14 21 13 28 38 7 5 27 9 8 10 21 12 38 38 11 13 35 39 20 3 35 36 20 18 32 39 37 9 2 29 24 22 20 20 29 8 15 1 3 30 19 38 11 5 17 13 21 31 29 31 15 39 17 21 18 23 38 12 1 30 14 37 20 18 30 27 23 23 9 35 25 39 0 18 23 23 15 15 18 4453 4653 2523 2731 3438 2698 4225 4986 4601 3891 2649 3226 4474 3179 4613 4100 4247 4257 4793 4369 2643 3286 3622 9 2565 2711 3240 3295 3125 4681 4398 4615 3220 2513 3803 2656 4426 2607 3355 3031 2963 4173 4675 4165 3731 4880 4855 4721 3872 4834 4755 4367 4091 3062 2725 3246 3679 4955 4078 3625 4101 4051 2599 3876 2672 2806 3132 2678 4227 3907 2665 4063 2885 3522 4368 4274 4586 3070 2865 3174 4969 4031 3207 2679 3884 3788 4524 2637 2524 4804 2823 4032 3486 4464 4736 4381 3943 4487 3205 4927 3609 2716 3481 4064 4268 3079 3944 4351 2794 3149 2566 3162 2848 4428 4337 2897 4018 2638 4599 4440 2949 4664 2603 2616 4686 3285 2549 2650 3060 4552 3222 4231 4472 3464 3756 4745 4610 2831 3251 2831 3056 4446 3203 3872 4461 3095 3073 4747 4609 3171 3905 4487 4899 4858 4700 3692 4038 3216 4478 16 3694 4701 2518 4453 2788 4742 4843 3485 4768 3171 4767 3138 4145 4224 3960
17 35 7 7 2 22 31 10 14 29 16 35 39 22 27 4 26 21 32 36 8 35 14 19 25 7 19 32 39 32 27 33 16 5 1 30 12 12 11 34 20 10 25 30 25 34 5 18 14 23 3 13 2 24 4 2 33 22 17 35 20 2 14 13 6 15 20 27 33 25 16 38 32 2 34 18 15 38 24 34 5 1 2 23 37 17 25 27 2 6 33 31 5 36 36 35 7 23 26 27 12 15 29 32 8 33 33 11 38 17 5 8 6 12 2 17 12 20 9 16 26 15 21 16 29 11 36 19 10 37 4 29 6 3 7 27 26 25 31 14 26 24 10 22 32 17 3 18 31 16 10 2 6 21 7 29 15 6 39 18 17 1 2 13 23 8 35 11 19 0 34 23 39 23 30 2802 2922 3470 4248 4166 2805 3200 3541 3184 3982 3231 3285 2611 2837 3323 4631 2891 4215 4787 3970 2516 3408 3684 4684 4305 3590 4224 3736 3882 4814 2900 3687 3929 3729 3828 4742 4273 3312 4988 4529 4296 2672 3213 2629 4333 4360 2662 3061 4257 4803 3060 4963 2534 2695 3703 3925 2688 3187 2716 2898 4888 3234 2542 3771 3022 3245 3360 4055 2823 4316 3993 4738 4561 4276 4745 3214 3490 4936 3689 3872 4476 2551 2691 4533 3471 3571 3656 3666 3711 2637 4193 4414 2510 4768 2791 2565 3546 3660 4737 2542 4072 3724 3436 4515 3384 4541 4500 4144 4094 3230 3349 2515 4470 3395 4314 3772 4055 2731 3156 4326 3834 2921 3866 4840 3512 3749 2924 3147 2693 3725 3804 4333 4016 4970 3640 4670 4841 3984 4393 3048 3400 4427 2955 4337 4544 3708 2643 2893 2941 2694 4293 3166 3723 3825 4780 4456 4010 4198 3405 2892 3901 4962 3396 4255 4139 2913 3035 3589 3281 4242 4359 2676 3360 4355 2699
39 28 35 28 28 1 21 12 12 3 33 15 29 16 25 4 7 25 20 11 1 7 10 20 11 28 18 5 17 22 6 34 18 10 6 30 28 27 35 9 32 25 29 34 33 32 5 18 34 34 23 36 3 14 39 39 4 4 25 18 21 29 7 36 29 12 14 19 32 32 5 10 34 25 12 11 4 9 24 6 7 24 9 23 9 11 28 21 25 17 16 2 36 16 5 24 6 13 6 37 21 29 18 21 9 10 5 35 28 4 18 15 1 38 12 18 18 22 37 36 32 29 11 11 39 28 39 31 24 39 5 24 2 18 3 4 34 26 21 5 17 33 4 11 36 10 22 24 34 6 15 6 28 16 17 3 23 33 5 4 16 18 1 26 20 30 22 26 34 37 0 26 24 22 37 2619 3253 3804 4136 4351 3570 4359 4604 3478 2558 4111 3124 4187 4003 4150 3990 2640 2738 4846 3838 4605 4307 4407 2534 4801 3048 3341 3082 4475 3032 3981 4294 4666 4254 3569 4062 2786 3133 3481 4628 4707 2584 2520 3186 3737 2991 3253 3935 4350 3839 3125 3930 2551 2521 3421 4331 4217 3477 4965 4227 3541 2718 3945 3663 3276 3089 2874 3873 3972 2963 2916 2782 4348 3397 3164 3003 4679 4999 4303 4553 2758 3401 3649 3115 3078 4008 3959 2548 3884 3773 4195 3521 4494 3374 3428 4063 3596 4056 4746 3568 4936 4917 3816 4896 4553 3714 3901 2899 3523 3816 3029 4753 2814 4442 2982 2528 4837 4442 3150 3841 4160 4917 4579 4859 4100 2516 3821 4726 2627 2882 2925 2895 3391 3720 3556 2847 4806 3634 4851 3065 4580 4655 3098 3323 3450 2640 4049 3812 3182 3864 4953 3315 2908 2772 4667 2791 2700 3731 4973 3263 4702 4390 3673 3797 2652 4810 4205 3608 3995 4381 4691 4623 3122 4049 3999
20 13 2 38 31 16 8 18 25 38 19 12 19 4 7 13 17 34 34 7 24 39 7 11 35 5 11 4 10 39 22 8 5 30 2 13 32 39 16 24 2 8 7 24 37 30 26 2 21 33 35 5 36 38 16 10 10 34 13 5 39 29 22 18 14 10 1 16 31 38 23 32 12 16 29 11 2 9 31 5 2 13 34 1 22 6 5 14 24 33 9 21 22 11 26 7 20 31 16 15 4 38 13 1 38 30 30 8 31 35 13 30 34 35 39 18 9 13 33 10 11 1 12 10 9 6 17 17 2 1 1 5 7 30 20 26 2 4 23 3 10 22 31 11 37 10 37 22 34 14 13 10 12 14 6 27 37 15 23 4 35 39 6 24 20 7 14 6 24 35 29 0 8 36 13 3295 10 4152 3204 4099 4088 2871 3061 3203 3077 2593 2660 3988 3469 3003 4061 4036 2526 4924 4585 4717 4699 4835 4424 3056 3929 4818 2518 3072 4293 4772 4974 3807 3432 4578 3926 2746 3393 4119 4977 4549 2754 3536 4677 4865 3357 4892 3938 3152 2523 4120 4781 3628 2693 3764 3302 2719 2561 4839 4278 4286 4974 3709 4477 4008 4142 4649 2669 3783 3863 4500 2608 4109 2777 3683 2880 2730 3353 2822 4665 3344 3017 3683 2870 3546 3490 4021 4227 4117 10 3296 4829 3990 2948 4503 3446 4488 3282 2838 3980 4549 3045 4159 4913 2509 2944 2583 3536 4157 2623 3045 3914 4849 3973 4231 4726 4650 3566 2634 3243 4516 4920 4081 4363 3519 4701 3977 2940 2510 2716 3520 2948 3060 4901 2600 3390 3411 3146 3964 2756 4153 2723 2692 2727 4722 4167 2973 4796 4182 2827 4788 3079 3851 3257 3720 3998 2628 2769 4461 4800 2660 3957 4283 3171 4371 4226 4619 2784 3989 3119 2650 2631 4510 3891 2612
19 29 25 14 26 8 17 23 38 11 26 13 35 39 27 25 29 8 29 10 17 38 10 18 16 1 4 12 4 25 33 20 6 21 34 32 29 10 3 4 28 3 9 16 8 32 13 31 34 20 33 30 6 3 33 13 5 26 21 36 22 1 21 39 18 30 38 23 2 12 9 18 10 17 16 8 32 20 12 11 13 4 30 26 14 37 12 24 8 26 16 7 24 38 26 29 33 32 31 27 30 24 9 14 6 10 10 26 16 38 6 38 24 15 7 1 12 20 14 15 5 2 22 26 21 15 20 25 38 15 34 7 23 13 8 29 32 8 17 19 10 39 34 36 13 9 36 4 9 31 13 37 15 11 22 2 38 23 21 4 22 30 9 35 11 22 18 2 36 32 13 29 0 8 5 3871 3771 3779 3370 3719 4776 3528 3126 2804 3511 3286 3289 3302 2656 2515 2804 4363 3557 4002 8 4675 4317 3406 2814 4496 3505 3990 4245 2659 3546 4859 4438 3015 4967 2727 3056 4279 4551 4950 3814 4669 3602 3484 3652 2695 2573 3998 3247 4960 3698 3647 3608 3199 2973 4494 4869 4945 4360 4758 3921 3636 4294 2534 4883 4343 2722 2940 4212 4285 4955 2534 3480 4852 3235 2570 4989 3361 4284 3944 2539 4143 2614 2735 3243 2571 4770 4062 4805 4577 4628 2972 3771 3754 4590 4475 3405 3179 3676 3033 3761 4908 3772 3177 3650 4493 2908 4378 3717 4612 3100 2788 2976 4691 4891 3720 3977 2691 3752 4489 3939 4493 4000 2596 2779 2538 4397 3870 4953 4391 2824 3948 4376 2537 4362 2968 2803 2983 2608 4020 4619 3073 3249 3592 4678 4239 4040 3153 4103 3730 2515 4313 4361 3234 4645 4714 4640 3880 4895 2541 4576 2552 3514 4803 3131 2832 3998 4114 4992 4939 4498 3318 2874 4299 4624 3144
27 38 24 32 17 27 27 22 36 9 8 22 1 17 24 16 6 11 8 17 8 13 16 6 30 24 36 17 21 7 31 39 12 29 34 4 28 1 21 23 22 7 34 1 27 22 4 15 29 32 22 35 29 36 29 3 20 32 31 1 13 10 33 39 35 26 5 36 6 20 30 10 11 19 20 10 32 12 5 7 19 2 20 36 18 36 21 15 12 29 38 6 7 18 9 4 9 13 39 16 30 35 1 39 19 30 21 3 19 30 23 25 6 10 18 1 29 15 3 7 38 29 13 8 7 12 29 22 1 35 17 25 26 15 37 3 31 10 13 21 9 33 38 19 20 3 18 5 17 2 3 23 16 17 32 24 20 29 17 6 18 7 39 10 10 25 31 24 23 8 18 31 19 0 18 4010 3712 2719 4420 3405 4061 2676 3193 4380 4982 2844 2656 3421 4179 4132 4385 4723 4747 4287 4655 3821 3594 4615 4008 3199 4157 3361 4276 4255 3881 3118 2894 3752 3397 3150 4674 3189 3443 3885 2878 2809 3637 4949 3203 4258 3580 3088 3237 3473 4146 4490 2648 4482 4112 2628 4965 4621 4276 3339 3506 3841 4629 4979 3892 3106 4647 3686 3738 4769 4052 2921 3633 3148 3085 3129 4445 4111 4870 3295 4063 2832 4231 3626 3242 2938 2716 3869 4229 3663 3811 4658 3200 3793 2924 4927 2705 3287 2654 3290 4113 4685 4986 4306 4491 2653 3083 3934 3849 3450 3460 4196 3560 4988 3455 4829 2681 4606 4322 3043 3631 4108 4868 2515 3883 4411 3217 2960 4501 3688 3645 4146 2579 4357 4046 3188 3342 3097 4852 4250 3121 2557 2754 3412 4795 4791 3140 3948 4159 4063 3995 2794 2889 4902 4337 3381 2733 4810 4777 3579 4036 4070 3385 3522 3168 3273 2685 3955 4410 3736 2540 3443 4665 3521 4035 3482
17 3 39 16 16 26 30 7 30 17 34 7 2 13 23 30 32 15 9 31 26 25 4 21 2 35 14 36 36 37 28 34 8 13 9 4 1 34 33 10 30 13 9 3 15 29 38 27 26 37 5 5 12 27 25 16 37 27 38 28 10 35 35 29 7 6 25 23 31 24 13 36 32 29 35 18 14 37 11 38 24 20 5 22 12 13 25 20 35 39 33 9 16 8 12 13 1 3 30 39 16 2 26 37 28 29 8 6 26 14 39 11 16 29 34 32 8 36 17 29 36 3 8 18 34 11 22 21 34 29 37 33 29 20 32 5 23 20 18 39 29 28 33 39 10 19 2 12 35 22 8 26 25 20 23 17 13 28 29 30 27 18 4 13 36 11 30 28 2 29 11 39 38 32 0 3255 4398 3495 2508 3044 4295 4132 4526 4422 4952 3727 3852 2657 4855 15 4777 3471 4473 4140 3145 4353 4180 2974 4313 4808 3519 4426 2985 3005 2502 3295 4858 4292 3832 3622 4035 3380 3745 3385 2998 2630 3503 3601 2827 2517 3520 4338 4553 4237 3370 4177 4646 4778 4851 3938 4623 3490 4361 2935 2988 4674 4312 4555 2744 3767 4805 2500 4427 3590 3766 2825 4165 4234 3516 2542 2880 3644 3470 4355 3357 3815 4704 4351 4085 4221 3374 3329 3715 4022 3403 3214 2697 3261 4299 2805 2587 2798 4607 4133 3867 3789 3231 3852 12 4099 2854 13 2646 4891 3565 4444 4099 4522 3566 3077 3153 4069 3871 3561 2630 3395 2668 4131 4501 3642 4998 3223 2892 3412 2706 3495 3841 4325 3102 3361 3052 3622 4518 2837 3342 3233 3920 3018 4388 3020 3675 3187 3571 3995 3290 3135 2670 4374 2628 2749 2965 3171 3013 3904 4672 3412 4713 4922 3381 4177 3919 2557 3920 2597 3585 4579 3400 3660 3606 3313
2936 4071 3734 4752 4671 4574 3830 2804 2517 4266 4906 4523 3065 3455 13 4974 3308 2584 4033 4761 3232 2591 3915 4403 2972 4830 4705 3086 4415 2814 15 2886 4580 3438 2875 4659 4455 2748 2778 2719 4519 4144 4651 3596 4998 3848 4560 4245 4763 4940 3248 4262 2795 3981 3585 2646 2866 2937 4412 2684 3576 3059 4937 3827 4358 3512 2661 3083 4834 4954 3665 4702 2898 4968 4144 4670 3882 3612 3252 4515 3555 4100 3058 4699 3689 3597 4234 3616 3784 4089 2613 4929 3835 2697 2978 4307 3575 3059 3835 4756 2953 3046 3723 4649 3002 3753 4295 4171 2886 4241 3887 2693 4771 2572 4850 3950 4118 2923 4033 4419 3146 3864 4968 2960 3600 3442 3732 4920 4889 4410 3030 2797 2841 4128 3231 2682 4413 4131 3054 4387 3617 3645 4788 3875 2773 4096 4360 3726 4515 4515 4151 3998 4095 3152 2639 2867 3476 2851 3042 3831 4602 4651 3417 4148 4214 4674 3497 3075 4453 2802 2619 3295 3871 4010 3255 0 18 4 4 15 38 17 20 2 31 30 15 38 17 38 25 4 7 11 37 7 38 24 21 27 32 31 35 6 24 25 27 34 31 20 3 14 33 23 37 19 3 15 6 6 16 35 31 10 31 10 21 27 7 32 26 39 31 27 26 37 34 20 7 35 36 4 5 17 31 31 10 32 39 8 12 30 29 39 8 29 4 5 33 16 30 36 33 4 29 31 37 6 12 37 18 9 19 4 35 24 23 15 8 12 29 31 19 27 24 11 18 3 21 28 21 39 21 5 32 37 7 25 10 37 26 31 26 31 38 7 25 5 28 3 25 1 8 14 23 6 6 21 29 21 20 29 34 37 37 32 15 20 22 10 1 4 2 8 2 29 8 38 4 21 15 14 10 36 21 26 25 11 37 6
4719 3534 2605 4276 3727 4701 4506 3492 3501 4597 3324 4178 4993 2727 4210 2866 4248 3314 3328 4582 3350 3452 2837 2782 4554 3513 4290 4142 4269 3608 4547 3368 4099 4729 3260 3892 4011 4286 3867 4368 2960 4340 4097 4172 4547 3542 2588 4699 4939 3276 3701 2855 4124 2788 4838 2928 3175 3196 12 4779 2642 3091 4948 2603 3699 2705 4675 4172 4485 3213 3157 3707 3380 4769 4658 3641 3778 4549 2629 3930 3653 3999 2869 4383 3101 4942 4432 3775 4844 4655 3777 3295 4339 3890 3394 2528 4593 2615 4014 4872 4473 3726 4604 3650 2672 3411 3020 2503 3515 3246 3808 2899 4711 2552 2873 2612 4654 4624 4652 2851 4581 3432 16 4994 2671 4155 3819 4886 3209 3842 3381 3015 4936 3748 2935 4941 3193 2921 2648 4717 4944 4766 3262 4040 4290 2614 3539 4845 4465 13 4063 3102 3875 4059 3261 4476 4114 3862 3106 3534 3260 3684 4130 4258 3388 2585 4826 3498 4653 2922 3253 10 3771 3712 4398 24 0 1 7 8 18 37 20 29 3 18 22 14 13 5 21 6 7 31 4 17 17 13 37 14 31 2 21 1 7 6 25 22 19 36 19 10 16 20 37 23 24 22 17 19 30 7 10 28 33 13 31 33 18 36 8 9 20 19 20 2 1 10 10 38 7 1 8 20 15 21 26 4 20 13 16 9 35 25 32 20 29 25 18 16 16 16 7 27 2 2 11 13 25 25 33 24 11 26 27 6 6 27 8 15 16 35 21 39 17 37 22 16 24 35 7 27 14 4 36 36 11 31 16 9 26 38 7 27 20 10 4 38 17 13 31 13 20 11 22 2 38 22 25 37 36 36 19 37 14 16 24 28 16 5 1 22 14 27 23 7 38 34 32 25 22 22 2 35 18 34 32 38 33 36
3793 3314 3358 4133 4952 3421 2971 3490 2714 4605 4334 3928 4677 3290 4840 4848 3197 4192 2612 4029 4207 2866 3338 3952 2866 2538 3855 2510 3079 2900 4947 2571 3371 4846 2824 4847 3508 2853 4845 3495 2528 3785 3069 3759 2746 3409 2808 3986 4099 2644 3578 3470 4380 4098 2871 2610 3517 4279 4017 4470 4221 3163 3867 4644 3299 4624 3899 3971 3415 2751 4318 4862 4342 4022 4197 4700 4695 3234 4120 2769 3972 4178 3309 4262 3359 3506 2955 2719 3931 4570 2803 3895 4136 3229 2505 4591 3438 2582 3776 4651 4223 4145 2971 4101 4540 4046 4058 3190 3499 3744 3771 3257 3984 3751 3243 3527 2991 4652 3667 2755 4143 2534 3647 3036 4033 2906 3515 4298 3239 3144 4247 4764 3003 2913 4945 4719 3676 4951 4118 4107 3243 3688 2763 3810 3656 3147 4859 3783 3497 4395 4212 4238 4811 4467 3221 3746 3813 2749 3179 4107 2504 2777 3441 4243 3428 4034 3087 4409 2523 3470 3804 4152 3779 2719 3495 15 7 0 18 6 13 13 35 30 19 1 8 23 5 14 26 10 29 31 33 19 35 1 22 15 38 6 11 38 7 18 10 19 27 7 18 39 38 24 12 5 34 2 27 29 14 13 11 21 23 13 18 29 20 28 37 2 14 6 21 12 32 7 24 27 38 31 14 13 9 14 12 12 6 19 37 37 27 22 4 5 24 27 22 10 7 32 34 10 15 11 11 28 22 5 35 20 15 6 6 7 5 30 33 4 6 4 17 36 27 32 10 15 30 17 4 28 30 20 29 23 16 18 28 16 18 35 15 8 19 1 4 23 24 17 33 20 23 25 26 25 12 17 30 20 10 2 27 25 3 3 23 3 19 3 24 12 14 2 6 21 37 37 12 10 14 2 34 32 8 12 27 3 31 22
4539 4899 3320 3986 2998 3676 3545 2536 3279 3552 3708 4013 2733 4915 3526 4967 2665 3284 2975 4153 3663 4003 2917 4087 3301 3469 4414 2892 3850 3160 3398 4344 4115 3831 4445 3192 3266 4537 2844 3876 4913 3404 4325 4247 2905 4643 4404 4658 3959 2662 3540 3888 3773 4972 3468 4473 3085 3534 3248 4290 3138 4468 2670 4718 2797 4532 3711 3759 3418 4045 2801 2673 3650 4495 4948 4429 3398 4421 4426 3319 3906 2720 2855 4129 2542 4637 4119 3448 4069 4215 3388 4235 2668 3660 3555 4448 4700 2506 4545 4887 4398 3303 4093 3813 2790 3832 4446 3120 2603 3271 2765 3889 3547 2969 3067 2895 4596 4649 4139 2636 4127 4923 3936 3474 3270 3478 4409 3488 3149 4917 4415 4605 4417 3644 3010 4215 3391 4992 3959 4254 3053 4925 4604 3279 2763 3793 3690 3813 3468 3144 4745 2886 4459 3338 3644 3738 2872 4871 2939 2996 3920 3577 2642 2924 4292 4965 4959 4519 2731 4248 4136 3204 3370 4420 2508 29 5 22 0 3 31 37 8 23 20 11 33 9 30 39 2 31 34 14 38 10 27 26 35 1 23 33 27 9 22 24 33 6 13 37 10 16 17 26 37 10 12 29 15 6 29 27 29 38 25 3 25 28 18 4 20 38 34 15 37 16 4 5 21 12 21 19 35 20 34 31 39 14 24 30 26 28 37 19 4 16 38 20 15 8 22 9 39 17 19 32 14 35 12 11 32 21 17 29 36 17 29 4 3 19 15 3 14 31 32 39 31 11 32 18 8 28 3 4 1 14 7 18 17 19 12 10 35 3 23 9 28 30 11 4 19 31 4 11 34 11 12 12 18 17 33 28 19 6 37 32 26 18 7 21 31 39 34 28 22 30 24 21 21 12 31 13 38 37 35 33 21 5 9 30
4526 2701 3324 2796 3632 4610 4855 4358 4524 3933 4004 4267 4162 2747 2885 2672 4115 2824 4659 4734 2637 3909 4590 2685 3082 2687 4402 3097 4409 2669 4252 4516 3843 3361 3218 3260 3308 3022 2723 3299 3682 4279 4745 3825 2758 3714 3424 4462 3822 4562 4304 3681 4927 3255 3370 4941 4582 4570 4906 3449 3800 4823 3307 2888 4482 3454 4468 3239 4215 4020 4831 3238 3660 3724 4516 3987 4814 3999 4439 4749 3265 3269 4134 3214 4028 3596 4820 2790 3651 2612 4432 4581 2516 4681 3053 3481 3042 3006 3392 3666 3754 4857 2706 2799 4326 3567 4223 4719 4144 3275 3246 3567 3811 4961 4050 4432 4799 3102 4420 4548 3413 2916 3220 3008 2722 3542 3758 3304 4438 4821 3571 4200 4442 2746 3306 3400 3271 4400 2810 3494 4847 4743 3859 3610 2644 3841 4457 4854 3088 3337 4768 4807 2873 4903 4547 2982 2509 2736 4129 2777 3912 2526 4481 2859 4571 2865 4817 2861 3438 4166 4351 4099 3719 3405 3044 12 16 17 23 0 3 3 18 34 8 35 13 28 22 26 33 28 16 2 20 7 26 39 31 8 9 7 11 5 23 29 28 9 27 11 14 38 36 22 10 38 10 16 3 20 34 15 10 15 16 23 2 3 19 31 18 33 9 37 22 27 12 19 13 21 15 13 11 23 17 17 4 25 21 3 9 31 4 36 1 38 14 6 3 37 5 39 14 32 1 22 10 2 32 30 20 32 16 35 31 38 25 35 32 17 3 5 24 26 36 1 31 38 12 36 28 16 36 4 20 10 5 28 5 15 26 31 35 9 19 39 18 19 12 4 16 20 12 6 27 1 8 11 29 4 24 35 37 31 2 25 17 11 18 35 21 1 12 13 13 18 17 28 9 1 18 7 20 19 4 11 32 10 7 22
2567 3651 4108 4551 4025 3485 4461 4233 2944 3875 3959 4356 3131 3924 2583 3070 4787 4207 3261 3722 3699 4498 4693 3339 4001 4174 4044 2548 4942 3748 2594 4825 2516 3516 2657 4973 4216 3938 3822 4815 3037 3678 3830 4235 4661 3804 2894 3979 3377 4034 4936 3812 2666 4619 3238 2568 4811 3137 3202 4365 2748 4979 3579 2755 3060 3162 2959 4848 4754 3239 3653 3621 2769 3804 3783 2870 3425 4220 3035 5 3765 4254 4074 4189 2973 3618 4590 4838 3583 4627 3947 2937 3999 2869 3439 2888 3616 4376 4020 3710 4584 2752 3535 4653 2927 2759 4635 3731 3593 3081 3735 4072 3497 4460 3741 4293 3342 3820 4644 2638 4031 2906 2794 4924 3218 3382 4477 4514 3971 2990 2948 3067 2734 2910 3302 3468 2743 3770 3294 4841 3528 2905 4578 2894 3577 4572 4387 2852 3751 4694 3764 4938 3892 4556 3641 3467 3792 3891 4980 4589 3795 4182 4092 4416 3393 4037 3039 2665 2698 2805 3570 4088 4776 4061 4295 1 6 23 9 6 0 24 34 18 35 18 11 12 23 7 11 26 1 18 31 29 38 18 25 1 27 33 28 10 5 18 39 26 10 27 14 9 15 18 38 1 32 4 8 19 3 35 2 5 6 22 32 13 22 16 36 31 21 28 3 23 4 20 12 26 34 38 4 1 29 18 24 21 6 17 27 6 12 11 22 4 27 17 8 15 15 15 27 31 35 27 8 26 39 35 39 6 9 3 31 1 34 27 24 6 22 13 21 23 25 33 31 5 7 6 29 12 26 2 8 23 34 33 30 31 23 33 36 8 6 36 34 22 11 6 15 5 12 8 37 39 5 27 37 2 31 30 12 6 4 12 2 11 25 8 10 11 29 38 2 36 31 9 24 8 18 27 21 4 16 39 5 10 24 21
3538 3858 3426 4685 3352 3909 4402 2774 4088 3181 4739 3435 4608 3418 2918 4844 2514 3206 3604 3492 3501 3786 3349 3472 3426 4948 2601 2909 3529 3715 3356 3283 4720 3075 3023 2770 4400 3640 3533 4933 4168 3543 4201 2942 2831 4364 3366 4916 3121 3164 3540 3876 3432 4687 4002 2640 4844 4737 3727 3910 3362 4891 4582 2570 2735 3767 3335 3199 3043 2811 3403 19 4193 3865 3365 2782 4084 4298 4596 2710 4312 2663 3192 3881 3625 3855 3294 2882 4483 2745 3699 3799 4487 2678 4932 3603 4181 4231 4202 3647 2974 3439 4118 3792 3101 3857 4895 3319 4799 3234 3871 4522 2775 4509 2581 4173 2629 4741 2721 3632 4638 3217 2920 4499 3251 3359 3600 2550 4304 3351 4462 4735 2651 3491 4527 3582 3211 2615 3989 4223 3627 3954 4787 3407 3597 4293 4314 4086 3188 4586 3559 4571 3807 3547 4039 3300 4593 4700 3639 4470 4043 4657 3749 4730 2928 4941 4657 3387 4225 3200 4359 2871 3528 2676 4132 22 27 8 18 33 9 0 25 9 18 11 4 2 20 26 18 9 2 27 15 3 20 32 30 6 16 36 36 33 6 37 5 7 16 7 35 1 18 16 3 28 4 2 27 11 19 17 36 10 5 6 16 15 37 2 4 11 11 1 23 38 39 31 23 30 39 37 22 27 15 7 22 2 34 18 31 33 36 15 14 26 34 6 9 28 32 2 18 30 4 11 25 10 10 21 23 31 14 39 2 14 25 11 15 11 26 33 28 4 25 10 17 4 21 14 14 23 16 32 23 27 20 1 28 14 2 38 12 4 26 8 7 33 4 13 16 10 27 20 22 34 5 5 2 23 21 10 38 17 38 38 25 31 26 14 14 8 33 29 34 34 8 1 24 31 27 14 17 2 32 6 2 37 36 21
2802 3445 3231 4362 3980 4732 4913 3808 4941 3782 3492 4046 3612 3989 4356 3213 4797 3963 3021 4677 3090 2599 4733 2675 3974 3567 4900 3719 2519 3170 3786 4564 3189 3254 3964 4049 4553 4780 2608 3898 3868 3671 4574 2556 3837 4352 3162 4437 3562 3001 3423 2597 3726 4782 3376 3467 4735 4792 4458 4884 10 4396 3584 3622 3912 3411 3330 3116 3830 3891 4161 3965 3645 12 4840 3662 4693 3384 3447 3193 3790 3676 4882 4872 3447 4313 3992 2950 4606 3566 3623 4234 4007 3245 4008 2602 2743 2942 3262 3342 3447 4416 4239 4021 4738 2614 3752 2789 3149 2508 3550 2598 3040 3334 3221 2678 4368 3560 4730 4087 2896 3066 4646 3950 3016 4260 4655 4245 4667 2957 2967 3862 2659 3348 3521 4655 4913 3619 3525 3463 4366 3509 4159 4399 4005 3581 4882 2817 2942 4606 4317 4213 4932 2845 2658 3575 2668 3628 4819 4823 3250 3628 2755 3428 2693 4397 4709 4046 4986 3541 4604 3061 3126 3193 4526 38 21 32 29 20 11 5 0 28 18 5 12 20 33 9 21 13 13 9 12 26 36 33 23 14 14 19 12 4 4 29 39 11 10 2 20 5 10 16 21 6 31 14 3 14 14 29 3 19 11 7 8 39 24 7 14 12 16 27 18 32 7 19 35 5 6 39 12 14 39 14 21 35 22 30 15 18 34 29 9 27 28 27 9 16 36 39 13 31 16 3 9 9 22 10 6 13 24 23 38 34 39 15 14 7 15 18 33 4 16 34 35 25 16 32 9 37 5 21 4 16 15 4 2 2 18 16 2 16 33 34 8 35 5 4 12 2 8 11 36 31 25 24 24 6 21 37 20 27 20 7 33 8 14 17 15 16 36 6 22 17 39 31 35 15 25 39 37 23 16 20 23 9 26 8
3457 2917 2589 3174 2798 2891 3332 4524 4924 2898 2572 4460 4345 4618 2609 4792 3416 3096 3196 3072 2516 3213 2796 4962 2736 4058 3256 3360 4146 2735 4129 2929 3326 3340 2771 4127 2983 3837 3172 4176 3602 4000 2862 4960 3305 3009 4759 4138 4354 2928 4244 3846 4201 4964 3349 3725 2658 4013 3966 3842 2543 3480 2763 4134 3137 4476 3247 2797 4163 2726 4198 3843 4919 2967 2948 3339 3300 4980 2813 3960 3225 3387 3321 4913 3165 3936 4192 3125 2970 4375 2936 4341 3121 4870 4313 4489 2897 2771 4934 2923 3026 2928 3032 4726 4418 2544 3178 4945 2564 3323 3340 3842 2811 3943 2663 3502 3811 4146 3707 3549 4795 4719 4717 4332 4621 2505 4802 3598 3990 4730 3492 4000 4269 3453 3364 2937 2879 3309 4603 4437 2640 2557 3297 4601 2783 3596 4527 4229 4765 4901 4206 3555 4359 4342 3426 3873 4896 4002 3066 4367 4754 3041 4074 3876 4782 2742 3130 4482 4601 3184 3478 3203 2804 4380 4422 18 18 12 29 23 18 38 9 0 35 34 22 27 23 21 14 30 33 5 10 36 20 25 22 3 29 34 17 19 12 39 33 13 36 21 8 28 37 19 15 14 1 24 2 23 36 33 38 6 29 12 12 32 11 13 18 3 18 39 23 24 26 20 18 14 32 4 29 32 1 24 23 21 2 25 25 36 8 14 27 29 36 27 38 6 26 7 30 16 32 25 22 32 17 29 35 27 21 16 21 31 15 27 34 16 16 25 10 32 28 4 12 34 35 32 6 39 37 3 8 2 17 23 10 8 39 12 22 23 16 1 25 35 3 2 20 5 19 32 39 32 2 18 39 31 5 3 10 7 15 31 20 2 33 20 28 31 5 3 30 14 3 37 12 33 10 17 4 20 37 24 12 21 37 36
3274 4419 3135 2765 4523 3034 2687 4094 3919 4387 4617 4844 3873 3261 4525 2534 3873 4212 3929 3414 3317 2975 4991 3533 4749 3588 3614 4286 4352 4546 3981 2886 4673 3864 4539 3649 3419 2831 3972 2577 4254 3624 3569 2565 3437 4773 3991 2690 4162 3251 3031 4879 3273 3867 3469 2693 2829 4594 4210 3399 2786 3244 4106 4867 3710 4978 4334 2811 4812 3787 2648 4160 4442 4574 2652 3464 3394 2527 3062 4329 3558 3659 3868 2596 4235 3379 4905 3464 2790 2680 3821 4765 3254 2870 3448 3871 3586 3626 3290 3560 3580 3876 4534 2834 3218 3592 4694 4789 3947 4392 4969 3731 3014 4178 4479 4524 4235 4100 4925 3778 3115 4612 3778 2877 2930 2811 4636 4521 3017 4397 4186 2546 4632 3482 2800 4103 2914 4939 4986 2633 4551 3638 4960 4802 2808 3935 2684 3195 3157 2984 3644 3806 2886 3600 3732 3457 3022 2526 4958 4301 2983 3271 4544 2584 3828 4193 4342 3463 3891 3982 2558 3077 3511 4982 4952 30 30 15 17 15 27 39 32 38 0 22 37 39 13 23 5 5 13 22 4 4 37 7 25 10 3 22 5 32 14 7 11 13 10 30 37 1 10 7 39 27 39 23 9 35 1 29 35 39 37 25 31 36 1 36 33 16 28 11 11 28 1 37 26 24 26 34 26 33 38 34 4 22 16 14 15 11 22 34 11 19 21 27 25 25 6 22 32 5 5 22 17 5 35 21 18 7 25 9 23 38 20 26 24 25 35 21 22 36 9 6 13 13 16 12 32 17 3 15 3 32 27 27 15 31 1 36 1 24 9 6 13 23 29 34 36 17 24 38 37 39 27 25 26 5 16 32 33 30 16 19 31 17 27 14 2 4 3 7 25 34 3 12 5 25 33 22 13 20 5 11 19 36 25 34
3436 4989 2747 4129 3528 4900 3594 3472 3144 3277 4842 2765 3692 2532 3218 4121 2662 2875 2917 3850 3733 3674 2974 4985 3307 4708 4852 4640 3759 3942 2804 4097 4555 2790 2547 4603 2886 3052 3558 4319 4291 2965 4287 2871 2512 4808 4738 2904 2752 2650 2573 3340 4771 4846 4441 4610 3135 4944 4625 3793 2645 4908 4999 3606 3988 3443 2713 4903 2952 4205 4137 4765 4597 3684 2651 4036 4463 3086 3839 4029 4271 3214 3034 3128 3395 4802 4261 3662 3636 2778 3694 2913 3413 3152 4904 4006 4319 3331 3486 2902 4535 2850 3066 3302 4766 2771 3830 4159 2703 3505 4473 4340 3192 4419 2918 4536 4715 3953 4206 2721 3441 2750 2967 2650 4359 3038 3129 3398 4074 4946 4417 4249 4071 3397 4791 2946 4741 4246 3490 3789 3028 3916 4045 2544 2571 3064 2753 4631 4722 3654 2959 4348 2605 4392 2609 4336 3376 4675 3366 4583 2590 3157 3639 2877 3406 3569 2568 2845 2649 3231 4111 2593 3286 2844 3727 34 38 30 29 16 5 32 24 30 31 0 7 39 12 21 37 30 14 33 33 13 1 25 5 7 33 36 10 14 5 33 16 6 17 4 20 18 24 27 31 26 31 32 18 6 23 38 20 10 31 4 36 30 22 34 19 3 27 29 25 29 21 8 18 11 34 25 16 5 31 21 12 26 31 38 8 18 21 25 24 6 33 19 11 9 31 8 31 20 20 35 33 39 13 31 34 29 20 4 37 10 33 2 4 21 6 2 34 19 25 37 26 12 19 25 20 23 21 22 12 37 29 10 34 6 14 12 25 23 1 34 32 31 16 8 10 27 30 1 30 20 7 2 24 15 10 3 11 36 10 28 18 9 25 29 19 25 1 21 16 36 6 29 30 22 29 10 29 34 35 14 10 2 36 23
4320 4092 4224 2872 4490 4766 3139 2690 4483 4101 4846 3032 3467 4806 4404 4305 4533 2918 3487 3160 3972 2710 4134 4137 4667 4676 3074 2639 4711 4365 2502 3743 4748 3757 4745 4822 4411 4979 2799 2865 4812 3905 4464 4654 4015 4505 4053 2877 3845 3488 4722 3835 4013 4831 4413 3408 3842 2610 3817 4296 4980 4826 2822 2757 2964 4288 4521 18 2630 3714 4099 2978 4239 4817 2948 4423 3436 4856 4044 4038 2625 4658 3810 3779 3521 2802 4430 2931 4682 3663 2649 3707 3793 3471 4043 3898 3585 2936 3542 3839 4144 4604 4278 3522 3976 2886 2627 4475 3241 2816 4411 2886 4173 4619 4070 4419 4425 4300 3699 2525 3770 4109 3303 4369 4326 2945 3494 4021 3031 3874 3138 4598 2977 3506 4398 2900 3214 4935 2627 4505 4462 3055 4820 3920 2559 4738 2501 3823 4831 4337 2554 4582 3160 2592 3281 3388 3733 3104 3517 3745 2907 3729 3434 4840 3101 4539 3421 4890 3226 3285 3124 2660 3289 2656 3852 6 29 11 36 35 3 14 30 18 11 26 0 33 35 27 4 20 18 4 6 20 13 17 19 4 25 8 25 35 21 14 36 20 25 2 15 34 1 6 6 11 7 21 2 6 15 7 22 7 37 39 26 11 25 23 35 34 25 20 18 15 23 9 6 12 22 22 20 9 37 36 7 2 25 25 32 11 4 7 31 18 20 21 15 37 12 20 5 4 3 28 15 5 1 25 15 20 29 25 16 7 18 2 34 31 22 34 16 39 16 12 8 38 32 18 21 28 22 21 36 11 28 21 16 14 18 36 34 4 6 29 2 19 17 35 32 36 28 28 28 35 9 17 20 14 19 9 20 19 14 30 12 5 19 22 9 15 30 5 18 5 18 15 39 39 22 12 5 13 16 26 9 28 24 12
4089 3382 2968 3454 3997 2869 4823 2815 3002 2572 3395 2699 3917 3161 2591 3197 2900 3881 4380 4578 4713 2516 3727 4666 2691 4904 4587 4178 4164 4715 3198 3968 4740 3202 2933 4088 3475 4425 3553 2882 4218 2656 4974 3656 3140 3989 3342 3337 4662 4465 2527 3282 4810 3372 3416 3467 4191 4033 4393 3707 4323 3328 4907 3699 3487 3281 3552 3869 4531 4519 3100 13 2814 4321 3447 3220 3127 3510 2834 2746 3145 4803 2784 2974 3564 3855 3402 4437 3145 3673 4562 3179 4181 4453 3759 4085 4487 3976 4431 4675 2767 2939 4375 2625 4811 4674 4690 2947 3824 4412 4244 3663 3026 2878 4134 4302 4171 10 3413 2941 4834 2821 2543 2543 4691 4939 3637 4137 3226 4336 4135 4613 3335 3523 2976 4920 3823 4123 3396 4300 3638 2815 2994 3548 2577 4117 3121 3926 3809 3278 3972 3869 3235 4907 3725 3156 4946 3801 2979 3859 4740 4981 4988 4817 4046 3863 4373 3758 4474 2611 4187 3988 3302 3421 2657 31 5 7 25 34 13 8 29 12 11 2 15 0 36 23 20 36 20 5 9 10 5 38 12 34 13 30 35 21 10 13 14 19 21 20 15 22 30 13 12 21 34 8 15 30 11 34 14 1 10 17 25 19 34 11 38 11 12 18 21 35 14 4 10 5 39 32 15 26 29 35 32 10 34 11 34 33 21 29 6 17 28 20 33 8 21 10 1 4 1 33 17 14 4 12 17 11 35 24 5 8 36 9 38 17 3 30 1 11 8 28 28 21 6 17 33 10 14 34 4 22 3 7 16 23 1 9 30 24 15 6 2 13 17 37 21 24 34 27 23 19 22 5 14 12 1 16 30 34 16 2 20 1 19 19 39 21 16 2 20 30 5 33 36 18 13 26 39 26 19 11 27 8 28 9
4003 3033 2521 2541 4443 3906 4935 3873 4642 4408 3861 3087 2579 4250 3304 2622 4862 3825 2754 3455 3769 2976 2842 2933 3386 3490 3815 3169 3575 2890 4484 3870 3919 2902 2822 3614 3767 4044 2726 4992 3020 4627 4718 4225 4833 2859 3556 4811 4450 4221 3563 2849 3161 2650 3978 3178 4812 4071 3707 3381 4888 3810 4579 3166 3780 4304 3108 4711 3066 2932 3853 4520 3362 3132 3070 2855 2814 2780 4466 4064 4933 4645 3954 2960 3038 3638 2663 3907 2641 4940 4708 3656 4862 4035 4589 2786 3246 4216 3689 3953 3469 2678 3611 3191 4267 4679 2882 2524 3951 4727 4988 3749 4152 3363 2722 2616 2518 3652 3533 2620 3914 3787 4935 2663 2637 4121 4019 4025 3287 4520 4991 2881 3689 4826 3815 4480 4118 4489 3773 3507 3776 3312 4598 3125 3483 3860 4699 2516 4016 4147 4530 4444 3285 2599 3906 4535 2793 17 3224 4371 2637 3299 3405 3430 2898 2607 4479 2953 3179 2837 4003 3469 2656 4179 4855 24 8 32 39 16 15 29 24 29 16 19 35 37 0 21 12 23 3 19 37 10 21 23 39 34 29 36 33 20 39 19 6 8 14 39 3 1 22 3 34 24 37 28 28 37 29 19 39 4 13 2 28 6 17 20 6 32 13 33 35 24 22 22 7 21 25 16 36 14 18 17 21 27 33 15 2 10 38 15 13 11 9 16 12 18 17 20 38 37 16 32 35 37 28 17 38 34 29 7 34 30 13 1 2 18 17 36 38 4 1 7 3 5 13 33 33 33 18 13 36 32 12 24 31 18 22 4 28 22 39 32 32 34 3 4 37 33 18 21 15 14 21 19 22 29 6 32 28 32 15 10 16 39 32 35 34 28 19 33 8 1 35 32 15 18 16 7 39 37 11 15 21 25 31 28
4404 3701 2596 4126 3930 4510 2736 2694 4206 3901 4048 3762 4064 4094 4215 2605 4189 3161 4017 2804 3071 2744 3271 2809 4010 3455 3952 4301 4020 2975 3530 3484 4070 4384 3859 2800 4719 3753 4787 3428 2717 4373 3742 3106 3045 4473 3414 4167 2564 3612 3565 2927 3157 4476 3515 3436 3233 2600 4240 3723 3653 3678 3298 4359 4299 2751 4295 3556 3880 3641 3179 4412 18 2728 3886 4139 3166 4573 4505 4817 2964 2877 3226 3961 4422 4501 3136 3511 4971 4568 4110 2886 2755 4055 3727 4590 4600 4934 4100 4722 3266 4996 3418 2598 4577 4836 3715 3347 3974 3435 3754 2884 4367 11 4356 2553 2560 3159 4926 3829 4526 3522 4662 2824 2760 4683 3166 3061 4012 3490 2935 3349 2720 4039 2872 3264 3162 4139 3664 3109 3570 4774 2741 3985 3821 3747 3999 4260 4953 3634 4731 4428 3313 4915 3389 2638 4758 3962 2513 3798 3710 3045 4064 4789 3676 4099 4554 3645 4613 3323 4150 3003 2515 4132 15 20 29 6 8 24 18 36 4 25 39 23 19 36 3 0 20 31 27 35 8 16 29 7 23 10 18 30 35 10 38 24 24 38 16 16 16 11 27 1 1 11 29 15 36 38 35 8 14 19 14 5 13 29 2 10 35 3 29 25 13 7 16 32 15 3 1 36 2 18 24 9 4 32 26 12 4 25 11 34 21 16 2 2 24 1 14 30 20 24 30 5 37 20 19 39 22 13 1 38 28 21 34 20 14 11 8 32 15 37 7 37 9 32 26 17 33 22 33 21 13 19 20 10 16 23 37 39 29 33 32 29 11 10 36 3 13 17 32 18 18 23 8 25 33 22 36 31 1 9 25 20 10 3 25 17 9 7 20 24 24 6 10 33 2 37 13 29 25 33 20 23 22 4 1 32
4032 4668 4326 3101 4345 3932 3599 4375 3470 4995 2526 4275 4903 3008 4526 4235 2963 2717 3160 2751 3126 4487 4142 3019 3403 2619 3196 4080 4831 4747 3047 2848 2581 13 4516 3920 4846 4395 4621 4037 3338 4406 4752 4452 4199 4920 4934 3541 3569 2605 3770 4577 2998 3604 2520 4954 4612 4936 4333 4275 3414 4707 3066 4716 4364 4572 4374 3760 3573 4896 4210 3515 3642 4568 4915 4267 3110 4074 3141 4480 3173 3842 3209 4205 4445 2901 2649 2958 4650 3532 4308 4897 2523 3297 4063 3882 2528 3566 2945 4801 4508 3302 2817 4467 3631 3042 4550 4211 4776 4873 4910 2685 2875 3486 3694 3279 4526 4156 4560 4925 3044 4176 4804 3437 2601 4347 3578 3616 4627 3406 4070 4455 2818 3136 3109 3725 2524 3953 3178 3540 3578 3072 2627 4532 4393 4578 2800 3145 4018 4795 4025 4628 3316 4458 4701 3793 3741 17 4958 3614 4684 3837 3747 3297 4121 3296 3672 4123 4100 4631 3990 4061 2804 4385 4777 4 7 16 10 7 18 1 14 15 13 25 32 1 32 33 0 19 21 33 28 14 38 25 36 30 31 34 29 6 2 19 22 33 14 20 31 34 18 13 16 6 35 2 17 6 26 32 20 14 7 9 29 38 20 13 13 11 23 4 1 3 34 30 10 24 13 11 21 8 14 20 16 37 29 2 3 8 39 22 3 24 3 17 30 6 22 2 24 36 16 4 3 8 16 32 10 38 38 23 36 2 12 31 26 12 20 31 2 29 39 29 9 20 10 34 30 17 2 34 36 5 29 11 24 12 15 20 4 31 37 8 32 8 34 13 22 15 4 23 5 7 8 7 1 32 18 39 31 30 3 18 6 37 38 9 13 7 38 37 24 10 19 39 1 31 2 24 35 8 24 5 4 27 36 11
3358 4195 3648 2805 3986 4646 4135 4495 3572 3521 3183 3775 3073 2746 4382 4807 4688 2721 3696 3748 4076 4432 3177 2760 3470 4310 2767 2523 2804 4111 4453 4627 3363 4650 2609 3675 3723 4616 4513 2754 3623 3000 4314 4839 3172 4352 3172 4398 3375 4321 4069 3965 2945 3959 3133 2668 4883 4292 4118 3880 3351 3460 2884 4424 3349 2521 2985 4957 2665 4886 4869 2719 4887 2554 4520 2877 4258 4358 4457 4462 4095 3795 4767 2585 3207 3190 3325 3014 3998 3035 4217 3447 3414 4423 4096 3123 3286 4940 4176 4749 4566 4146 3574 4048 3619 3662 2552 4808 3381 3423 3857 2914 3007 4762 4314 3369 3842 4431 3756 4210 3836 4535 4686 2858 4789 3281 3122 4266 4047 4221 4577 3683 2539 3509 3249 3039 4901 2753 3267 4770 4674 4629 3737 3320 3467 4457 2909 3311 3622 4523 4415 2810 4213 3343 3831 2792 4484 4361 4821 4683 3017 4792 4713 3835 3013 3727 4793 4627 4247 2891 2640 4036 4363 4723 3471 32 30 21 4 8 9 7 38 37 18 18 3 24 16 36 11 0 23 12 29 8 25 17 1 17 5 25 27 4 13 38 29 1 11 4 4 19 33 15 30 5 35 8 11 19 36 26 9 18 15 35 28 1 19 36 24 37 15 24 13 30 7 24 27 36 16 35 22 30 14 9 1 26 2 3 1 21 24 15 8 29 15 22 32 2 13 34 26 6 18 4 11 10 1 5 13 6 9 18 27 16 31 19 3 8 26 3 39 19 30 23 35 35 5 22 33 26 10 15 8 16 3 28 33 5 7 13 25 23 29 17 37 28 4 29 35 4 34 25 30 2 22 13 21 12 21 20 17 38 22 21 38 18 27 10 24 10 30 6 25 7 28 23 20 38 19 18 24 21 22 6 14 6 14 12
4236 2916 3890 3648 2524 4568 3673 4879 4485 3632 2657 4820 4685 4045 2865 4743 2769 3338 3867 3525 4913 3629 2621 3762 3175 2726 4644 3722 4421 3064 2604 2586 4307 3974 3417 4155 2963 3993 3977 3857 4244 3619 4835 2983 2676 4839 2650 2657 4610 2552 3624 3258 2732 3005 2781 4968 3492 2985 4012 4654 3593 2583 4536 4470 3915 4573 2886 4964 4576 3264 4727 3466 4435 2921 4891 4061 4647 4812 2718 4419 4098 4525 3152 3738 3479 3728 2783 4253 3236 3435 3512 4189 2973 2778 4495 3682 2630 3207 2515 4106 2833 3518 4007 3429 3065 3219 2859 3233 3361 3470 4671 2668 4778 4800 3427 3687 4465 3640 3668 3541 3754 4308 2681 3104 4702 4123 3943 3077 3264 2725 4183 4260 4721 2573 2953 3874 3549 2636 4307 3811 3633 3193 2747 2776 3367 2645 2537 3311 3157 3321 3792 3374 4815 3719 4812 3273 4136 4281 3125 4048 4676 4418 2513 4395 3635 2539 4004 3497 4257 4215 2738 2526 3557 4747 4473 13 39 20 27 17 10 4 20 14 35 26 36 10 27 17 35 9 0 4 4 25 27 8 31 35 21 29 15 34 32 24 11 39 32 17 28 11 23 17 22 29 13 22 6 21 3 1 34 25 38 1 9 23 17 28 38 8 18 23 13 8 23 23 24 27 37 20 22 4 37 5 30 10 23 26 20 28 34 15 20 14 26 6 32 39 7 22 39 39 7 10 8 28 15 3 38 14 28 4 22 25 38 28 37 8 25 31 8 30 29 11 4 26 28 21 1 14 25 34 20 5 10 22 29 1 5 35 27 28 8 22 26 4 36 21 10 28 15 11 37 2 14 14 27 12 12 15 35 8 14 13 26 23 6 11 8 9 37 28 16 36 35 22 24 7 16 18 11 3 22 5 10 6 31 36
3647 2809 3082 2573 3950 2677 3891 4094 4677 4145 3358 3039 2559 3667 3216 4714 4751 2732 3678 4325 3647 3563 3474 4151 4443 3903 4223 2778 2958 3740 3430 3888 3533 4202 2893 4690 3840 4943 4523 4432 4889 3614 4105 2684 4214 3886 4468 4269 3155 3862 4763 4659 4187 4883 4638 3616 2601 2563 3954 2944 3084 3413 4549 4018 4749 4923 3366 3051 2527 3676 2525 4583 3590 4877 3561 2865 3801 4513 15 3978 4566 3424 2750 4113 3887 3563 4712 4641 3831 4840 3508 2646 2807 4812 3407 4730 3443 3953 3332 2905 3865 4944 4067 4937 4640 3664 2997 4242 4032 4644 2892 2798 4340 4707 3649 4864 2778 3647 4268 3530 3758 2579 2686 2925 2517 2515 4838 2885 3400 2878 3421 4006 4813 2681 2906 2967 3179 4250 2858 4705 4933 4911 4380 2780 2568 3058 2955 3067 4372 4849 2706 2894 3341 3210 4579 4298 4405 4387 3009 2592 4070 4864 4797 2607 3805 4278 4740 4689 4793 4787 4846 4924 4002 4287 4140 17 2 5 23 33 22 5 30 32 28 37 32 38 6 37 24 21 24 0 12 27 37 27 15 11 30 10 33 35 2 8 27 37 6 10 13 35 16 18 17 5 19 13 5 9 25 13 29 36 19 24 4 38 32 8 4 15 14 4 20 4 24 34 13 27 36 26 39 13 32 25 29 6 23 8 29 3 3 23 30 3 33 22 35 13 20 26 29 22 18 27 15 17 10 14 18 5 37 11 33 18 9 14 15 2 37 28 30 29 35 9 15 20 20 2 23 22 33 30 12 32 5 32 28 33 18 13 13 22 1 16 23 29 10 13 6 23 20 26 33 37 8 6 20 12 19 29 19 28 35 9 36 11 22 6 16 10 15 10 19 38 1 1 3 20 11 39 37 18 23 33 29 18 2 10
4058 3192 3894 4485 4692 3985 4169 3558 4535 3910 2832 4274 3228 4387 4754 4495 4221 3323 3844 3246 3798 2874 4077 2718 4951 4910 2639 3308 3465 2508 4726 3767 4468 2943 4195 4384 2889 4426 3833 2826 2870 2576 3174 4037 4618 4928 4779 3728 4684 3213 4923 4447 4754 4928 2819 3316 3081 4236 2789 3005 4792 4001 4321 4442 3194 2919 3947 4391 4762 4834 4311 2984 8 3659 2760 4343 3031 3229 4432 3152 3828 3844 2575 3597 2890 3539 3406 4659 2749 4394 3544 3138 3996 4770 4405 3444 3920 4463 4484 4569 2835 3436 3347 3240 4810 4205 2693 4240 4953 4401 3317 4032 3671 2752 3375 4579 3324 2521 4011 4504 2798 4483 3083 3669 4506 3454 4023 3288 4198 4577 3205 3913 3868 4713 2887 3486 3880 4345 4551 4918 2772 3104 3213 4130 3712 4444 2705 3677 4825 2990 2783 2541 4898 4072 2701 4672 3725 3380 4401 3708 3112 2797 3302 3292 2578 4790 4948 4977 4369 3970 3838 4585 8 4655 3145 35 25 19 12 6 13 33 5 27 18 2 16 18 14 13 14 27 34 11 0 31 25 7 12 12 19 35 33 10 28 14 17 27 4 17 22 2 36 4 9 11 1 22 36 20 23 36 15 8 16 19 15 6 26 33 25 19 23 1 38 29 6 11 2 39 5 9 36 33 25 11 33 9 9 30 32 9 14 22 14 21 38 24 35 14 38 9 35 23 39 18 25 12 2 6 26 19 24 14 30 3 15 14 23 38 13 19 23 36 10 27 35 37 33 20 9 21 29 2 21 6 6 29 6 11 24 30 34 28 39 37 14 1 3 34 14 23 18 21 4 22 16 16 9 19 26 9 5 23 2 17 31 15 38 12 17 2 6 22 2 37 27 26 20 10 3 8 31 16 3 10 10 25 26 12
2841 4089 3172 2985 3331 2749 3329 4111 4522 3777 3688 3072 4400 4625 4771 4736 4331 3714 4644 3797 3220 4152 4682 4301 2554 3503 2724 3638 4410 3175 2881 4176 2992 3724 2899 3494 3713 2599 4943 3028 3127 2854 4723 3487 2542 3887 3998 3080 4063 12 3143 2697 4426 2545 3962 2864 3849 4067 4147 4429 3246 4415 4114 3205 3374 3166 4812 2580 3608 2524 4358 3292 2552 3078 3932 4910 3353 4635 4243 2612 2908 4540 4947 4992 3102 4727 4802 3787 4825 4191 3214 3993 4308 2620 4718 2617 2856 4651 3845 4344 4162 4492 3662 4645 2793 3064 2720 3719 4215 2612 3402 4278 4602 3149 3239 4533 4705 4642 2985 3645 3503 4038 4253 2901 2501 4400 3481 3929 2762 4447 3314 4077 3338 3261 4416 4948 2746 4948 2651 4009 4624 2617 4939 3420 4532 3164 3301 3243 3699 3172 3957 2989 3448 4889 3555 3387 3324 2968 4047 4828 3632 4941 4389 3832 3331 4407 4717 2718 2643 2516 4605 4717 4675 3821 4353 31 17 30 9 21 8 9 9 3 15 5 27 7 3 36 8 24 34 8 4 0 10 38 25 23 11 11 3 8 2 29 17 10 37 38 7 8 7 7 12 2 17 37 27 22 8 20 12 32 12 37 30 14 37 29 14 32 15 31 15 18 1 20 17 36 35 8 2 37 20 31 38 39 3 9 9 22 19 34 33 21 31 20 10 29 34 25 7 6 8 35 6 8 18 23 32 15 1 13 29 9 11 34 27 34 18 5 22 11 17 38 10 5 21 31 22 1 33 39 7 4 38 21 6 13 29 18 8 21 5 27 36 14 16 8 23 21 17 29 1 7 23 18 37 9 34 26 20 38 25 12 24 36 23 8 24 38 20 9 32 37 39 28 21 11 29 16 11 2 13 15 24 5 33 2
4947 2690 3096 4336 4980 2520 4532 4977 4828 2774 4450 3068 2761 3108 4884 3715 2716 3232 3071 3262 2954 4701 3050 4872 3224 2718 2754 4881 4227 3381 3470 3375 2799 4807 3937 3336 3713 3089 4570 4695 4467 4375 4824 4769 3214 4204 2985 4824 2786 4530 4637 3324 4855 4993 3650 4929 2816 2934 2555 3034 4270 2961 3903 4298 3303 3254 2809 4612 3925 2620 4985 3504 4094 3537 4016 4606 4069 13 3617 3308 4940 3399 4809 3917 2985 3669 3480 3697 3636 4242 4354 3707 3760 4894 2547 3941 4094 2672 3266 4538 4998 2703 2575 4099 3961 3463 4832 4013 4620 4871 4467 3802 4935 4525 2522 3194 4196 4883 2762 2977 2678 4918 3934 4054 3939 3360 4317 3872 3609 4064 2805 2555 4979 4105 2594 4395 4108 4299 2755 3250 3924 3271 3668 3143 2525 4018 4120 4344 3176 2720 3021 3288 4398 3397 2565 4137 4503 3677 4991 2811 3350 2930 3373 3014 4456 4030 2575 3188 3286 3408 4307 4699 4317 3594 4180 37 8 21 5 25 1 35 6 11 24 28 14 17 7 26 19 13 13 33 12 34 0 18 37 7 32 20 36 22 16 17 28 22 35 28 37 14 14 31 22 16 32 12 23 38 34 9 18 13 37 7 32 14 24 11 4 4 24 9 22 22 23 2 31 34 23 20 28 29 25 24 37 23 36 20 25 22 18 16 11 36 23 26 10 1 1 32 34 36 29 38 10 30 1 19 23 6 32 37 14 26 31 27 9 30 31 1 8 2 25 20 10 14 28 35 22 39 7 3 34 29 12 22 35 35 20 12 21 10 12 8 14 4 2 26 7 17 19 11 13 11 31 31 7 26 33 6 21 17 7 37 28 6 19 28 37 29 4 20 10 14 39 3 10 25 37 12 6 35 8 6 11 37 7 8
4119 4628 3812 3113 3825 4731 3818 2978 4844 4582 2738 3988 3601 4250 15 4075 4051 4509 3158 3563 4248 3977 2904 2919 4264 3666 3044 4274 3998 4472 3813 4255 3006 3429 3757 4236 3765 3337 4164 4554 2976 3986 4589 2967 4631 3306 4863 3901 3708 4302 3137 3631 3164 4852 2739 4524 4742 2850 3391 4528 4134 4585 3562 2850 4589 3761 3170 2732 4669 3638 3593 4111 2602 3469 3557 3060 4220 4945 3522 4381 3859 2985 3780 4861 4017 4343 4511 3574 3210 4259 3933 3063 4593 3714 4846 3871 4419 3480 3893 4335 2546 2548 3506 3717 2652 2769 3659 2637 2883 3456 4201 4120 3039 4149 4699 4336 3076 4769 2777 2863 4521 4378 4355 4367 3129 3832 2644 3196 3151 3624 4796 3722 4787 2734 4175 4531 2919 4178 2779 4353 3425 4419 3966 2764 2538 3419 4291 3087 3359 3644 4093 3524 3048 4676 3707 4314 2774 2863 3595 3353 2590 3244 4114 2550 2866 4943 4931 4354 3622 3684 4407 4835 3406 4615 2974 34 18 21 34 21 25 19 33 18 12 13 36 23 6 3 21 18 15 30 12 3 37 0 20 13 31 28 35 2 19 36 26 15 21 27 20 29 34 20 12 28 31 20 21 9 21 23 26 10 21 33 17 29 26 2 20 3 6 18 19 8 30 13 24 14 16 9 14 32 16 32 20 10 17 6 39 2 22 3 36 33 20 29 23 33 21 3 20 32 8 13 22 24 15 38 2 25 1 11 38 32 8 11 33 31 9 5 12 17 4 7 18 20 9 38 31 31 34 24 34 9 29 16 12 31 13 10 7 19 21 7 18 30 21 22 35 22 20 37 32 19 21 28 35 23 30 3 19 29 10 22 21 20 2 10 25 31 7 36 25 15 38 18 30 18 28 11 13 7 12 23 31 22 11 11
3745 3544 2509 2536 2982 3011 2940 2813 3323 3342 4146 2796 2626 4230 2862 4909 3680 3980 4673 4247 2500 3374 4328 3404 2598 4317 2951 4823 4927 3876 3477 3414 4677 4192 3777 3598 3971 3223 3598 4521 3867 3735 3443 4003 4026 3476 3440 4957 3333 2731 4280 3714 3655 4055 3551 4040 3605 2550 2835 3216 2881 2684 2856 2666 4706 3030 4025 4786 3832 4058 4053 4345 3948 3718 3118 3574 3248 4209 2820 3889 2735 2553 4237 2832 4959 4535 2698 4104 2554 4541 2553 3155 3730 4768 3429 3654 3517 3214 3439 4566 4100 4008 2989 4901 4002 4663 3319 4800 4965 4173 4004 2660 4266 3004 3276 3936 2783 3983 3326 4578 3895 3420 3122 4136 3046 2687 2651 2865 2798 2704 4571 4560 3957 3208 2596 3099 4322 3730 2610 4971 3770 3791 4081 4595 2832 3682 2809 3673 3707 4528 3850 3566 3401 4249 2861 3704 4782 4151 2952 2606 3285 3495 2848 4232 3717 2550 3815 2858 9 4684 2534 4424 2814 4008 4313 5 5 26 12 29 12 31 11 33 2 13 2 21 15 16 4 26 27 34 17 13 13 18 0 23 17 21 39 38 14 8 33 36 28 37 34 27 22 34 27 18 28 9 25 11 37 11 1 6 16 33 10 36 27 28 3 11 28 33 24 24 13 26 35 31 35 22 12 38 27 24 29 12 18 18 10 16 6 38 23 6 9 36 33 39 22 22 26 27 17 15 35 39 16 33 27 15 2 37 3 32 26 19 15 27 26 30 35 12 38 38 21 6 33 6 20 33 9 25 13 2 8 15 17 32 29 1 1 23 12 18 3 11 36 32 22 39 22 15 9 30 3 18 32 7 6 37 16 14 25 8 10 30 19 4 15 12 2 15 36 6 7 14 4 3 30 21 13 32 32 35 15 11 4 13
4930 3702 3133 3546 3396 4966 4677 2868 4845 4363 4716 4414 4453 4756 3508 3326 4400 4737 4627 3265 4554 4296 3753 4058 2858 3634 4111 4987 4015 4369 3343 3551 2725 4851 3539 14 2947 3283 4356 4322 4928 4632 4170 4960 3794 3777 3184 2603 2622 4949 3692 2559 3167 3709 4349 3531 2884 4613 4692 3065 3940 4750 3659 4561 4217 4191 3340 11 4890 3752 3022 3878 3873 4586 2939 4611 4375 3209 4982 2963 4826 2746 4395 4171 2798 3568 4669 3823 4410 4350 4335 4451 4233 3237 2741 3909 3451 3267 4520 4546 4354 3392 4210 3920 3453 3815 3931 4126 3662 3974 2522 17 4057 2818 3942 4965 2743 4611 4385 2872 3974 3990 4172 3095 4228 3669 2696 3045 2794 4835 4576 3860 2900 10 4501 3313 3260 3925 2503 3307 4143 3751 3648 3296 4139 2507 3843 4561 3979 4022 2847 3744 3459 3288 4587 3284 4744 2735 3977 3098 2634 3746 4183 3235 3247 2861 3822 2526 2565 4305 4801 3056 4496 3199 4808 35 34 23 25 17 30 20 9 29 10 19 5 19 2 31 20 5 8 26 18 30 7 9 37 0 39 8 39 31 21 6 9 22 37 36 17 7 26 36 15 27 10 35 10 19 29 38 36 28 36 13 34 39 31 28 14 27 39 4 7 22 33 1 28 4 4 2 18 29 1 16 24 21 7 19 12 23 23 7 29 25 33 11 19 5 36 22 27 32 23 14 29 6 12 33 17 4 37 15 31 8 19 31 15 21 22 17 4 2 9 38 15 10 19 32 2 9 31 24 9 32 5 10 24 13 23 34 24 27 30 20 38 18 23 13 19 21 21 36 15 39 32 7 25 12 6 8 15 1 32 14 15 13 22 32 30 22 1 35 32 30 33 4 4 22 39 35 2 4 18 14 12 34 37 34
3003 4941 3006 3226 4413 3480 4184 3800 3834 3656 4072 4831 3090 4127 4325 3182 2541 3871 4742 4170 4597 4806 3351 3165 3157 2556 3335 4644 2607 2898 2742 3061 4838 4464 3144 3456 4601 4798 3935 4360 3291 3469 2938 4080 3957 2524 4198 3888 3737 2876 4108 4087 3654 3768 2629 2961 4194 2683 3716 3589 2945 3528 4786 4058 4310 4039 3805 2669 4083 3445 4692 2630 2725 4707 4520 3272 3085 2590 4174 4779 4052 3115 4608 2858 2723 3900 4492 3909 2835 4341 2874 3821 2541 4013 3994 4049 4476 3862 3547 4954 3227 2983 2666 3730 2966 3655 4581 4700 2860 2889 3899 3634 3767 4876 4795 2669 3911 4278 2567 4041 2548 4398 4560 3393 3058 4715 4502 2711 3851 3941 4277 3246 3289 3167 4063 3000 3937 3632 3423 4713 4689 3303 4690 4484 2807 4056 2840 2542 3748 2543 4815 4120 4241 4356 2564 3060 3783 3258 4922 2683 3935 3746 4624 3367 3004 4311 3593 3301 2711 3590 3048 3929 3505 4157 3519 19 9 2 25 18 11 7 31 35 17 18 28 33 25 1 19 19 11 4 27 2 6 37 27 7 0 6 20 2 21 13 1 6 27 32 27 15 34 11 38 2 8 32 38 28 15 21 39 17 9 25 28 32 7 39 32 35 14 11 26 17 4 13 26 39 21 11 24 4 22 19 24 16 3 22 16 23 9 32 34 17 39 15 4 16 39 4 4 19 27 3 19 31 12 35 17 24 27 33 33 10 30 36 14 36 35 31 6 31 12 3 20 32 18 21 35 4 18 13 32 6 39 7 3 10 24 2 27 37 8 20 14 27 38 23 33 13 17 3 32 4 25 29 2 36 4 28 28 25 16 6 9 4 28 34 36 27 24 11 9 4 37 13 26 26 9 39 37 19 26 32 33 33 3 2
3529 4775 4398 3295 3392 3823 3994 4068 4971 3742 4300 3838 4119 2686 3184 2922 4783 18 2570 3670 4085 3869 3656 2814 4853 4165 4179 3776 2985 4917 4403 4005 3499 4761 3152 3115 3009 4074 4088 4164 3438 3064 4346 2568 4615 2755 4986 4068 4444 3467 2590 2938 3785 8 3433 2940 4698 3129 4655 3780 4816 3212 2591 3879 4711 4361 3265 4887 4023 4232 4912 3238 3111 3250 3112 3893 3152 2537 3843 4923 4078 3977 4725 3938 4038 4727 4133 3541 2638 2968 3723 4235 4021 4051 2692 2842 4228 3067 2614 4425 3728 4601 2596 4856 4563 2699 2647 4356 2651 3889 2973 2675 2826 3077 4462 3206 3503 2699 3929 3060 2989 4473 4761 2785 3126 4523 3619 3062 2900 4617 2871 4394 3910 4618 2570 4570 4925 4537 3891 3226 3165 3504 3281 3026 2928 3873 2953 3572 2680 3836 2817 2679 3706 4999 3185 3338 4490 3726 3584 4649 3372 2907 3780 3594 3398 2583 4370 3765 3240 4224 3341 4818 3990 3361 4426 24 23 33 25 31 37 29 2 25 25 22 6 11 35 32 19 15 5 15 1 11 4 28 34 21 3 0 9 39 6 20 34 1 12 34 16 39 34 17 27 25 31 30 31 7 39 28 33 27 33 21 26 37 11 19 3 25 3 34 28 17 6 39 33 16 5 19 20 8 14 31 6 5 38 33 20 11 22 16 23 10 1 14 25 15 18 16 10 32 30 35 12 33 30 8 26 11 1 38 4 18 36 9 28 39 29 16 8 2 19 10 27 36 24 2 4 7 2 4 7 23 30 13 10 23 34 39 14 14 27 6 5 30 28 11 11 35 2 29 26 20 12 30 14 20 6 5 29 7 26 13 14 11 11 4 19 25 18 35 2 12 21 8 4 11 27 21 29 26 4 32 22 16 36 29
4239 3419 3046 4673 3403 3286 3054 4752 2520 3680 3111 3590 4096 3508 4761 4810 3049 2988 2789 4206 2800 3032 4798 3064 2755 3667 3779 3388 2739 3710 4423 3376 3490 4377 2811 4668 4031 3710 3619 3108 3709 4158 4228 4730 3815 3235 3142 2846 4455 3823 4557 4337 2507 2557 4395 4580 4029 3474 4232 4773 4459 3882 3003 3842 3470 2594 4903 4927 4881 2962 4743 2925 4990 4454 3410 3168 3925 3145 2600 3628 2575 2557 4715 3118 3737 4160 4847 4836 3330 3686 4932 4248 3829 2558 3204 4609 3968 2832 2848 3571 3880 3964 3622 3477 3582 4482 3616 4863 4068 3821 4021 4436 3474 3177 4006 3513 2927 4972 3889 2852 3486 3484 3385 3597 4889 3562 3324 3842 4864 3218 4807 4863 2600 3836 3987 2593 2813 4504 4791 4070 3903 4447 4322 4556 2880 4236 4667 3538 3530 3359 4451 2587 4400 4968 4882 3632 4686 4618 3308 3837 3973 4982 4103 4711 3707 3325 4908 3141 3295 3736 3082 2518 4245 4276 2985 8 34 14 34 26 10 8 25 6 26 5 12 33 24 28 28 22 15 29 9 21 3 20 26 3 14 14 0 37 6 18 24 10 39 3 12 34 19 3 9 17 22 25 5 23 27 6 25 17 6 28 2 3 39 10 33 26 22 37 36 11 25 14 6 29 1 27 18 34 15 18 32 17 30 5 1 21 5 23 25 2 4 29 8 23 37 26 19 32 27 28 39 29 20 7 27 6 27 21 20 6 19 17 39 12 5 16 25 9 35 20 18 37 36 24 8 20 4 36 12 20 27 4 31 26 11 31 8 36 1 24 36 7 36 3 36 20 28 34 33 12 14 10 25 14 5 18 11 1 1 32 38 18 7 5 28 23 17 4 24 22 8 31 30 4 4 36 3 37 8 11 36 13 5 1
2790 3366 3234 3639 4408 3551 2669 3270 3765 3422 3285 4919 4794 3311 3280 3402 4401 2644 4465 3151 3332 3524 4601 2500 3654 4384 4010 4216 3048 3775 3392 4101 4065 2799 4924 3959 3522 3225 2737 3786 2747 4942 2916 3185 4566 2660 2782 4793 2954 2987 2867 3775 3290 4899 4897 3383 2807 4840 4054 4636 2850 3429 4002 3956 2856 4593 3674 4312 4844 4862 3047 3976 4982 2569 2736 2891 3830 2956 2951 4479 3390 4011 2885 2654 4610 2980 3345 2992 2713 4438 4351 3582 3956 4359 3570 3094 3424 4671 4021 3946 4646 4510 4437 4499 3493 2869 3668 3567 3697 4192 2885 4134 4201 3749 2719 3709 3384 4470 3878 4542 3184 3837 4795 4491 4150 3242 4606 3045 3097 2651 4609 3217 2751 4087 3951 4819 3024 4199 4261 4739 2651 2604 2734 4208 3778 4290 3293 4132 4649 3351 3190 3947 3919 4024 3601 4649 3143 4755 3842 3650 4367 2555 3213 3657 4844 4968 4783 2513 3125 3882 4475 3072 2659 4255 3005 2 14 3 28 23 8 16 12 27 12 34 20 28 32 19 17 23 14 35 6 38 35 25 29 1 34 24 37 0 4 20 21 28 13 27 3 1 39 9 31 27 29 11 21 39 10 4 14 14 26 13 2 22 18 30 39 36 6 15 9 17 7 19 26 29 22 2 35 3 9 35 17 2 10 20 26 6 29 10 31 29 10 12 1 6 16 5 19 12 8 9 38 31 5 16 4 30 30 32 38 9 8 35 8 9 32 23 29 18 22 9 21 1 17 17 2 24 34 30 23 6 33 3 31 10 2 32 16 4 34 9 15 12 15 14 30 29 18 17 19 5 12 20 9 8 20 5 5 38 12 30 28 1 38 18 39 27 15 18 28 1 35 18 10 32 27 4 34 38 7 18 32 37 35 31
2738 4718 2735 3312 2959 3519 4678 4752 3311 4516 3136 4908 4088 3475 2996 3003 2935 2793 4442 3810 4503 4179 11 3447 3572 3299 3418 4739 2535 3015 3313 2847 3024 4312 3112 3689 3956 4202 2818 3358 4526 3334 3861 4104 4924 4166 4227 3614 3796 4141 3629 2801 3104 4086 4892 4817 3102 3747 4330 3609 4101 2792 2664 4968 3664 4189 4538 4075 4445 4413 4990 3720 4080 3705 2533 2591 3744 3674 3434 4802 3866 3819 3445 3904 4134 4011 3377 3072 4064 4674 3657 4324 4809 3565 3733 3621 3168 4623 3298 2740 3573 3588 2821 3390 4676 4408 2994 4583 3306 2585 4419 2634 2531 3038 4153 2536 4273 4692 3977 4743 4774 2668 2690 4092 3596 3616 4811 3866 4527 4792 3116 4516 3951 4960 3071 4873 3219 3207 4110 3154 2693 3686 2866 4740 3650 3822 2709 4471 4436 2508 3340 2602 3814 8 3853 3855 2828 3752 4010 4870 2554 2814 10 2764 3905 3207 3423 4669 4681 4814 3032 4293 3546 3881 2502 4 21 12 23 28 31 15 27 7 19 22 20 16 37 18 8 18 10 36 20 28 17 7 39 22 39 37 36 32 0 10 13 7 26 23 16 34 19 28 34 17 32 30 37 22 11 4 22 11 30 3 6 23 21 23 11 36 26 15 13 6 31 3 12 31 34 1 9 13 37 19 16 20 23 26 11 28 11 23 14 16 2 9 25 36 25 6 28 3 2 4 16 7 9 22 9 24 39 8 10 28 37 24 39 32 26 22 23 38 26 15 8 29 22 4 14 39 4 4 33 24 6 38 21 25 26 23 15 22 13 5 18 21 13 3 7 32 30 29 1 19 31 36 39 7 13 13 32 3 9 5 7 3 2 13 2 6 33 28 38 34 20 7 28 39 9 32 14 14 21 34 5 2 16 10
2512 18 4830 4527 3395 2507 4637 4291 3723 3790 3130 3656 4711 2989 4100 3312 2522 2621 3674 4774 2551 3769 2553 4594 3222 3503 4772 3612 2996 4485 3535 4346 3445 3530 3863 3441 3472 4315 3874 2634 4290 3691 3828 4121 4513 4153 4518 4425 2520 2659 2733 4003 4626 4113 3219 3030 2610 4663 4221 2920 3557 3791 4557 3047 4715 4397 2961 4106 4592 4794 4557 2510 4909 3589 2685 4849 3983 4655 2516 3002 3180 3714 3390 4511 4200 3855 3237 4035 4839 2955 4791 3237 2891 3461 3450 4156 2919 4119 3559 3204 4783 4280 4386 3498 3192 4111 4716 4217 3043 3559 4980 3478 4253 4838 4534 4364 3699 2823 4478 4481 3331 3096 3553 4443 4466 3673 3202 2712 3493 3601 2820 3086 3474 2909 3138 4873 4551 4776 3530 4491 4318 2833 4141 2945 3034 3051 4392 3213 3897 4266 4061 4553 4075 4120 3384 2575 3566 4716 4145 3056 3779 4635 3425 3375 3492 4683 2931 2617 4398 2900 3981 4772 4859 3118 3295 5 36 21 25 15 36 17 10 22 32 9 6 8 2 21 31 39 7 36 36 16 20 14 23 36 7 32 35 14 27 0 12 28 23 1 32 23 15 33 26 20 8 19 16 32 15 22 36 13 15 25 18 34 28 39 21 22 27 31 37 1 27 31 2 8 37 6 20 27 35 17 16 15 38 10 23 5 33 11 32 18 35 28 33 13 37 23 22 15 31 2 13 36 12 10 31 34 28 7 39 3 8 35 13 38 9 19 33 11 38 28 20 34 36 4 29 31 4 25 30 28 1 26 39 15 35 11 9 34 2 30 31 39 4 13 23 39 32 12 13 38 3 13 5 15 5 16 24 30 7 29 39 7 22 10 21 32 14 32 28 7 32 18 21 27 17 22 29 13 36 37 22 39 30 26
4070 4554 2675 2934 4356 4409 2657 2657 2795 3341 4621 3469 4905 3263 2548 3838 2925 3217 2552 3215 3235 2789 4215 4950 4394 3022 3018 4379 4310 4141 3421 3984 4602 3175 2562 4749 2543 4335 4648 4111 3482 4028 3184 3210 3777 4325 4478 2557 3694 4015 2663 4654 2642 4541 2678 3158 3976 4713 2793 4264 2616 3144 3983 4337 4045 3729 3792 3129 2696 4654 3588 4987 3381 4058 4389 4547 3442 4349 2942 2776 4071 2669 4840 4540 2911 5 4664 3625 3599 4955 3733 3951 3540 2702 4507 3384 3470 3063 4475 3101 3837 2713 2691 3638 4179 3115 3222 3222 4332 3303 4676 3708 4944 4614 3622 4089 2788 3145 3724 3006 2524 3973 3948 3169 3786 4625 3091 4752 3057 3604 2527 4421 4610 3419 2865 2564 4876 3833 2570 3372 4108 2795 2602 4813 4776 3555 3714 2741 4158 4239 2900 2982 2820 4502 3341 4485 3250 4197 2958 2860 3831 3341 4905 3018 4652 4159 2696 4259 4615 3687 4294 4974 4438 2894 4858 7 35 4 30 31 15 15 24 31 11 26 6 20 19 35 29 36 18 16 24 11 25 35 13 17 30 19 35 9 9 15 0 4 23 19 30 1 9 36 35 5 21 4 19 23 32 36 15 23 32 7 4 31 3 4 23 8 30 20 29 2 4 15 38 36 13 22 22 24 16 18 29 6 35 13 7 16 31 21 10 29 25 3 12 33 22 29 20 23 21 13 32 39 10 30 37 28 25 12 12 19 3 6 19 19 17 5 9 4 30 24 38 16 23 20 13 6 1 15 12 14 37 38 28 9 20 24 37 20 37 39 10 2 38 27 27 3 26 21 27 7 5 25 38 27 12 37 3 34 16 13 36 26 39 16 30 27 2 9 14 19 3 16 17 24 23 31 21 29 18 39 12 13 25 38
4262 4874 3064 2875 4663 3116 4222 3726 4384 3435 4402 3576 3274 4645 3556 3402 3485 2986 4134 3774 4630 4755 3873 4342 3567 3318 2730 4081 2947 3060 2893 4084 3525 4662 4199 3874 4770 4834 3067 3075 4238 2805 4383 2603 4757 3692 3428 4759 3043 4740 3133 3648 4010 2743 2565 3952 3978 3144 2936 3230 3021 4939 2684 2642 4747 3500 4019 3145 3555 3524 3084 4860 3961 3349 4091 2791 3098 3757 4900 3331 3640 4305 4792 4364 4410 3769 2717 4989 3572 4977 4423 2942 4413 3129 4372 3693 4182 3880 3785 2925 3175 4451 2908 4566 3514 4590 4570 4686 4707 4536 2685 3470 2794 3221 4265 4890 4959 4403 3120 4617 4907 3375 2761 4974 3218 3721 4114 4098 3462 4752 4385 4155 4901 4247 3224 4293 4216 3022 4240 4289 4795 3370 2634 3303 2695 2710 2905 2840 4891 4812 3049 4960 4695 3010 3492 3204 3563 2505 4876 4430 3468 4158 4692 4445 4895 4088 3013 2711 3220 3929 4666 3807 3015 3752 4292 5 4 3 22 27 6 2 11 8 25 7 3 12 3 38 2 21 28 28 22 15 19 1 23 23 17 36 28 2 31 36 6 0 15 8 28 28 11 32 32 11 1 8 37 9 6 25 17 35 17 33 20 5 36 6 19 2 26 19 6 27 22 38 17 24 7 37 33 1 14 30 14 34 29 36 11 7 30 35 14 6 35 15 15 20 21 7 37 17 34 19 35 16 6 10 30 26 3 33 4 7 17 20 24 26 26 13 36 6 25 28 14 24 19 22 10 7 23 22 30 9 13 33 6 24 38 1 22 28 31 18 36 14 3 38 34 6 4 7 34 1 32 24 12 11 36 6 1 25 26 18 9 23 34 20 10 1 14 38 28 18 2 2 8 7 31 16 39 27 17 21 29 15 1 1
4918 3600 4688 4987 2613 3022 4262 2537 2574 4715 4474 4676 4418 4028 2810 3894 3977 2545 3564 4164 2899 4086 2545 3387 4231 3903 3461 3632 4425 3805 4556 4387 4332 4148 3591 4443 3353 4760 4463 2561 4295 3202 3538 2772 4552 3583 3506 4148 2797 3861 4884 2748 3144 3984 3795 3818 3069 4534 3230 4302 4760 4016 4449 3210 3784 3056 2742 3212 3431 4346 3947 3462 3178 3359 3761 2929 3835 3515 2954 2657 4448 3078 2807 3015 3791 3959 4653 2709 2732 3803 4590 4433 3743 4327 4934 4517 4157 3859 2582 3738 3788 4067 3149 4211 3482 4323 3515 4412 2543 3564 2903 4979 4891 2942 2970 3622 4720 4551 2775 3613 2836 4962 3687 4386 3366 4143 4005 2976 3420 4077 2685 4019 4348 4971 2569 3307 4588 2692 3313 4504 4562 3774 2541 3846 4216 4982 3272 2575 4725 4002 2865 2633 2529 3583 4146 4073 4552 4262 3565 4909 4410 3521 3093 2659 4557 3847 3885 3182 2513 3729 4254 3432 4967 3397 3832 22 5 38 21 29 23 23 26 17 30 26 30 10 37 30 8 23 20 36 12 16 28 34 11 17 32 1 6 23 33 23 10 39 0 13 33 32 12 12 16 30 39 12 38 10 29 24 36 3 31 25 22 10 27 15 5 16 28 16 16 3 7 35 22 16 31 33 36 15 37 27 19 34 37 27 16 26 8 21 10 31 11 23 1 13 10 19 20 4 19 12 6 18 4 23 37 11 21 12 3 24 34 17 35 27 21 36 12 11 38 17 39 6 19 14 37 31 21 3 32 12 5 1 17 19 1 22 34 9 13 17 22 12 3 28 8 25 36 9 11 3 37 33 38 9 19 15 2 23 18 16 6 9 24 31 27 20 28 11 21 5 29 5 5 31 8 36 17 22 6 15 1 2 12 35
3288 2548 3847 4918 3269 3602 4774 2567 4203 3624 2663 2508 3355 2720 4199 4181 4515 2591 3571 3940 4921 3200 4226 3018 3459 3167 3003 4532 4061 2598 4345 3894 3630 4231 3261 4858 3035 2759 2656 4868 3527 4339 3359 4952 4159 3420 3144 2911 3102 2926 4233 4691 4723 3826 4994 3352 3606 4448 3417 3985 4665 3335 2576 2541 2655 2985 3081 2949 3741 4791 3160 3639 4987 2591 4120 10 3085 3222 4082 4912 4462 3512 3512 4429 3847 2780 4585 2736 2987 4707 4005 3929 3178 4875 3701 4855 3210 3759 3987 2759 2991 3705 4627 4602 3349 4942 4305 4582 3351 4954 4535 3002 2554 4280 4950 4933 3554 3223 4446 3110 2742 2851 3903 3937 2630 4459 3251 4084 4971 2798 4161 4865 3825 3176 4194 3518 3310 2554 3229 4362 4310 3337 2520 3416 4901 3209 2888 3610 4949 4023 3937 2923 2906 3637 4251 2656 4703 3864 4577 4638 4822 3889 3227 3890 4439 2862 4561 4080 3803 3828 3569 4578 2727 3150 3622 3 11 31 30 31 11 31 35 27 14 35 36 37 36 11 31 24 37 15 38 36 2 2 37 39 10 4 20 25 3 23 9 32 34 0 9 6 35 6 27 11 11 7 29 20 13 29 23 34 7 3 22 28 18 30 22 13 2 25 36 12 37 8 37 30 1 20 31 21 33 11 11 21 17 33 10 6 29 22 9 13 38 4 23 32 21 23 15 38 30 37 31 3 36 38 39 2 21 2 32 29 34 17 13 33 17 19 10 34 29 18 26 37 17 26 36 24 4 7 38 18 30 18 33 16 6 11 9 20 39 39 14 12 25 20 5 3 18 32 4 19 25 32 33 26 38 19 21 34 26 34 9 35 17 27 10 12 30 35 18 38 21 24 37 10 27 10 29 4 22 11 3 24 35 17
2916 4299 3868 3670 4564 3698 2819 4819 3398 4849 2743 2931 3881 3864 3938 2817 4654 4415 3515 4885 4450 4534 4037 4083 4108 4246 3524 4827 3419 4120 3132 3131 3067 4326 3442 4327 4522 4032 4448 3396 4428 3790 3844 2693 4990 3470 3413 19 3679 3510 3266 4781 3850 4640 4461 3977 4666 3628 4185 4605 3387 2768 3951 3456 4885 4349 4602 4122 3327 3210 4161 4722 4698 3032 3728 3304 3209 3087 3517 2882 3732 4789 2717 4155 4678 4278 3169 3121 2987 2527 3254 4184 2926 4656 3275 3609 3315 2554 4380 3334 3780 2774 2802 3979 4158 3276 2927 4780 3328 3863 3912 2692 3796 4213 4944 2548 2913 3967 3602 2689 3132 4826 4346 3551 4043 2725 3517 4011 4066 3046 2772 3988 4512 2567 4270 4021 2985 3338 4723 4499 4176 3597 3666 3366 4277 3960 3320 3887 3396 2802 4215 3518 2639 2959 3230 4085 4319 3658 4432 4002 2768 4947 3977 3813 4572 3564 4825 4897 2656 4742 4062 3926 3056 4674 4035 36 9 1 1 12 5 25 1 27 28 13 34 35 12 39 24 26 24 3 6 9 20 38 37 7 2 23 5 2 29 34 27 3 36 17 0 10 30 33 16 38 29 26 23 35 31 11 7 6 36 25 31 18 20 36 13 30 38 25 30 24 23 36 18 1 8 36 19 35 26 29 3 38 6 24 22 7 27 25 14 27 22 19 9 38 12 27 7 17 23 15 33 38 35 13 33 15 18 20 20 17 8 4 36 1 28 2 16 21 19 25 17 24 9 3 21 3 22 20 2 21 34 31 23 28 16 23 2 20 29 20 1 22 5 1 1 1 35 17 7 7 37 30 18 18 37 38 14 3 30 22 17 13 37 5 7 36 1 17 34 33 22 37 5 4 15 14 27 1 10 23 22 23 27 10
3219 2998 4867 3403 4412 4668 4150 3593 4613 4997 4197 2883 4050 2781 2669 3108 3248 3406 3572 4372 4977 3170 3721 3175 3978 4439 2541 4986 4026 4566 4132 4771 4831 4997 3799 2815 2687 2545 3814 4186 4124 3521 4837 4608 3147 3483 4963 4724 2533 3733 4499 3106 2867 2764 3494 3045 3360 4205 4385 4670 2766 3965 2535 3257 2666 4498 2719 2556 3216 4670 2526 3924 4887 4863 3813 3036 4361 3547 4868 4881 4869 3013 4704 3896 4692 3724 3997 2610 4494 4003 3269 4162 3493 4981 4662 4749 3559 3381 3186 3751 3923 4001 2608 2591 4537 4926 2973 3363 4379 3567 3449 3776 2707 2734 4127 3070 3823 4708 4244 3448 3771 4654 4069 3188 4411 3745 3632 4097 4850 4979 2938 3895 4641 3807 4497 3685 3829 14 4349 4176 4610 3121 4089 3529 2799 3317 2586 4039 2523 3656 2608 4542 3578 3963 3852 3130 4801 2958 4411 4881 13 3121 4082 4354 3118 10 4158 3150 4426 4273 2786 2746 4279 3189 3380 33 29 20 23 22 27 39 39 9 26 20 33 13 34 20 9 17 35 13 19 9 17 9 33 26 16 37 35 21 1 12 2 25 26 11 16 0 23 13 21 23 37 29 30 35 8 9 35 39 22 24 6 10 10 18 16 18 12 30 10 14 30 3 30 33 13 13 27 31 34 26 24 31 38 9 4 19 32 21 4 27 3 23 39 4 13 17 17 39 11 7 37 11 23 28 12 38 38 27 20 13 11 8 33 21 5 5 17 11 24 3 5 7 27 38 37 12 12 13 4 22 26 13 8 14 37 9 39 36 37 28 35 27 18 24 21 1 38 2 15 17 26 35 25 30 8 24 7 36 14 31 5 38 33 11 1 38 12 30 38 10 16 1 39 5 13 6 10 20 14 23 17 12 27 22
4832 2825 3722 4546 3355 3142 4739 4594 3527 3855 2525 3554 2565 3115 3336 3925 3194 2927 4332 6 3906 3574 2949 2990 4387 4173 3796 3244 4255 4380 3556 4313 4932 2984 3655 3183 2520 4839 4240 4221 4480 3940 3423 3989 4221 3872 3789 4886 3465 3145 4523 2877 4384 2806 4047 3516 2971 2776 2930 3554 4420 3343 4243 2801 3404 4853 4457 3903 4994 4742 4413 3427 3218 3906 3180 3588 3853 4378 3440 2830 4705 3160 2796 3735 4175 4144 2617 3224 3016 3461 4315 4144 4215 4126 4561 3302 2898 4167 3275 2721 4323 2603 3563 2999 3213 4205 2502 3848 2561 7 2663 2629 4432 4317 4560 4867 3150 4857 3419 4425 3617 4385 3352 3593 3005 3242 3890 3113 3125 4646 2813 2895 3595 2994 2814 3506 4859 4557 3124 3651 3641 3444 4242 4448 2514 3501 4435 4495 3842 2990 4059 2867 2723 4933 3614 3628 3917 4911 4996 4973 4276 2538 3221 4252 4036 4752 3740 3379 2607 3312 3133 3393 4551 3443 3745 29 2 25 17 19 20 39 35 29 17 6 30 37 24 10 29 35 37 38 26 5 14 23 34 35 14 39 18 17 7 17 19 11 17 1 20 4 0 1 37 10 11 20 11 28 29 31 27 19 21 31 37 17 23 34 4 15 14 1 21 16 12 10 36 19 4 17 33 3 12 32 24 14 38 8 27 16 14 1 22 4 6 38 25 14 17 37 35 10 4 37 15 3 27 32 35 7 10 30 17 13 23 2 31 25 5 34 33 34 37 30 37 26 24 33 10 31 20 27 18 2 2 10 29 10 39 36 38 34 30 32 38 6 10 10 25 10 29 8 10 22 12 13 19 13 14 26 12 24 19 10 30 15 17 21 28 30 34 10 10 24 28 20 21 24 37 26 1 37 28 34 39 30 16 10
2817 4572 4013 4929 3579 4717 3349 2908 3484 4985 4714 4887 2972 16 2872 4218 3287 4538 4888 3736 3485 4462 4550 4003 3715 2503 3815 2736 4268 4296 4789 2662 2613 3704 4820 3385 4402 3134 3090 2558 3797 4905 4462 2582 4715 4890 4446 3164 3134 4294 3645 2720 4612 3784 4128 2682 3202 4667 2909 4831 3944 4436 4824 3656 4891 3724 3097 4216 2515 4448 2870 4743 4993 3703 3796 2661 3713 4087 3034 3562 3345 4608 4584 4479 3248 2978 3793 4923 3324 2517 4938 4064 3364 2684 4833 4076 4565 3262 4155 3482 4199 3959 3162 4961 2547 4498 3231 3385 2793 4922 3082 3121 4013 4161 4568 3481 4202 4066 3194 4529 2550 4899 4983 4197 3534 3069 4043 4762 4018 3712 3947 4973 4970 3687 3667 4058 18 3372 3875 3448 3015 3732 4529 4865 4990 4284 4059 4509 3209 4859 4677 4770 3276 3284 4883 4676 2901 3265 3906 2888 2964 4089 4692 2951 3359 4332 4041 3753 3355 4988 3481 4119 4950 3885 3385 29 2 9 24 14 9 23 34 39 35 31 7 34 30 8 4 33 12 8 27 3 30 12 5 28 22 25 21 39 10 23 24 7 14 18 26 4 22 0 9 19 3 7 7 10 16 25 22 19 35 31 20 23 29 7 27 8 8 39 5 38 20 29 38 20 35 12 8 22 6 19 6 16 32 28 4 12 38 13 14 17 32 3 10 20 18 33 23 28 25 5 15 6 3 36 27 2 28 24 11 6 32 17 28 8 27 18 37 27 4 24 12 13 25 11 38 14 15 4 32 7 5 12 23 11 16 10 20 23 35 35 37 34 31 17 12 1 18 9 8 27 39 1 36 20 10 14 23 30 4 8 29 35 16 10 2 11 15 21 19 4 37 8 34 19 12 4 26 8 12 7 15 2 23 38
3038 3319 3995 3758 3273 2595 4143 3347 3233 3511 3464 3296 4304 2813 3353 3469 3024 3857 3467 3313 3588 4315 3859 2640 3131 4683 2840 4143 3497 3162 2907 4789 2648 4166 3418 4567 4179 2664 3975 4464 4749 3098 2552 3240 4007 3685 15 2813 3911 3308 3287 3768 2606 2549 3578 4418 3576 4159 3415 3868 3341 4225 4406 4881 4495 3131 4446 4213 4105 3272 3755 2561 3740 4345 4876 3742 2665 3035 4398 4700 3252 3246 4962 3729 4087 4272 4754 3688 3009 2595 3472 4985 4888 4448 4221 2939 4151 3075 2617 4357 3516 3644 4826 4227 4994 3163 4480 4900 4143 3298 2879 4707 3945 4875 3559 3990 2790 2587 2798 4377 4618 4085 4699 3098 4250 3181 4202 4630 3635 3980 4664 3662 3956 3429 3308 4401 4605 3764 3684 4899 4407 4633 2579 3245 4806 4834 2673 4428 3177 3355 4397 4905 3940 3111 3768 2684 2844 3256 4682 4476 4393 4658 4104 4485 2687 4610 3495 2929 3031 4529 4628 4977 3814 2878 2998 15 2 9 36 20 38 32 1 35 34 9 3 11 14 17 5 11 24 26 31 7 18 11 22 25 32 26 18 11 8 38 38 7 17 12 2 24 34 35 0 12 28 14 39 20 15 22 32 37 21 35 3 6 5 12 26 12 24 26 5 37 10 3 38 29 14 15 34 10 25 1 20 28 14 13 20 36 10 39 15 38 20 38 37 5 10 9 35 18 18 37 12 15 18 19 21 37 5 26 17 9 2 26 15 31 39 1 31 25 31 37 39 5 27 17 14 23 7 6 29 28 27 36 5 4 32 16 24 14 33 35 13 20 35 5 9 24 38 8 15 23 24 30 23 11 1 26 36 37 3 30 8 11 8 16 9 38 11 21 16 11 10 19 20 13 15 30 21 2 13 10 7 5 14 39
4850 4635 2709 2981 3700 3807 4889 3066 4770 4104 4804 4252 4887 4740 4620 4904 3821 3008 3369 4537 3304 4055 4186 3998 3403 2853 4567 4150 3704 2614 2537 4331 3634 4670 3892 4632 2851 3671 4022 3463 3659 4816 15 4656 4608 3223 3125 4018 4904 3547 4930 3498 3463 3447 3712 2813 4101 3982 4839 2563 4264 4788 4251 4076 2929 4098 3254 2618 3778 2584 2674 4429 4767 3971 4316 4494 3299 2998 2677 4290 4293 4809 4955 4596 4940 2826 2947 3124 4073 2979 2930 4621 3256 4936 4859 4240 2899 3651 4577 4370 4973 2793 2839 2694 4442 3014 4147 3221 4006 3865 3736 3405 3197 4777 3061 3375 4705 2675 3392 3118 4170 2505 3492 4854 3416 3556 4774 4344 3487 2907 4152 2591 3688 4243 4370 4989 3379 4826 4361 4562 3411 3026 4655 4012 4070 4123 3926 4151 4614 3897 4149 3388 4418 4515 3690 4793 3866 3340 4174 2555 4293 4770 4827 4836 3072 3864 4754 3193 2963 4296 4707 4549 4669 2809 2630 32 20 34 27 36 12 5 14 14 31 36 9 19 1 15 5 29 19 35 36 21 34 9 6 26 24 5 29 24 19 39 16 30 11 21 13 25 20 20 25 0 14 6 8 20 2 1 10 18 28 36 15 20 34 15 19 37 31 31 22 31 1 17 17 20 13 29 3 18 17 26 32 34 8 18 38 39 21 27 2 2 21 8 3 22 7 7 29 13 7 13 35 8 30 26 17 15 34 23 7 12 23 2 22 37 22 17 21 18 33 35 36 12 28 33 36 3 22 24 1 4 21 26 14 8 35 2 3 25 16 13 15 29 17 4 21 37 1 14 39 28 36 28 18 12 15 20 15 11 20 26 32 18 23 18 28 5 10 8 16 24 30 20 5 1 13 12 10 22 11 38 23 37 16 27
4213 3007 2803 4343 4738 3853 3458 4351 3312 2588 3479 4097 3470 4898 2848 4245 4854 4670 4799 4716 2544 2918 3872 4597 4521 4918 3859 4221 3193 3009 3883 4695 4275 2904 4604 3264 4119 3225 3042 3806 4932 4122 3767 4959 2682 2575 2602 2946 2746 3798 2704 4907 2952 4596 4188 2940 2642 4895 3073 4295 3450 3699 3861 3024 3596 3935 2800 4116 2587 4164 3240 4130 3399 3067 3734 3101 3480 3814 2833 4178 3049 4859 4981 3928 4892 3338 2749 2849 3953 4842 3149 3045 2829 4081 4052 2736 4892 3422 3746 3990 4202 3848 3580 2550 3063 4743 3167 3660 3943 3124 3199 3161 3887 3210 2578 2958 4319 4312 3006 3344 2713 3912 3732 2795 4911 2827 4762 4545 3379 3964 4259 2624 3816 2828 3342 4600 3217 4138 2710 4380 4563 2603 3837 2865 2768 4776 4933 4427 4965 4242 3504 3183 4316 2534 2677 2587 2851 3014 3872 2859 4405 3042 4355 2586 2591 3067 3966 2583 4173 2672 2584 2754 3602 3637 3503 14 28 5 13 15 30 34 14 30 10 33 14 11 7 35 27 25 9 31 16 3 5 20 9 14 12 11 4 18 1 16 21 30 31 15 21 16 12 24 22 32 0 7 6 6 27 3 6 33 8 35 32 4 21 2 29 8 20 5 35 27 22 7 7 28 12 38 2 12 1 29 15 19 15 39 9 17 28 2 32 17 8 21 33 32 16 16 37 11 14 7 17 24 32 24 6 7 15 11 17 12 9 6 18 34 1 2 32 7 17 25 27 7 7 26 11 18 22 13 20 38 29 25 34 14 7 26 20 11 9 39 14 12 21 4 15 16 32 31 7 24 21 16 14 36 20 5 30 10 24 10 31 5 23 37 36 11 7 33 24 39 23 4 22 11 24 31 38 2 34 6 15 6 33 19
3812 3549 4606 3066 4037 4965 2638 4747 4100 3187 4810 2754 3781 4289 3217 3543 2592 3040 4724 3206 4844 2582 4258 3840 4678 4673 4046 4735 4257 4916 4748 3102 3817 3838 2515 2965 4436 2629 4127 3748 3349 3641 4458 3485 4105 3167 3076 4097 3295 2682 3609 4637 4086 4484 3847 4047 3405 2709 3608 2739 3573 2558 3856 3752 4711 3161 4889 3255 4934 4032 3217 3011 2966 3210 3814 4714 4641 3161 4098 4692 4548 4648 3411 2539 4963 2707 3074 3466 4790 3046 4811 4698 4198 3556 3743 2774 4005 3591 2699 2685 4783 3976 3469 4387 3810 3483 4687 4547 4640 3151 4563 4700 2711 4598 3670 2615 3010 3514 4726 3127 4015 4377 3135 3119 3451 3277 4317 4521 3385 3687 4900 4728 3599 4500 3379 4658 4673 2829 3485 2753 2883 2735 3122 3257 3263 3432 3187 3313 4388 4888 2919 3372 3877 4453 3495 4119 3370 4556 3172 3648 2893 3949 3567 3590 3242 2950 4104 15 4675 3213 2520 3536 3484 4949 3601 9 20 10 24 23 36 30 29 22 34 31 13 16 24 12 23 9 2 30 30 37 5 1 18 29 7 18 22 26 7 19 30 37 8 34 3 6 3 25 17 30 38 0 23 4 26 2 20 12 24 5 37 30 13 10 33 1 17 2 10 1 29 17 17 21 30 25 39 8 4 2 20 16 8 18 22 39 11 36 34 8 39 25 12 27 14 18 6 23 16 4 15 1 6 12 12 12 22 28 22 32 25 5 31 37 24 4 39 31 28 27 39 20 17 6 34 33 6 28 19 36 10 2 30 17 28 24 29 15 14 2 31 14 39 39 19 3 23 35 35 12 28 10 17 9 28 10 15 27 32 28 7 31 14 9 29 28 3 28 31 16 13 19 22 26 33 27 18 1 22 24 16 25 7 22
3411 2926 3020 4521 4842 4274 4764 3574 3907 3735 3547 4435 3011 2939 3718 4249 2853 3589 4687 4383 2902 4041 3087 4088 4900 4678 3818 3791 4829 3635 2929 3618 4341 4235 4164 3048 4039 4179 3468 2534 4273 4519 3557 4367 3352 2725 4325 4865 3550 3680 3834 4632 2530 3287 2823 2952 3020 3188 3016 3487 4953 2758 3983 3873 4824 2774 2567 3926 2650 3685 2692 4539 2588 4821 4420 2694 4996 3973 4607 4020 3750 2843 2710 3837 4018 2800 3190 4720 4413 4549 2809 4869 2862 2795 4327 4014 4307 4807 4590 4250 4283 3388 3503 4065 4966 4043 3166 4278 2712 2849 2656 4557 3652 3086 3489 4204 3393 3415 2690 3733 3179 4906 4648 4637 3337 4751 3301 4565 4728 4530 4954 3450 3882 4457 4008 3693 4222 2903 4728 3927 2609 3516 3716 2699 3000 3062 4263 4462 4219 3237 3523 4812 3359 3476 3122 3033 4570 3303 2913 4749 4957 4059 4703 4073 3795 3935 4356 2677 4165 2629 3186 4677 3652 3203 2827 14 2 23 24 11 9 4 30 38 36 26 2 32 22 22 16 7 6 18 14 1 15 23 1 2 1 1 38 25 37 19 30 17 12 6 2 17 39 16 32 8 25 33 0 5 38 22 23 9 30 27 21 2 32 29 24 30 17 6 10 3 23 38 10 15 10 37 27 29 2 19 1 16 15 36 25 10 13 7 25 26 37 4 5 27 16 20 34 18 32 8 4 12 18 29 6 14 1 37 6 15 29 30 12 33 2 36 37 15 37 4 7 13 32 16 39 15 20 2 15 34 5 34 32 27 3 39 14 28 8 17 4 5 33 4 35 39 28 25 20 28 9 16 17 25 26 22 4 17 38 23 7 11 31 17 4 19 29 26 12 6 24 6 34 14 33 16 6 32 16 18 14 37 37 17
2612 3697 4630 2544 2683 4064 4629 2791 4888 3049 2825 3198 2867 4445 2834 3837 3810 4820 3227 3340 3927 3382 2594 2613 4599 4585 4872 3022 3565 3832 4111 2824 2678 3976 3689 4651 3266 4408 2570 4871 3118 3250 3423 3681 4089 3522 4967 4318 4930 4380 2984 2586 2666 4683 4099 16 3995 3442 4926 3776 3148 3065 4181 4681 4008 3763 3247 4718 4991 3659 4722 4270 3443 2776 2854 4153 3578 2578 3636 4122 3494 4234 2637 3884 3576 4101 3425 2993 4127 4068 3088 3821 3924 3082 2855 2575 3775 3878 4233 4648 4467 2835 4992 2851 3910 4154 4495 4259 2842 2975 3394 3282 3943 3588 2594 4017 4152 3569 2832 3826 4882 4505 3012 2806 4727 4434 2646 3902 4835 2570 3734 3757 3367 3503 3139 4977 3569 2949 3944 3872 3710 3002 4522 3808 4545 3350 4786 4481 4645 3661 3701 4434 2651 2634 4979 3837 2967 4810 4950 3015 4525 3223 4969 4703 3487 3001 4159 4554 3731 4333 3737 4865 2695 4258 2517 36 12 39 8 1 27 20 4 19 16 9 21 2 29 26 14 10 31 38 21 13 29 33 9 38 18 14 31 33 35 33 27 22 30 4 33 33 37 35 14 33 33 4 23 0 38 26 6 33 33 10 28 1 37 35 38 36 26 22 26 8 33 32 25 35 18 12 22 14 33 29 16 37 17 29 5 29 2 7 39 38 28 38 23 19 12 7 16 17 39 9 18 28 15 26 3 6 4 13 3 24 33 6 36 17 38 38 28 2 1 5 35 33 19 8 33 4 7 4 10 39 2 6 6 10 17 23 30 34 14 34 30 24 24 26 11 24 38 6 5 24 29 34 4 39 10 29 3 11 21 27 36 15 5 25 27 34 35 3 13 39 2 38 16 2 28 1 20 6 24 17 24 17 34 27
2539 4184 4283 4265 2739 3997 4306 2601 4263 3449 4810 4399 2896 4206 2961 2888 3025 3336 4931 3819 4760 3455 3534 4952 2816 3546 3602 3076 3714 2654 3182 4081 4140 3039 2906 4027 2851 3580 3567 3452 4227 4470 3643 3111 4167 2691 3473 2745 4149 4205 4710 4934 4592 4598 3333 3954 3043 4614 3918 3203 2889 4862 2630 4372 4940 3213 3444 2798 4958 2647 3159 2604 3336 3141 2517 3349 3224 2799 4475 2978 4578 4060 2806 4010 4012 4859 4414 2766 3919 2729 2676 4951 2626 3634 4644 2568 2506 3490 4848 4467 4940 4205 4210 2662 4227 3754 3598 4312 4472 3826 4539 2685 4638 3164 3067 2529 3752 4092 4181 3976 3915 2891 2884 3358 2951 4042 3313 4635 2659 4374 2808 3015 4626 3077 2671 4816 4392 2795 4347 2817 4363 4287 4269 3902 3954 2604 3056 4954 4070 3089 2668 5 3458 4464 4452 3764 4565 3124 4080 3584 3534 3655 4404 2788 4205 4049 4211 4560 4880 4360 2991 3357 2573 3580 3520 39 13 17 36 16 19 35 8 3 17 14 24 12 35 6 19 16 33 13 3 6 29 30 12 4 5 5 15 4 38 8 17 14 16 25 26 32 14 4 30 28 6 18 28 32 0 39 11 10 15 17 39 9 8 32 15 22 12 15 9 18 4 31 14 13 26 2 27 10 5 10 7 31 34 4 29 7 9 38 21 28 37 39 34 35 24 37 38 14 27 9 8 34 38 31 31 39 19 20 7 8 34 5 17 19 15 23 19 18 25 10 3 31 1 7 27 31 18 12 1 31 33 38 36 25 33 13 19 12 14 20 38 20 31 38 15 33 17 29 21 23 39 27 22 26 1 9 33 39 35 5 35 2 25 36 39 6 25 19 34 8 1 17 4 11 29 30 35 5 6 7 22 9 8 30
3731 3138 4066 4422 4803 4360 4961 2808 3152 3497 4675 2954 2965 3733 4700 3706 4504 2880 3923 3257 4977 3587 4774 3311 4621 3981 3058 2965 3716 2736 3016 3736 3390 2723 2644 4641 2739 4552 2608 4236 4633 3317 4562 4405 2762 4007 3983 2684 2840 2755 4185 3139 2639 2884 4498 3468 2538 3097 3355 2915 3470 3189 3482 4162 3494 4326 4452 3537 2779 3055 3149 3394 4545 3052 4329 4201 3197 2852 4246 3283 4649 3177 3558 4413 2626 3252 3975 2952 3493 2550 3946 4019 4816 3507 3006 3876 4686 4279 2998 2617 2605 3199 3208 2576 4983 3328 2886 4228 4960 4087 2726 4263 4384 4998 3546 4060 3183 3765 3691 3406 2731 4954 6 3146 4488 2843 2658 3758 3823 3327 3157 4839 4214 3922 2735 3344 3795 2679 3126 2771 3999 4263 3781 4791 16 4050 2658 3661 4996 3569 4576 3831 3219 4018 3932 2574 3924 2505 4929 3790 3992 3323 4738 4946 3766 3704 3368 4795 4855 2662 3253 4892 3998 3088 4338 26 38 38 38 20 37 32 3 11 29 20 35 38 3 22 25 33 6 12 14 6 36 31 38 23 3 15 14 1 7 13 26 28 24 7 7 27 32 27 34 21 35 7 35 8 10 0 24 25 38 1 17 2 19 1 37 11 1 16 22 21 37 24 26 4 3 8 32 15 22 8 11 28 8 29 4 28 7 15 11 10 33 12 7 24 29 1 18 24 8 1 27 28 20 19 23 26 10 16 31 7 24 29 39 20 11 12 25 28 2 34 28 3 22 20 33 21 38 14 5 22 39 17 34 36 34 15 35 36 14 6 35 30 7 15 29 10 13 34 6 26 39 6 37 12 24 32 31 32 22 12 36 16 3 22 29 16 16 6 13 27 6 24 5 30 27 34 2 20 15 33 2 35 28 27
4733 3507 2686 4487 3749 2821 3605 3414 3142 4741 4747 3411 4218 2764 3855 2883 4989 4330 4232 3048 4458 2533 4828 3122 4096 4180 2895 3142 3428 3977 3356 4168 4692 3592 4738 2646 4100 2642 3337 4336 3671 3891 4789 3593 3245 3119 3055 4227 4542 2737 3220 3137 2723 4317 4425 2827 3529 2866 3255 4247 3270 2985 2526 4477 4269 4552 4358 2909 3153 4211 4522 2655 3822 3150 4765 16 4933 4283 2740 3929 3508 4629 3228 4972 4400 2576 4123 2892 2691 2849 4832 2668 4284 2897 3267 3760 4063 4451 3094 4020 4409 4890 3479 4777 2751 2894 3184 2909 2616 3443 3539 4693 4325 4461 4647 4151 3621 3813 2860 2881 4711 3998 2713 4320 3829 2522 4792 2704 4337 3990 4846 3779 3353 2841 4482 3163 3287 2740 2609 3313 3489 4547 3046 3645 3078 4271 2989 3657 3361 4648 4518 4255 4030 3308 2600 4685 4888 4615 2646 4831 4747 2576 4959 4801 3340 3014 4270 3167 4721 3061 3935 3938 3247 3237 4553 9 36 10 18 15 10 3 29 32 27 10 12 37 33 35 21 17 20 39 28 11 5 34 32 35 26 7 20 31 17 6 28 3 30 27 19 24 20 7 3 20 27 38 38 26 39 22 0 17 6 34 13 17 26 25 17 19 20 36 7 7 5 1 10 12 12 3 27 24 11 33 4 21 24 32 21 19 2 38 7 28 17 34 32 24 6 37 39 36 18 24 16 18 10 27 5 5 10 9 5 7 32 9 31 3 10 14 28 22 20 10 39 33 34 38 35 20 5 13 15 1 5 4 7 38 33 7 6 28 27 2 13 18 9 36 27 35 27 24 27 23 11 22 2 17 8 15 7 5 14 28 11 24 35 30 4 39 15 9 14 10 37 27 20 38 5 8 36 38 25 15 29 37 39 38
4241 4570 4564 4482 4799 2792 2864 3040 4339 3099 2908 4372 3266 4511 4559 2799 2813 4195 2834 3556 4400 3071 3120 4874 3926 4681 3802 4102 2853 4039 4695 3295 4209 4158 4326 4605 3353 3910 4731 3990 4909 2934 4221 3220 2571 3914 3655 3031 3211 4840 2978 2898 3141 3665 3144 3324 3811 3326 4489 3032 4314 4608 2652 4839 4626 4597 3476 4181 3266 3507 2694 3012 3264 4210 4449 3547 2588 3226 3821 3848 4633 2975 3426 4182 4181 3581 3095 4352 2738 4746 3055 4632 3418 3875 2577 4178 3579 4147 3008 4636 4122 4374 2668 4416 4882 3217 4902 2812 2735 2770 3598 3736 4436 3621 2862 4013 3459 4254 3625 4120 3834 3675 3308 2925 3159 2605 4542 3540 2528 4170 3361 2710 3191 3321 2880 4978 4538 4808 4207 4349 2598 4426 4718 4653 3321 3463 4701 3442 3483 3277 3921 3383 4220 4414 4348 2642 3699 2928 3453 2581 2919 4368 2791 3631 4758 3967 3396 3536 3872 4257 4350 3152 4960 3473 4237 23 19 31 20 1 19 1 30 33 16 21 29 31 27 21 30 5 24 36 14 26 27 39 18 3 4 27 9 3 30 7 9 38 1 6 38 32 3 11 38 17 28 36 13 37 15 16 4 0 6 24 10 23 37 23 17 2 14 30 23 25 32 3 14 19 18 35 18 10 24 18 16 25 27 5 17 25 36 26 3 23 28 6 36 32 37 16 7 32 8 2 13 23 25 14 33 10 28 10 15 26 27 9 32 18 31 32 8 7 15 34 14 13 4 12 21 29 39 23 21 37 39 16 16 20 20 17 9 12 27 16 35 31 1 2 28 14 2 26 30 14 29 30 18 36 8 5 35 17 2 20 28 3 39 8 28 37 35 35 36 19 27 27 7 14 22 9 26 37 18 11 16 33 21 37
3778 3540 2847 3420 4186 4647 3343 4415 4369 4035 4147 3608 2617 4311 4062 2967 2819 3145 4180 2855 3278 2647 4114 2787 4747 4827 2946 3829 4952 4762 3989 4260 3225 3095 3264 3462 4544 4518 4703 4665 4144 2676 3006 4936 4665 3073 4406 2851 2701 3921 4495 3484 2830 3279 3766 4006 3684 2778 3026 2724 4435 2850 4914 4364 3470 2980 4676 4275 4062 4710 3486 4696 2851 3981 2797 4780 4436 4031 3197 3956 2817 3234 2607 4549 3441 2660 4910 2679 3395 3073 4128 2785 3330 3923 2764 3934 4239 4936 3260 6 3281 3215 3189 2715 4936 3037 4667 3798 4711 3250 3695 4734 4689 2661 2728 2838 3235 2612 3238 2834 3353 4717 2549 3793 3190 3929 3223 2581 4157 2677 4290 3762 4304 4702 4090 4547 4013 4534 4626 3203 4430 2748 3712 3250 2903 4590 3188 4517 4364 4388 4676 3727 4906 3087 3486 3488 2634 2920 3573 4002 4680 3712 4348 4063 2660 4773 3522 3344 4834 4803 3839 2523 3698 4146 3370 32 37 34 14 12 20 6 1 33 11 11 20 34 39 20 31 33 16 14 24 31 37 23 27 2 25 4 2 20 22 3 9 36 28 37 8 37 31 17 27 7 3 37 10 3 24 34 22 36 0 5 20 15 11 7 2 33 2 19 26 17 31 3 4 22 5 34 33 10 14 21 6 4 26 36 38 6 6 6 14 21 21 4 17 39 26 4 39 35 5 34 7 35 19 13 28 27 38 20 35 35 32 25 20 30 30 4 24 25 20 17 34 1 18 14 32 30 10 24 22 5 23 11 26 4 36 6 22 9 16 17 18 16 30 20 23 8 9 30 35 15 24 31 17 39 32 23 15 31 36 18 25 6 23 12 38 35 37 17 30 18 23 14 36 21 8 13 16 19 10 11 12 11 35 9
3137 4460 3613 4596 4487 2861 3808 2735 4716 3692 4619 3959 3588 3570 4142 2851 4655 4485 3228 4861 4256 4569 3233 2581 4286 4565 2757 4567 2537 4076 3999 2601 4965 4451 2500 4621 4244 3254 3247 4561 4148 3124 4403 3536 3960 2588 3845 4912 4053 2811 3427 4519 3953 4693 3908 2959 2550 3114 3543 4599 4935 3936 3405 3395 4887 3319 2518 4010 4440 4687 4810 13 3174 2566 3482 3055 3629 3684 2823 2662 3122 2811 2616 4117 3552 4201 3625 3252 2609 3913 4087 3910 4284 4141 3053 2944 4824 3790 3071 3711 4900 2656 3558 4690 3224 4137 3013 4573 3342 4092 3801 4082 4340 4745 3353 2506 4024 17 2579 4186 4276 3796 3633 3831 4892 3182 4256 3675 4786 4918 3436 3507 3132 4224 4618 3733 10 4767 3861 2680 3764 4437 4331 4834 4389 4826 3109 3241 4075 3448 4660 4380 4644 3700 4392 3646 2917 2685 2643 3284 4600 3660 3807 3479 4461 2851 4893 3879 4755 3060 3125 4120 3647 4490 4177 13 21 12 16 35 6 25 10 19 30 38 24 8 28 20 24 15 14 21 8 5 32 5 15 8 20 38 5 34 31 21 2 28 8 37 20 23 9 16 32 3 22 14 5 23 12 24 15 26 29 0 18 33 27 38 18 35 25 36 27 1 5 39 23 15 32 33 6 4 26 2 29 17 39 20 11 37 19 10 11 9 21 30 21 38 10 3 13 23 24 16 22 24 22 4 2 19 1 5 21 7 39 13 36 30 20 9 31 17 18 13 6 22 9 22 28 25 5 4 5 7 31 29 38 9 3 1 16 8 19 1 6 11 19 30 26 38 34 24 11 36 35 19 21 3 34 4 12 38 6 26 5 18 19 29 18 5 38 4 36 2 15 10 5 19 28 14 32 32 24 32 21 7 38 30
3946 3239 3446 3655 3966 3206 3796 4107 4136 3392 3369 4510 3183 3238 4662 3977 4609 3282 3529 3669 3089 2926 4445 4866 2578 2867 4061 4074 4047 4671 3309 3231 4370 4976 3323 2625 4248 2711 3437 4295 4362 3218 2841 4431 4651 3668 4780 3533 2859 2751 4658 3153 3721 4452 4811 3281 4409 3875 3448 4551 3223 2724 4815 4658 3692 2817 4033 2871 4444 3707 4662 4546 4218 2559 2949 2517 4813 2727 3219 3771 3154 4395 3487 3192 3744 2884 3153 4331 2902 4118 3466 4284 4810 3977 4466 3076 3305 4779 4812 3178 3455 3902 4156 3530 4548 2715 3936 4365 2744 4427 4100 4797 4904 3156 2718 2584 3513 3750 3325 4758 3089 4889 4015 3748 4670 3272 4323 3930 4125 3089 4722 4361 3772 2654 3900 4931 2596 3187 3656 3577 3989 4668 4880 4529 3654 4476 4941 3042 4384 3919 4547 4682 3006 2586 3187 4881 3636 2926 3618 2748 3014 3819 4725 3119 3267 4982 3380 2718 4367 4963 3930 4781 3608 2648 4646 36 33 6 33 38 36 22 9 4 13 9 26 2 28 35 23 5 15 24 29 11 23 10 8 5 28 35 9 1 19 2 20 9 16 18 39 6 32 34 37 34 18 24 2 15 39 5 38 27 20 8 0 5 22 11 31 2 32 34 10 36 32 10 32 24 20 21 15 33 26 20 11 32 34 10 10 8 15 7 8 26 36 7 11 15 17 14 20 28 23 31 2 19 29 12 11 38 3 10 5 20 38 3 2 16 14 28 12 36 13 20 6 7 34 23 30 37 16 28 15 14 37 34 23 29 8 18 2 22 15 29 33 27 39 4 26 36 20 24 38 20 31 13 18 28 17 38 14 21 33 13 13 18 6 35 22 1 12 2 28 20 11 22 33 36 1 39 13 29 36 29 14 29 11 15
3980 2635 3927 3983 3391 2999 2688 4219 4988 4254 2552 3103 3860 3332 3386 3988 3562 4640 3915 4690 3848 3748 19 2579 3711 3459 3798 3001 2577 3375 4403 3059 4642 2844 3059 4605 4646 4093 4181 3931 3858 3254 4673 2553 4834 3165 4688 2751 3254 4132 4697 3808 3548 2978 2951 3037 4571 4780 3586 4821 4287 3883 4145 2962 3470 3512 3401 3642 2552 4224 4755 3283 3490 3590 4816 4512 4435 4496 3577 4255 4749 3253 4000 4994 2893 3711 3650 2664 4660 3821 3932 2771 3478 2825 4324 2911 4044 3383 4705 3763 3231 3771 4229 3994 4990 4440 4391 2750 3683 4435 3890 4910 3964 3942 2994 2871 3642 4395 4675 3973 4064 3795 3291 4675 4684 4119 4308 3876 4633 2677 4385 3498 3648 2842 4728 4970 4281 2908 3645 4198 4395 4204 2762 4472 4637 4670 3159 4973 2725 4173 4188 2633 2575 2837 4358 4887 4537 4158 3477 3762 4537 3847 2740 3165 4772 3407 2743 3663 4091 2534 2551 3628 3199 4482 4778 8 6 34 34 2 38 14 15 24 25 5 37 5 26 32 3 31 9 10 21 22 22 8 16 36 30 23 36 35 10 13 37 25 24 19 37 33 20 39 38 13 39 23 30 9 21 11 3 30 4 34 37 0 37 30 13 34 8 7 24 34 18 30 29 26 12 27 34 37 38 29 14 27 9 19 14 35 9 4 19 22 15 12 29 7 6 34 26 13 18 20 2 20 12 39 24 30 17 29 32 11 19 18 37 27 26 31 15 15 4 24 37 39 28 20 19 22 30 39 33 15 29 3 7 22 34 1 38 11 21 9 33 35 8 5 17 24 35 8 28 18 39 20 31 36 27 15 25 22 39 37 4 29 37 33 31 35 10 8 22 38 16 17 6 14 23 10 16 12 4 17 30 18 27 33
4228 3973 4089 3633 18 2745 3275 3189 2936 4501 2832 4578 3233 4175 4658 3550 2717 3272 4761 3055 4397 4420 4571 3423 4950 3984 3257 2640 4359 2944 3061 3343 2616 2599 4371 3026 4699 2995 2543 4975 3265 2965 2910 4056 2780 4250 4437 4498 4373 3580 4266 4755 3540 2826 4862 3791 3119 3011 3737 3355 2589 3118 3627 3966 4870 4015 4396 4222 3007 4606 3839 3084 2585 4687 2868 4057 4983 3900 3396 3408 4323 4126 4026 3989 3318 4187 2728 3694 2731 4238 4521 3187 2790 2755 2546 3975 4040 3448 2790 4619 4189 2747 2933 2706 3349 3290 4833 3042 3063 4684 3959 4573 4679 4532 2908 2520 3962 3496 3595 4133 4721 2878 4812 4804 4537 3051 4150 2564 4885 2672 3391 2726 4675 3588 3219 3408 4628 4449 3835 3660 4523 2810 2573 4659 3251 2724 4170 4505 3173 4180 3286 3940 3001 4712 3141 4259 4575 4755 2854 3698 4610 4984 3260 3044 2570 4508 3507 2898 3062 2695 2521 2693 2973 4112 4851 14 37 18 35 21 14 28 8 4 8 39 19 27 1 7 7 2 5 6 11 26 4 17 6 23 33 34 36 8 39 18 26 27 4 10 30 30 27 30 10 16 1 2 24 19 10 38 9 34 29 33 36 5 0 30 3 9 2 31 25 24 34 26 12 32 3 30 35 12 2 4 6 29 1 11 17 1 25 30 37 22 34 19 3 34 16 15 12 16 24 7 13 31 13 30 36 34 23 34 32 5 15 7 6 11 15 3 18 13 2 7 16 36 39 29 6 8 25 30 13 17 13 11 38 6 1 18 12 7 29 37 23 28 20 15 16 23 11 35 35 4 6 26 35 32 24 14 8 13 14 21 21 38 38 18 16 13 25 30 8 7 11 29 26 6 8 14 27 5 36 3 3 11 9 27
2572 4439 2602 4533 4996 3201 2664 3279 2922 3994 4202 3840 2938 4167 2521 4570 2850 2959 3363 3236 3895 4702 3237 3073 3102 4705 3893 4311 4731 3767 2554 4030 4082 4215 2908 2944 3011 2696 3039 3215 3013 3070 4379 3062 4060 3088 3546 3669 4824 4916 2797 2593 4610 4432 4660 3856 4776 3713 4021 4895 4839 3880 3637 3674 4158 4773 3891 2809 4591 4570 4335 2611 3132 3859 3595 3690 4310 4408 3703 4133 4763 3018 2557 3673 2501 4985 4100 3274 3048 4744 4376 4714 4674 3872 3702 3235 3343 4681 2732 4510 4389 4774 4499 4459 3416 3595 4449 4390 4265 2647 3513 3891 3705 2513 3125 3606 2924 4925 3893 3196 3143 2996 4969 4022 4021 3077 3513 3822 3266 2680 3579 2522 2982 3858 4760 3578 3066 3608 4625 3145 3113 3806 3510 3953 4520 4723 2523 4755 3994 4054 4789 4689 4798 4940 2533 4291 2617 3069 2714 3487 3434 4428 4069 3716 4554 3469 3987 4734 2725 3703 3421 3764 4494 2628 3938 34 10 33 5 26 39 8 4 21 35 1 22 22 21 10 30 34 24 14 6 35 3 9 32 10 31 3 31 10 1 17 36 38 37 17 6 5 7 35 20 7 8 11 11 6 18 29 7 6 27 28 29 19 20 0 28 31 13 28 6 13 8 30 12 20 35 9 19 26 23 28 25 19 14 24 7 37 18 24 8 28 20 1 1 30 5 10 31 31 29 12 22 37 13 3 37 12 6 26 36 27 23 26 22 4 21 35 26 1 7 26 34 27 30 35 4 8 31 36 4 10 5 35 5 5 26 18 10 14 20 25 24 8 30 22 8 27 11 11 24 14 8 17 4 1 20 34 16 8 34 19 37 26 37 22 1 31 14 27 4 22 36 2 14 15 5 13 18 19 36 31 38 8 37 36
2865 2645 2540 3104 2941 3648 2675 3639 3090 2979 3067 3216 3227 2749 4327 4482 3433 3496 4685 3463 3983 2738 2872 2742 3286 4143 2625 3439 3123 3639 3126 3670 2903 3046 3654 4699 2898 4066 2936 3808 4881 4871 3420 4093 3647 4632 4137 4496 3111 4947 2729 2985 3083 3106 4102 4326 4172 4057 3576 2751 4839 4695 4179 3775 3323 4569 4521 4861 4263 3422 3481 3289 2898 6 2621 3292 3787 2791 4640 2609 2551 4403 3028 4798 3220 4899 2853 3897 4587 3517 3720 4937 4024 4058 4850 4984 3009 3938 2837 4451 4637 4225 4860 2669 3358 2966 3135 2684 3098 4503 3057 4533 4952 3474 3930 3670 3300 4003 4851 4411 2917 3170 4484 2501 4889 4134 4106 3168 4343 4220 3692 4724 3678 4569 4913 4468 2515 3554 4715 2780 4238 4288 4109 4490 3750 4851 4233 3595 3491 3910 4837 3468 4431 4469 4657 3676 2555 2980 2779 2667 4911 2762 4589 2586 2626 4805 2617 3131 3246 3925 4331 3302 4869 4965 4623 32 37 17 31 6 26 6 35 7 31 13 25 29 24 13 30 2 19 33 3 12 4 29 13 6 30 3 10 25 4 35 8 15 31 11 4 25 11 38 13 4 38 18 26 31 30 10 26 38 30 15 35 29 2 35 0 38 11 11 19 36 13 12 1 13 27 13 10 28 6 34 7 6 34 25 5 25 31 9 25 31 4 9 33 26 17 35 1 39 35 4 11 37 31 27 27 22 29 38 4 11 17 5 6 26 33 15 29 30 34 7 29 23 38 28 6 22 2 35 9 5 17 12 22 14 24 26 28 17 11 15 22 22 7 5 5 19 25 24 20 11 14 10 29 7 38 18 7 12 27 10 3 39 7 30 10 35 2 7 3 26 20 3 13 22 6 21 30 17 30 28 26 28 1 31
3988 4472 4432 2574 4010 3317 3607 2949 3023 2844 3660 2828 4518 4166 3663 4422 3637 3743 2523 3967 5 4411 3123 3901 3023 3698 16 3112 3840 4338 4638 4841 2791 4986 4431 4146 4651 4928 2936 2794 3301 4959 4147 4151 3362 4433 3979 2723 3198 2772 3813 3921 4694 4997 4274 3393 3834 4107 2680 3797 2782 4265 4462 4044 3770 3554 4398 4827 4140 2885 3616 4237 3774 4414 4579 3149 3905 3263 4058 4483 2509 4569 4923 4318 4187 4387 3601 4966 2712 3757 4332 4806 2530 4565 15 3743 2884 2938 3509 4037 4082 3085 3705 4237 2714 3817 3461 4560 4432 4057 2506 3499 4373 2600 2571 3773 2974 4922 3527 2649 3755 4447 3683 3590 3372 4242 4054 4363 4850 2802 3863 3764 3779 4232 4750 3000 2790 3435 3780 3706 4952 4243 2508 4111 4268 4399 4300 4862 4013 4153 3573 3510 3423 4585 3325 3573 3507 2834 3471 3332 3997 4181 3582 2820 3456 3590 3169 3712 3679 2688 4217 2719 4945 4621 3490 25 36 23 10 10 39 15 37 34 28 8 19 26 13 32 3 14 8 39 35 5 25 22 33 23 12 10 13 2 2 18 11 36 6 27 32 3 18 29 31 9 7 34 7 36 38 36 30 2 20 5 29 2 39 2 7 0 26 35 25 3 16 6 20 15 31 34 36 37 24 38 18 23 11 26 34 17 27 32 36 17 27 27 4 14 27 28 15 26 21 7 23 19 29 34 27 8 29 27 8 19 11 39 34 9 20 37 9 21 1 8 29 24 4 27 23 5 34 26 10 29 38 27 19 4 36 23 18 35 33 23 19 26 28 5 22 5 33 21 29 38 38 14 12 1 28 24 31 35 36 14 6 14 1 14 22 15 37 18 2 30 10 19 29 29 15 27 26 32 1 11 32 4 15 32
3622 4573 2764 3084 3263 4029 2740 4004 3715 3362 4637 4785 4992 4661 4154 4881 2887 2936 3471 2952 3337 4851 4499 4709 3967 4101 3100 3648 3997 2691 2901 4646 4076 3637 3577 3789 4133 3813 4270 4725 2700 2671 2991 4618 2768 3819 2624 3587 4606 2704 4957 3579 3134 4462 4273 3076 2670 2737 3468 3255 4061 3663 2639 4561 3954 3978 3622 4083 2655 4878 4727 4981 4684 3933 4533 3714 3765 2768 2929 2531 2925 3309 3157 3124 2615 3432 2771 4761 3038 2576 4667 3035 4435 3881 3601 4460 3220 3734 3537 2890 3842 2954 4871 3150 3926 3651 2602 4671 2863 4052 2789 3124 2926 2846 3501 3908 4896 4470 3567 2762 3466 4307 3779 4015 3983 2520 4878 4499 4557 4997 3231 2673 2527 4686 4840 4511 2868 4933 3720 3841 4063 4689 3077 3847 4413 4904 2539 3758 4504 4689 4663 4765 4361 2823 3645 4786 2712 4270 4816 4732 4992 4234 2752 2514 3237 3908 3620 4366 4955 3187 3477 2561 4360 4276 4361 30 19 34 14 27 16 19 15 27 3 38 32 1 20 21 29 26 18 11 28 39 3 5 3 35 34 34 35 21 25 15 15 17 11 11 22 23 8 12 22 21 29 22 6 9 37 36 29 18 14 4 14 25 24 14 18 8 0 10 8 25 7 2 7 37 10 10 10 36 9 6 5 24 24 29 6 18 9 38 18 21 15 33 21 17 20 24 19 11 37 22 9 13 35 18 9 32 29 15 4 30 18 16 9 11 36 32 5 16 8 19 22 23 33 33 5 30 26 4 37 37 32 2 19 11 11 2 12 26 21 33 28 22 15 12 13 27 3 34 17 7 6 38 22 22 4 8 39 22 3 8 33 18 13 10 2 9 18 4 27 3 8 37 3 34 10 15 27 7 32 8 33 11 22 14
4825 4008 3425 3177 2500 4602 3928 3468 5 2512 3065 2517 2845 4792 4748 2642 3093 3709 3270 4745 4457 4724 4045 2603 4797 2980 3288 2598 2947 4767 4747 4902 4498 4433 3084 4720 4545 4500 2844 4876 4392 4405 4402 2520 3624 4919 2659 3240 4127 3408 3667 4830 3903 2820 4004 2873 3580 4932 3375 4479 2809 3987 3205 4127 4336 3198 3406 3612 2546 3978 4249 3170 4450 4006 2758 3757 3398 4589 4624 3747 2712 4202 2551 3346 4967 4760 3171 3427 4970 3040 2566 3360 2985 3715 2705 4378 3721 2854 4321 4126 4550 2778 4991 4756 3751 2786 4957 2773 2845 4733 3401 2852 2783 3402 4707 4557 4799 3179 4988 2851 4536 2763 3258 4043 4380 4405 4013 2581 2832 2544 4289 4642 4433 3499 4785 4189 4525 4278 4286 2737 4207 4759 4814 2946 2884 4841 3414 3692 2528 3271 3444 3726 3962 2713 4038 4278 4284 3426 3399 2895 2949 4489 4657 4621 4158 3284 3641 4941 4078 2716 4965 4839 4758 3339 2935 14 20 16 13 34 16 8 25 30 27 3 32 9 12 14 32 38 26 7 4 8 14 33 21 27 26 35 16 21 31 12 4 14 18 23 3 30 36 33 2 13 3 33 7 37 26 1 1 25 8 19 25 32 36 34 25 23 24 0 23 26 35 16 30 15 24 10 39 20 34 1 32 26 21 8 30 29 37 23 7 31 3 22 18 29 30 27 11 38 8 17 22 14 4 26 31 19 24 16 5 23 32 7 21 21 26 29 11 10 32 29 21 24 30 10 33 26 25 22 16 9 28 18 19 37 23 17 12 14 2 22 28 17 34 25 9 3 19 31 27 17 38 1 23 16 21 22 27 12 24 25 32 2 23 13 21 20 14 21 20 8 19 16 26 19 16 35 24 5 12 9 16 22 3 2
4527 4598 3792 4610 2846 2925 4635 4095 4052 3786 4642 4475 3269 2839 3543 2604 3985 3253 3615 3594 4971 4333 3350 3111 2670 4845 4775 3576 2810 3909 2723 2646 14 4839 3075 2682 3531 3121 2660 3605 4886 4179 2611 3318 4355 2770 4934 2924 3937 4046 3876 3277 4750 3021 4516 4744 3946 4938 4634 3295 2881 3520 2699 4038 4436 3735 4481 4590 4608 3936 2997 4649 2887 3033 4523 4909 3356 3243 4472 3721 3951 3187 3265 3416 2876 2685 4009 4683 4304 3064 3692 3479 4447 2763 4207 3425 3178 3985 2571 4427 2677 3184 2649 3574 2819 2637 4038 3447 4350 2948 4081 3100 3347 3178 4947 4947 2988 2953 4958 4811 3872 3736 4376 4680 4227 4442 4483 2636 4865 2895 4443 4090 3305 3170 3985 2522 4746 4034 4898 4429 4799 2942 4766 3090 4130 4249 4958 2893 2550 4798 4771 4640 2594 3483 4950 4985 4886 3651 2620 4758 4890 3697 3197 3828 4795 3154 2861 3347 3625 2898 4227 4278 3921 3506 2988 36 24 13 3 28 25 3 34 10 22 31 28 2 21 25 26 16 35 15 34 10 27 20 14 8 9 16 4 27 20 35 29 29 32 28 11 21 8 20 14 37 7 14 30 12 2 14 6 7 23 37 31 19 4 10 31 2 13 19 0 11 10 15 30 37 17 32 8 31 36 2 9 13 29 18 3 13 19 22 15 29 14 1 13 32 34 37 29 1 20 18 20 14 19 23 38 37 7 13 31 30 38 35 27 39 5 18 34 32 7 38 18 17 16 4 4 21 14 32 9 4 25 18 20 34 23 7 5 23 20 7 13 8 37 26 37 28 26 5 39 5 33 17 15 24 6 39 17 6 19 8 37 38 5 14 9 1 6 28 29 13 35 33 35 23 35 15 20 33 7 6 33 35 12 27
2700 3796 3689 4374 2805 2721 4583 4355 2967 3556 3551 4975 4793 4883 2605 3621 2777 2839 4113 3010 3969 2744 4633 3713 3194 2844 4209 2626 4618 4189 4745 3501 2765 4793 3288 3512 4840 4155 4696 3630 4101 3561 4467 3680 3735 3531 3955 3599 4363 3481 4102 3030 3701 3562 4993 2651 3335 4206 2877 3347 3316 3368 3546 4568 3153 4747 4187 4679 4629 4217 4089 3021 3642 4757 3755 4205 2672 3442 4205 2879 3725 4554 4913 2582 4382 2500 7 3752 4998 4169 4392 3395 4834 2913 4181 2550 3568 4446 2851 3555 4507 3232 4722 2691 4523 3595 4721 4508 4140 2935 3060 2936 8 2999 3750 3863 4171 3402 2517 3149 3879 3784 3185 3763 2619 3559 3904 3470 3332 3360 3974 3825 3410 3653 3712 3132 3442 3634 2599 4956 4223 4224 3467 4482 3495 3107 4546 2677 3071 3572 4810 3437 3257 3082 4031 3892 3470 2837 2789 4433 4926 4679 2600 4404 4715 3153 3619 3163 4101 4888 3541 4286 3636 3841 4674 2 12 3 39 34 21 20 36 3 2 31 37 10 37 33 27 16 19 16 2 16 11 16 30 34 11 11 15 36 25 15 30 24 5 21 9 35 29 20 33 13 3 26 25 1 24 19 8 22 30 25 4 37 24 27 5 31 28 15 8 0 8 13 9 7 12 36 3 15 25 6 30 33 11 27 27 37 15 6 21 27 12 25 32 33 34 36 37 4 30 35 37 31 18 34 18 27 37 39 11 33 32 25 8 8 32 23 3 29 25 29 33 3 33 5 14 33 12 33 34 26 30 26 37 2 2 20 17 12 16 1 33 32 17 14 26 31 13 7 17 33 21 12 3 39 6 5 20 16 39 6 24 3 39 39 10 18 8 27 10 30 5 23 6 13 10 10 14 7 10 5 38 9 38 12
4593 4232 4031 4576 4893 3063 3328 3794 4624 2902 4164 3712 4506 4839 3245 3653 3530 4335 3047 3616 3193 3897 3933 3583 4066 2936 2572 4426 4586 2756 4277 4271 2780 3780 2857 4894 3993 2875 3250 4069 3768 4771 2633 4079 3854 3691 4092 3844 2564 2599 3168 3518 3895 3577 4359 4617 3404 3618 2515 4737 4831 4256 4246 3655 2888 2771 4308 4740 2811 3847 3130 3851 4421 4272 2992 3908 3094 4711 14 2858 4959 4497 4479 3336 3801 3659 4875 2850 4189 4865 4484 4434 3544 4295 3817 2975 3765 3815 4822 4679 4292 2546 3374 4195 3328 3233 3276 4572 2685 3102 3923 3902 3446 4528 3082 3083 3489 3053 4817 3894 3640 3923 4554 4006 3281 4713 4338 3697 3694 2744 3332 3931 3632 2535 4455 4152 4881 2539 3912 3140 3895 3652 2697 3046 2885 3774 2879 2963 2733 3834 3129 3891 2792 4838 4289 4973 4048 3165 3942 4278 3977 3992 3231 2606 3351 3068 3275 2634 4051 3234 2718 4974 4294 4629 4312 13 25 21 12 36 2 33 2 15 16 27 38 32 26 6 15 17 24 23 23 34 34 39 30 36 21 34 20 32 19 33 15 11 3 26 11 11 1 12 10 23 37 32 28 31 32 23 38 23 1 34 15 38 31 28 35 29 10 24 24 26 0 9 11 18 16 1 17 7 19 27 4 21 29 10 2 30 15 26 31 14 27 11 17 3 8 13 2 35 22 2 25 14 39 36 15 1 22 5 33 14 9 19 37 28 9 38 25 6 20 35 29 9 29 19 12 35 32 13 8 4 25 25 26 24 13 24 26 8 8 31 1 28 31 8 13 21 36 7 36 25 4 16 34 37 34 2 8 11 5 19 12 17 13 7 36 34 20 35 12 26 28 22 15 18 1 9 34 23 7 10 11 14 31 4
4588 4444 2943 3530 3774 4342 3077 4923 3087 4597 2676 4626 3217 3204 4693 2599 3502 4970 2930 3983 4652 4235 2501 4213 4624 2502 4986 4955 3100 2578 4348 3394 2609 3904 4800 3837 3063 3880 2904 4876 2605 2948 4363 4254 4305 4944 3177 3754 4330 4051 3391 4417 2717 4344 3802 4590 2779 3990 2966 4552 3195 4962 3027 3463 4531 2590 4341 3397 4031 3664 3328 4170 2529 3411 4305 3732 3270 2587 2833 3057 3783 3131 4003 4444 3421 4865 3476 2783 2761 3206 4773 3643 3588 3995 4762 4938 4915 3309 2613 2869 3319 2962 2550 3021 2977 4070 2642 2608 3171 4366 4325 3511 4783 2663 3212 4469 3681 3882 4063 4123 3943 3358 3427 4681 4371 4251 3665 4352 3894 3770 3847 3028 3578 2662 4925 2680 3736 4628 3759 3168 4862 3644 3728 2849 2665 4364 4284 3905 4004 4137 3767 3525 2847 4116 4111 2849 3152 3168 3680 2725 3465 4525 3339 2624 2757 3198 3509 3378 2599 2542 3945 3709 2534 4979 4555 22 23 30 24 22 2 12 11 19 34 37 9 31 1 16 1 30 24 14 1 8 26 25 19 3 1 32 6 27 1 3 30 13 12 1 6 30 17 29 10 19 28 13 10 2 32 3 27 1 29 19 8 2 13 28 4 18 29 31 21 3 13 0 4 10 38 1 25 17 34 35 27 37 27 7 12 9 23 7 38 28 14 20 12 6 2 8 26 26 33 31 12 4 12 15 29 10 22 26 38 39 7 19 4 35 28 21 6 28 36 23 4 34 32 24 18 2 3 4 32 25 2 19 9 14 21 5 15 13 24 33 26 15 23 38 20 14 8 5 4 4 35 15 22 29 37 7 30 29 8 13 4 20 14 6 16 24 33 2 25 36 29 7 34 28 14 7 16 20 26 13 21 20 22 1
3107 2641 3188 2782 3137 4586 3637 4064 4397 4046 3263 4716 3473 4996 2653 2542 3774 3048 3801 4503 3984 3063 3887 8 3097 3739 2871 3706 3714 3604 3523 4285 2677 4186 4185 2823 3786 4185 3286 3399 4307 2819 2706 3807 4696 2991 3525 17 3300 2607 3215 4334 4541 3372 4221 3528 3315 3637 3577 4206 4851 2568 3809 4887 2890 4100 3950 3289 4105 4132 3541 2687 3929 3801 2594 3889 4243 3180 3825 3376 3762 3982 2917 4569 3085 4151 3441 2975 2929 4533 2917 3179 3607 4243 4273 3057 2588 4630 4895 4458 4484 4433 3244 4544 3261 2733 4095 3680 4784 3265 4899 3529 3063 2520 4630 4464 3465 4949 4701 3919 3393 2810 2536 3907 4785 2644 3995 3385 2914 4186 4062 3745 4202 4714 4026 4682 4844 2529 3841 4093 3194 3150 3188 3572 3731 2566 3399 4517 4603 3669 3369 2954 3620 2813 3083 4721 3610 2723 3542 3856 2702 2552 4977 4319 3412 2554 3806 4018 3876 3771 3663 4477 4883 3892 2744 38 11 31 16 16 5 21 14 16 27 2 12 13 8 9 38 10 9 28 29 27 4 4 28 19 12 14 7 21 30 8 34 29 5 8 6 11 4 33 21 1 39 15 24 33 24 11 25 37 4 23 20 23 34 29 37 36 27 11 14 17 23 21 0 7 31 1 24 33 9 3 26 20 14 15 15 30 36 18 4 26 31 19 34 31 18 13 19 32 4 39 16 36 2 21 31 28 37 4 8 39 26 30 35 31 36 10 9 28 15 30 20 39 23 27 15 36 15 33 31 21 35 29 37 10 21 10 22 35 6 3 14 26 23 23 19 20 10 25 22 28 29 38 33 25 10 30 14 23 36 24 28 2 18 1 16 17 20 28 12 18 30 7 10 38 2 26 38 18 12 1 13 10 34 18
4508 4038 4541 3679 3889 3396 4498 3059 3755 4391 4785 4750 4747 4355 4109 4289 3968 3057 3830 2707 3728 4274 3824 3529 4685 4988 4510 4947 2800 3378 2793 3408 3585 16 4381 4665 2945 3763 2607 2725 3219 4607 3361 4768 4659 2790 3107 4789 3898 4374 3075 4442 4555 3346 4059 3052 2666 2698 3435 2631 3523 2721 4891 4591 2961 3492 4715 4965 2617 2730 4465 4779 3605 3508 3174 2915 3615 3119 2689 3265 4149 2523 4517 4077 3407 4710 3290 4902 3118 4303 3212 4216 3612 3129 4145 4543 3740 3648 4652 4057 4616 3398 4124 4122 4116 4684 3441 4276 4500 4278 3070 3834 4743 4553 3891 3170 4515 3278 3386 3611 3863 4427 3270 4247 4709 3536 3175 3317 2507 2515 3551 4548 3898 3377 4031 3895 4271 4487 4209 4719 4025 3067 4326 3199 3099 3071 2622 4756 3074 3641 2803 4990 4198 3711 3452 2724 2785 3490 4237 2981 3823 4812 4195 2911 4484 3236 4050 4198 2672 3022 3276 4008 4343 3106 3767 20 34 35 9 24 13 28 26 37 7 20 32 13 32 31 27 28 7 1 33 26 34 38 32 5 15 25 11 21 7 3 11 19 31 6 24 19 10 2 26 16 15 2 15 12 17 36 2 30 1 23 7 7 29 16 6 2 8 25 33 17 15 20 39 0 2 22 25 4 7 19 38 9 6 31 16 27 38 23 39 15 14 5 22 12 6 37 19 33 32 39 4 10 4 22 34 10 2 17 32 23 10 27 26 29 20 6 15 39 13 10 26 29 17 39 37 18 20 9 17 8 27 13 15 4 23 9 20 3 9 10 12 20 10 26 34 22 6 35 29 31 13 33 14 37 18 1 26 32 28 26 24 12 8 32 6 21 39 20 5 37 35 26 10 36 30 34 25 30 9 38 29 24 14 30
2895 2529 3593 3390 3326 3390 3358 4321 4577 2558 3266 4591 3824 4599 3519 4422 3084 3545 4983 4666 4201 4503 3452 2914 4397 3827 4615 3821 3650 3462 3639 4773 3790 4614 2703 4039 4167 3480 3052 4706 2683 4297 3129 2591 4603 2844 4589 2816 3623 3756 4109 4278 3640 3130 4381 3549 4620 2662 3280 4929 4302 3586 3513 3772 3967 4997 4104 3449 3610 3996 4426 2879 4538 3728 4959 2689 4623 3126 4680 3476 4935 2964 4849 3141 2604 3375 4921 2553 4158 4541 4748 2987 4886 2529 4745 3059 3273 3065 3555 3815 3120 3452 2561 3939 4756 2912 2815 3025 3225 3139 3267 4984 3120 3986 2678 3288 2543 2953 4998 4022 3760 3981 4316 4186 3583 3809 3485 4415 4077 3548 2516 3734 4671 4568 4716 4716 3922 3740 4240 2915 3406 4881 3720 3920 4717 4626 2825 3405 4463 2974 3492 3632 2776 4987 4344 4479 3049 3013 3091 4235 2706 3927 3294 2921 4763 3441 3673 3463 2806 3245 3089 4142 2722 4647 4805 2 16 5 18 20 29 18 17 7 37 15 36 24 31 33 20 38 39 7 27 33 37 17 24 5 16 23 31 4 34 5 17 33 15 19 10 27 24 19 18 29 17 37 8 21 10 38 20 33 38 35 30 2 14 8 29 5 39 37 32 10 26 16 35 7 0 7 20 34 12 32 17 36 4 11 2 9 13 38 38 35 34 34 35 1 23 1 28 20 7 18 11 10 6 21 30 25 22 14 4 31 12 39 15 10 21 4 34 12 14 19 18 36 36 19 29 26 23 27 18 13 21 18 11 34 7 24 12 38 20 18 23 1 9 25 30 11 22 19 35 23 31 23 33 20 38 36 9 3 39 39 20 3 8 26 4 11 34 36 1 30 9 33 31 2 37 37 27 36 21 31 33 9 31 2
3394 4602 4543 3911 2807 2561 4338 4610 4158 4747 4988 4477 4714 3046 2610 4258 4517 4722 4289 2878 4835 2761 3034 4589 3317 3919 2721 4948 3440 4087 4475 3553 4563 3691 4674 2582 2837 3301 4066 4636 4317 3535 4161 3399 3323 3783 2564 4841 3037 2981 3290 4867 2502 2544 3498 4015 4519 4493 4211 2923 4301 2854 2815 4519 4598 3901 4594 4679 2910 4224 3601 4955 3028 2521 4999 3510 4208 3437 4628 2683 3324 3361 3980 2845 3863 3263 2534 4134 4320 4898 3088 4105 3992 3853 3482 4793 2929 4409 3250 4938 2566 2651 2591 2574 3610 2805 2752 2663 4127 2574 3651 4953 4081 2524 3530 4009 3091 4578 3087 3808 2579 3648 3311 4938 3277 4680 3085 3984 3093 4316 4871 3611 2559 3632 4424 4400 3074 2511 3860 3166 3610 3823 4345 3518 3251 3635 2875 3471 3539 3535 3026 3284 3253 4861 4213 4852 3181 2756 2789 3597 4517 4435 3276 3105 2867 4359 4758 2689 3132 3360 2874 4649 2940 3686 2500 5 31 24 18 22 27 33 1 29 31 2 14 27 37 22 31 30 38 11 38 11 3 37 14 31 18 4 17 33 36 34 19 35 37 37 13 22 30 33 33 17 14 11 20 24 37 18 23 21 1 29 14 20 11 10 13 19 17 26 17 16 33 13 33 19 38 0 11 10 20 3 16 23 9 13 36 23 21 24 28 20 23 1 29 12 14 24 10 28 26 30 26 37 24 38 35 6 11 17 34 23 34 26 1 29 18 35 13 21 21 27 39 5 3 30 23 10 39 30 1 29 16 29 39 26 3 17 4 1 25 38 20 25 2 16 27 1 13 10 39 2 30 6 14 6 27 4 18 27 36 27 25 26 11 20 16 37 9 11 11 24 21 2 17 34 23 32 21 9 6 25 22 33 34 31
4157 3705 3656 2914 3549 4395 2534 2882 3850 2571 3767 3050 4965 4584 3704 4581 3246 4883 3015 2773 4292 3710 4711 3372 3870 3760 4148 3502 2678 4552 3112 4569 4485 3920 4010 4634 2829 4586 3537 4671 3380 2538 2907 3825 3298 3539 3147 4785 2524 3057 4498 4196 3223 3851 12 4117 3657 4539 3648 4409 2798 3510 3495 3646 4929 3653 4984 3640 4047 4987 2519 2947 3240 4763 4085 4571 2623 3181 2824 4177 3292 3836 3812 4366 4295 3188 3274 3369 3706 4781 2656 3625 3215 3769 4516 2746 4152 3527 4476 3490 4054 3998 2995 2824 3195 4044 3161 3285 4236 4099 4488 2719 4038 2561 4745 4253 2651 4470 3470 2787 3471 3369 4200 3154 3718 3349 3257 4393 3191 2670 4738 4271 3044 4342 4936 2719 4766 4665 4064 4262 3530 4048 3957 3243 3768 3167 4704 3591 3319 3737 3159 4187 2884 4031 3102 3863 4461 3439 2605 3971 3633 2563 4293 2797 4324 3483 2608 2864 2678 4055 3873 2669 4212 3738 4427 16 5 38 5 31 11 18 20 10 5 39 1 3 34 27 7 25 15 6 38 5 5 11 33 27 30 35 11 38 26 5 7 9 14 26 10 30 30 29 4 25 25 13 37 19 23 22 24 20 7 30 5 19 3 26 32 15 39 7 13 9 14 16 13 9 12 27 0 35 35 19 7 3 11 3 20 15 38 30 27 18 31 24 19 24 3 32 27 29 12 35 25 24 22 29 20 26 17 10 18 22 36 25 9 22 7 26 31 10 7 23 19 38 20 3 9 32 23 32 3 21 1 14 29 3 36 24 8 17 10 17 5 19 24 3 36 6 17 38 31 16 5 23 16 39 17 4 28 15 18 32 14 18 17 11 33 23 15 6 2 37 32 11 14 25 8 13 23 23 10 26 1 39 33 20
3419 4461 4991 4930 4357 4454 3639 3180 3170 3311 4075 2741 3677 3509 3673 2587 2614 4724 3202 2761 4040 3532 4912 2693 3443 2559 3759 2545 4077 3750 3915 4081 4397 2942 4741 2917 3703 4612 3283 2760 2810 3227 2997 3254 4905 4420 2791 2792 2569 3163 2913 4176 3546 4391 3785 2788 3538 2846 4614 3179 4829 3322 3586 4711 2715 2662 3835 3577 4828 3325 2558 3913 2582 2830 3203 3220 4498 2842 3904 4764 3606 3487 3759 3618 3335 4838 3671 4204 3720 4138 3889 2975 3099 4557 3429 4289 4952 3728 4858 4095 4086 2708 4957 2785 3353 2687 3167 3093 4340 4334 3076 3439 3529 2904 4872 4390 2663 3198 2518 2602 2650 3172 4203 2943 2985 4445 4395 3586 3260 4605 4071 2764 4497 3624 4735 4369 2616 2822 3715 3465 4393 4372 4433 4376 2823 3580 4623 4975 4921 3700 3638 3496 2858 3255 4308 4612 4886 2913 3807 4719 3233 3564 4956 4001 3396 3463 3907 4482 4227 2823 3972 3783 4285 4769 3590 4 7 8 7 35 18 33 39 22 10 19 6 3 36 30 32 34 15 24 11 8 24 20 21 31 39 31 5 27 7 1 12 29 4 16 24 28 39 38 34 13 31 18 39 22 2 30 36 13 30 34 33 32 1 33 31 12 13 1 35 28 27 24 7 4 24 10 21 0 34 36 3 26 8 32 24 39 2 10 16 31 9 32 39 34 18 39 21 24 2 23 21 7 25 8 11 19 5 25 28 2 17 5 1 33 14 16 1 11 36 27 35 4 13 26 27 8 31 11 18 5 10 19 28 16 1 12 28 38 8 1 2 29 36 29 38 10 5 30 21 5 10 12 7 1 30 13 25 19 19 6 33 3 1 15 11 36 38 15 34 9 2 33 28 23 11 22 27 20 4 11 1 32 27 1
3395 3449 3055 4061 4556 4560 4573 2890 3265 4122 3983 2958 2669 3720 4624 4998 4744 3228 3997 3070 2653 4782 3428 2969 3425 4071 3442 2968 4912 4709 3234 4001 2661 3331 4142 4780 4240 3482 3000 4003 4414 4862 3842 3585 3671 3085 4022 3296 2555 3411 4600 3599 3096 4303 4168 4461 4717 4211 3477 4979 4745 2618 3004 3174 4341 4632 4358 4834 3525 4147 4384 4967 3752 2786 4497 2818 2842 3971 4955 3776 3843 2619 4074 4471 4186 4868 4360 2556 3843 2646 2922 2822 4846 4339 3725 3338 4066 3306 3269 3761 3668 3056 3575 3937 3561 4076 3010 3888 4055 3705 3586 4804 3413 3336 11 2705 3721 3997 4909 4801 4425 3004 4157 3253 4243 2711 3226 2792 3539 3253 3538 4938 4982 4138 2586 3552 4587 2550 3900 4511 2790 3076 2587 4048 3558 2603 2510 4374 2848 4481 4431 3747 4325 3542 4936 3894 4982 3003 4331 4019 4039 2856 3750 4896 4908 3620 3624 4666 3907 4316 2963 3863 4955 4052 3766 11 21 17 1 14 31 15 15 14 1 37 1 9 35 11 25 36 35 8 32 35 13 36 29 3 29 38 13 39 28 20 26 8 39 38 3 9 32 21 16 4 30 34 10 11 32 16 25 25 14 8 38 24 14 38 3 23 1 28 29 22 28 34 33 4 27 1 28 4 0 19 8 34 3 23 38 29 15 25 1 13 34 28 18 30 17 4 4 30 30 2 15 28 12 24 39 2 23 20 33 24 20 5 6 21 12 2 6 28 16 15 21 39 14 8 21 25 2 20 37 9 28 13 27 39 1 11 23 7 17 20 24 24 33 1 15 21 21 14 17 34 38 13 34 18 39 18 7 18 23 35 17 30 20 11 31 20 1 7 9 14 23 1 20 13 28 6 17 3 19 30 33 37 15 25
2714 2901 3450 3871 4297 2567 4808 19 2839 3877 2734 2548 3194 4258 3434 3473 3294 3663 4753 2880 4014 4076 4989 2727 4377 4687 3463 4826 3035 3165 3780 4276 3762 4773 3656 3534 3541 3557 2623 3294 2791 4012 4897 4261 3226 4100 4181 4676 3148 3591 4290 4508 3145 2730 2590 3370 3845 4416 3649 2741 4067 3148 3105 2976 3586 3608 3390 4515 3780 4786 4757 3968 4164 4216 3623 11 3936 4396 3375 4386 3225 2545 2657 3391 3136 4968 3465 4844 2845 2771 3015 4119 4378 2817 4570 4114 4030 4452 3806 4268 3325 3384 3286 4000 4075 4031 3105 2552 4884 4835 4811 3195 4810 3008 3484 3203 3600 4769 4614 2664 4487 3446 3178 3413 3032 2899 3364 3563 3827 2753 2759 3893 3224 3325 4329 4514 4519 3189 2745 3360 2832 4004 3191 3863 2742 3600 2771 4847 3347 4121 2731 4984 4078 4711 3303 3936 3701 3370 4315 4260 4516 2885 4332 3226 3435 4880 2501 2986 2665 3993 2916 4500 2534 2921 2825 24 14 9 17 15 34 1 30 11 27 16 34 35 1 39 9 3 15 29 6 14 8 14 10 29 8 14 28 27 14 37 3 26 37 2 12 22 21 28 12 17 27 30 23 28 18 21 4 21 28 37 2 32 11 10 21 27 37 37 12 1 39 2 20 6 30 12 22 8 3 0 15 33 23 39 28 6 7 18 24 16 29 16 35 8 35 19 27 34 23 18 28 5 34 38 31 27 23 17 16 33 23 22 17 28 4 9 3 35 19 10 17 21 1 28 23 34 15 3 38 10 8 17 26 29 1 38 12 14 21 12 16 34 7 32 27 28 14 11 1 38 38 35 32 32 27 38 27 19 31 29 4 37 39 8 8 10 15 24 32 11 26 39 6 6 33 31 36 25 27 11 31 31 31 17
3316 4350 3765 3876 3818 3311 2603 3540 4644 2515 2860 3780 3196 2989 4423 4557 2547 3650 2925 4049 2730 3774 2538 4542 4815 2959 4863 4151 3112 2565 3155 2572 3940 4123 4283 4006 3965 3249 3095 3102 2552 4530 3448 4507 4297 3711 2818 3068 3784 4283 3607 4674 4441 4717 3412 4830 3084 2809 3795 3259 3014 3743 2641 3764 4533 4947 3044 3795 2894 4668 3891 4091 2812 4727 4993 4067 4543 3834 4966 3396 3758 4312 4350 2782 2570 2790 4511 4773 4836 4477 3071 3358 3167 2883 2826 4363 3498 2563 3635 4860 2654 2914 3195 3702 3507 2561 3835 3912 2700 4761 2658 3944 2807 4210 4884 4361 2516 3623 4219 4529 4633 3239 4867 4753 2545 2550 2772 4165 2526 4185 4581 3016 3955 4479 3068 2652 2909 4478 4748 3635 3079 4922 4701 2896 2609 4039 3908 3824 3176 3216 4703 3316 4464 3913 4432 2675 4424 2759 3180 3534 4130 2590 4388 2816 4251 10 4610 5 4063 4738 2782 2608 3480 3633 4165 37 2 27 13 33 34 21 9 24 33 37 37 22 31 28 18 7 39 12 20 7 37 34 25 11 23 36 12 31 6 9 14 22 22 10 12 21 3 26 28 29 12 5 31 27 36 8 35 17 5 24 31 14 10 22 23 12 11 36 14 26 21 14 6 18 36 14 16 39 21 31 0 13 29 20 28 32 32 16 37 12 23 8 17 20 3 25 29 29 8 22 12 22 1 10 35 32 7 28 5 6 18 15 4 1 17 37 6 3 6 22 8 8 31 18 26 7 10 27 4 23 32 4 12 11 6 22 27 20 26 36 37 28 24 28 6 27 5 39 34 4 19 27 31 28 7 21 9 25 34 27 32 8 9 6 14 10 33 14 10 33 19 7 13 6 38 33 20 12 25 15 16 7 31 10
4820 4565 3086 3632 3712 2746 3209 4222 4310 3939 4347 3393 3394 4352 4724 3835 4442 3710 4663 3336 4326 3490 3060 2621 3138 3625 3327 4370 2755 3217 3064 4297 4510 4205 2613 4784 3755 3121 4008 3603 3457 4109 4798 3257 2972 4558 4650 4196 3968 2940 3017 2915 4704 4249 3142 3591 4410 2877 3696 2585 2692 4903 4635 4826 3903 3482 2537 4130 2949 4756 4123 2843 4599 3121 2666 2934 4880 4749 2500 3899 4464 3880 3387 4388 3994 4771 4443 3587 3738 4075 4735 3137 3989 4472 4396 2724 2729 3176 4511 3087 4070 2937 4356 4528 4802 3528 4465 3957 2631 4667 4950 3268 4435 4102 2775 4386 3394 4781 2762 3372 4690 2858 3031 3464 3128 3286 3120 2976 4790 3762 4305 4086 3698 3953 4738 3824 3889 2616 2650 4293 4306 4050 3761 4240 4526 2641 3460 3665 3303 4378 3438 4001 4660 2815 3297 3318 4439 2956 3188 4750 4091 4346 3562 3456 3706 4377 4923 4223 2885 4561 4348 4109 4852 3148 4234 3 12 33 19 24 2 30 31 36 23 27 32 16 28 32 32 29 5 19 11 1 26 34 26 3 18 19 1 14 29 12 38 12 1 31 11 27 28 25 30 22 34 3 39 20 23 38 30 28 7 2 32 19 18 9 32 27 7 32 33 35 2 25 29 35 12 12 34 25 22 26 5 0 4 27 29 2 35 4 22 12 31 14 1 30 14 5 6 7 33 32 28 36 21 33 22 26 17 31 32 22 4 5 4 16 33 23 13 18 10 27 15 32 38 15 19 2 38 27 11 27 38 2 12 1 3 7 24 4 11 21 10 23 20 11 12 1 5 39 25 7 37 10 3 37 8 22 10 7 37 36 8 26 12 34 8 29 21 35 17 8 37 24 14 17 24 15 6 35 15 15 4 1 28 16
2541 4135 4043 4122 3039 3784 3530 3995 3619 3097 3042 3507 3010 3149 2580 4190 3524 3509 2867 4374 4713 3031 3017 3051 2747 4246 2540 4654 2609 3970 3994 2926 3701 3780 4012 2868 2811 4981 3233 3373 4035 4990 4657 3619 3810 2565 4446 4497 2546 4143 3931 4348 4365 3530 2915 4346 4507 4513 4872 2571 4478 2703 3642 4956 3770 4796 2605 3961 2618 4586 3089 3018 3026 3218 3236 4758 3496 3589 2995 2849 3934 3740 4101 3067 4063 2549 4527 3665 4283 3571 3316 3641 4694 3361 3249 3804 4433 3956 4626 4401 4849 2508 2549 4293 3081 2855 4328 2629 3072 4725 3890 4060 2820 4575 3132 4757 3683 4884 4910 4273 3339 2656 4168 2539 3772 4047 2964 4867 3088 4371 2514 3167 3940 2966 3792 4160 2500 3672 3728 2627 3723 3508 2882 3974 4376 3833 3904 4086 3134 2756 3439 4677 4254 3933 2560 3267 4290 2552 4763 2991 4752 3707 4483 2518 4655 3261 4114 3203 3522 4276 3397 2777 3235 3085 3516 29 30 5 12 14 35 33 37 38 28 29 16 30 5 7 13 5 32 9 2 38 18 12 18 10 36 16 27 18 9 18 10 27 37 3 31 29 21 22 7 17 1 23 9 7 15 35 25 37 33 32 33 37 10 6 8 12 34 38 15 39 36 12 21 24 30 20 22 8 21 3 17 32 0 9 31 1 34 37 14 15 15 12 25 15 39 13 13 12 36 34 27 28 23 13 3 38 30 20 8 27 36 23 25 5 12 12 30 36 17 26 16 39 34 25 13 38 28 37 17 38 10 14 5 13 31 8 20 38 9 21 34 13 7 29 32 1 3 27 15 29 19 10 21 25 2 33 39 36 34 17 34 37 15 35 2 4 11 25 23 2 31 29 27 15 19 30 2 13 34 36 29 25 24 33
3492 3632 2907 4911 3286 4986 3603 3361 4229 3839 3403 3757 2937 3869 3563 4312 3893 2956 4118 4375 2833 3610 3469 4497 3383 3140 3190 4428 4280 4414 4768 4542 4366 2780 2597 4267 4854 3557 3208 2504 4245 3759 4213 3065 3146 4507 3885 3559 2651 4954 4925 3962 4910 3988 4005 2616 4767 4292 4312 4573 4317 4620 4796 3655 3377 4474 3088 4843 4619 4804 3642 4763 2526 4894 3781 4408 4901 3971 2530 4891 2582 4467 2981 4284 3456 4209 4876 4998 4455 2776 4644 2569 3144 3275 3085 3311 3659 3842 2945 2722 4535 4643 4983 3912 2579 3205 3929 4038 2662 4462 3125 3505 4760 4246 3416 2981 3335 2606 3954 2992 4152 3513 4929 3807 4287 2737 4212 2961 3103 3737 3750 4522 4078 2535 3035 2581 4881 3128 3885 4667 3178 3356 3454 3259 3694 3995 3591 2840 3417 3557 3704 2820 3175 2611 4233 4245 4935 3725 3043 4321 4405 3538 2692 3812 4992 2519 4041 3264 4368 4745 3164 3683 2570 3129 2542 14 14 9 2 23 29 19 12 33 5 5 19 12 16 7 37 32 9 26 33 17 21 28 14 26 7 10 20 16 35 21 20 28 36 35 10 34 30 29 19 13 7 8 24 21 30 23 28 38 13 6 1 16 21 17 35 4 2 1 37 33 4 12 16 16 6 1 13 35 33 38 14 12 3 0 33 19 31 19 12 30 11 6 15 5 6 33 35 10 25 26 16 7 27 18 35 3 27 3 13 33 31 28 25 24 8 5 27 25 2 20 5 38 3 24 19 37 23 28 9 2 13 11 33 20 25 1 11 5 22 18 33 33 10 18 23 20 23 23 29 4 18 18 25 6 20 3 26 3 2 27 10 13 35 1 1 19 37 35 26 7 10 8 23 31 29 17 32 11 3 38 32 34 22 32
4284 4189 2737 4317 4624 3770 4526 4403 3196 2909 3690 4024 2942 4573 3380 4698 3198 4607 2736 4393 4841 2933 4699 4292 4707 4833 3431 3047 3829 4921 4670 3492 3558 4748 3950 4417 2609 3809 3233 4625 4629 4669 4990 3648 4427 3755 4451 3582 2713 2563 3111 4670 4974 4419 3729 4714 4617 2635 3249 4469 3715 3258 4933 3243 4981 4620 4842 2726 2667 4508 3348 3741 2849 3463 3763 3076 2603 2793 4007 2965 3712 2802 2657 4782 3749 4167 4985 3997 4946 4490 4426 3819 4011 2539 4122 3194 4792 4983 2895 4517 3024 4651 4689 3109 4246 3502 3305 4545 3877 3262 3805 4854 4447 3876 4976 4419 3259 3431 2982 4669 4758 2525 4678 4020 2568 4210 3714 3945 4047 4159 2689 2764 2729 4795 4180 4633 2590 4133 4342 3695 3482 4763 2583 4836 3678 4215 3235 3340 2831 3650 4231 4753 3946 3470 3936 4784 3223 2611 2880 3288 2852 3417 3694 3465 2634 4546 4303 14 4274 3214 3003 2880 4989 4445 2880 19 19 12 8 39 35 38 26 37 34 33 38 10 30 1 24 19 12 26 4 32 30 30 2 18 19 4 39 34 28 4 2 23 5 13 36 29 28 1 2 8 24 26 4 11 4 7 19 36 11 17 36 35 1 7 26 30 6 24 20 9 38 20 20 2 31 37 26 19 27 11 18 29 37 15 0 30 22 7 33 28 12 38 9 8 23 39 18 29 14 3 14 20 8 31 1 24 24 2 17 32 10 6 21 32 4 11 2 22 27 18 1 20 19 12 7 29 22 12 26 32 39 15 11 22 1 39 2 20 32 12 30 23 27 8 32 26 9 17 3 18 35 31 18 18 4 23 19 7 7 25 31 10 14 20 31 29 21 24 26 35 26 35 20 10 3 38 27 2 30 11 27 38 18 11
4510 4188 2906 2520 3389 4555 3375 4197 3412 3160 2732 4622 3469 3049 4622 4378 2543 3179 3160 4211 3508 4348 4848 2903 3650 3863 3536 4357 4056 3887 3811 2633 4079 4192 3829 2565 4959 3458 4966 4849 4982 3960 4503 3415 3101 3678 3535 2668 3413 2642 4235 3422 2633 4047 4344 3658 4825 3916 2705 3842 2663 4728 4479 3070 3554 2610 4940 2843 2581 3889 4962 3438 3738 4411 4844 9 4255 4130 4906 2689 3996 3593 2857 2667 4731 2531 2999 3767 2606 4905 3901 4704 3918 4175 3051 4023 3087 3568 4867 4978 4926 3325 2581 2843 4073 3472 4307 4201 4197 2751 2881 3377 3403 3140 3370 2540 2727 11 4019 2669 3002 3725 4071 4284 3898 3697 2634 4821 3807 3145 4572 3195 3847 4344 4432 3417 3689 2707 4882 4368 3350 3433 3398 3453 3668 4638 4502 3105 2856 4414 3861 3420 2706 4184 2695 3001 4831 2815 3676 4464 4408 3139 3940 4409 2614 4956 4344 4072 4586 3490 4679 2730 3361 4111 3644 6 32 37 12 2 20 16 37 24 13 17 26 36 4 23 34 36 6 24 11 21 9 27 20 4 21 33 11 35 28 1 27 27 1 17 38 25 1 25 1 36 26 2 20 28 33 4 15 30 33 24 10 6 20 17 31 18 27 16 4 20 19 29 21 17 14 2 34 18 20 36 2 16 17 22 33 0 25 3 22 34 19 37 32 31 21 9 34 7 14 4 11 20 28 1 20 7 8 6 5 18 1 33 1 31 9 14 8 33 22 12 1 23 29 37 30 32 28 31 35 34 22 10 28 27 23 27 9 9 31 33 31 6 14 15 5 27 23 22 14 24 23 31 27 24 26 7 15 29 19 14 24 39 25 25 15 15 34 10 5 23 36 18 39 24 31 33 21 28 6 16 2 37 22 10
3473 2832 2952 3843 4301 3589 4897 4052 3751 4923 4357 4252 4131 4701 4356 4061 4623 2598 4302 4497 2775 2976 3786 3021 3818 3317 3741 3119 2861 2955 4066 4383 3966 4321 4592 4193 3708 4596 2643 3612 3929 4982 3742 2786 3081 4366 4158 4614 2545 4213 2654 2907 3736 4745 3483 3576 4561 3966 3394 2731 4795 4113 4395 4982 3888 2818 2741 4261 2896 4138 3705 3148 3343 4722 4318 4334 4414 2723 2778 3400 3447 3712 4237 3840 3739 3196 2638 2797 4422 2652 2617 4236 2850 4578 4572 2927 3598 3294 3212 4515 3934 2610 3056 4445 4311 4887 3414 4912 2758 2727 4398 3394 4141 4570 4411 2702 3160 4537 3783 3516 4484 3389 2994 3121 3042 4999 3175 3390 4184 4262 2595 3278 2819 4212 2790 2818 3626 2686 2680 2652 3667 2711 4181 4568 3045 4850 4025 4702 3977 4099 4585 4980 3241 3684 2854 4039 2911 3525 4425 3316 4319 3838 3028 3363 4272 2878 3624 3530 3070 4936 4999 3353 4284 4870 3470 2 30 12 15 33 26 1 28 4 28 21 15 6 13 10 10 19 19 4 16 10 24 12 26 6 19 3 21 36 2 21 27 26 36 34 35 20 25 21 24 11 2 23 25 5 30 31 18 7 25 14 11 4 11 28 24 2 16 30 2 22 37 11 24 17 16 9 12 33 21 11 27 5 12 21 3 20 0 9 3 30 31 10 8 24 36 28 35 18 32 32 31 4 16 31 25 21 21 18 13 1 11 3 15 4 39 12 12 22 9 11 4 36 33 4 37 7 24 29 11 30 11 7 4 8 2 7 36 4 5 38 4 5 1 38 31 18 27 6 23 31 5 39 7 11 24 35 20 20 28 37 1 24 8 10 13 16 32 3 38 6 22 21 19 11 14 10 14 24 1 7 16 14 3 22
2619 4669 2613 2562 2944 4673 4261 3066 3188 2548 4245 4577 2626 2685 4249 4028 2984 3091 4835 4090 3711 3999 4886 3351 4658 3749 2980 3419 2965 2843 3380 3258 3570 4741 3469 4323 2920 3636 4278 4796 3519 2574 4842 3623 3040 4315 4558 4743 4265 2574 2588 3523 2711 3977 3969 4470 2549 3378 4379 3635 3132 3294 2576 3263 4311 4720 3117 4761 3194 2847 3295 3687 3117 3889 3617 3431 3010 3655 3154 3518 4047 3761 4227 4055 4290 3885 4224 3862 3337 2636 3080 4047 3898 3881 3486 3683 3645 3819 3091 2875 3684 4658 2695 4740 3899 3722 3045 3607 4664 4192 3213 2852 4134 3437 4836 2910 3006 4133 3740 2733 4075 4204 2684 4135 3045 4327 3442 3180 3880 3632 3556 2792 2817 3651 3082 2782 4837 3430 4011 4624 4103 3691 2616 4245 3792 3286 4684 4328 4676 4463 3486 2614 4790 3613 3700 2717 2535 4277 2899 3817 3328 3911 3447 2557 2579 2897 3661 4964 2865 3689 4303 2822 3944 3295 4355 34 15 30 1 28 35 36 24 31 12 9 20 25 16 9 27 27 37 39 26 31 13 14 39 21 37 7 7 1 39 24 34 14 4 13 30 5 31 1 1 30 16 34 34 23 16 26 26 32 30 30 25 32 38 38 34 5 16 30 8 1 17 26 39 31 17 25 27 10 4 16 25 37 38 27 15 36 26 0 18 17 11 6 32 38 10 30 23 36 3 8 1 26 23 13 14 33 5 33 9 5 17 2 22 15 10 36 2 3 14 18 31 15 32 38 8 35 32 14 16 15 17 7 3 33 1 30 18 15 30 30 38 31 38 17 4 2 35 8 4 26 21 2 31 23 1 21 35 27 1 36 37 19 21 18 8 35 13 26 16 35 33 37 27 21 2 6 10 35 6 26 33 37 37 23
3505 2765 4229 4751 2995 3698 4417 3752 4628 3363 3201 3322 4360 4621 4884 2639 3657 4904 2894 4192 2891 2806 3253 4828 3000 3864 4130 3349 4462 4081 2535 2845 3328 3164 4797 2874 2526 2545 3777 3187 2995 2897 4932 3106 4020 3324 4425 4023 4414 4077 4323 4714 4403 3062 3497 4105 2624 4388 3722 4647 2989 3982 4008 3190 3910 3352 4458 3737 3241 4310 2735 3673 3027 4720 3932 4882 2714 3187 4652 3693 4898 3459 4983 4404 4247 3410 3887 4191 3490 4875 3603 3085 4405 4637 3093 3709 3473 2976 2859 2539 4809 3717 4225 3259 4335 3103 4986 3284 3699 4671 2862 2914 3576 4855 4801 3505 3621 3772 3991 3406 2953 3730 2587 3828 2509 3175 3195 2948 4162 4883 4234 4491 3110 4276 2810 2667 2936 4467 4712 4196 4952 4291 4742 2811 3618 3394 2568 3755 3149 4020 3588 3790 4715 4259 4026 2760 4243 4557 4098 4556 4276 2886 2568 4109 4335 4293 2658 3913 3174 3872 4553 4665 2539 4063 3357 38 36 7 26 38 20 25 36 12 34 9 37 29 39 36 37 5 24 35 34 32 15 4 23 38 9 7 15 13 24 32 11 38 35 19 29 30 3 33 11 17 21 25 16 22 31 5 15 1 6 19 25 38 2 12 9 15 20 29 27 23 32 10 28 18 11 30 39 29 22 17 28 10 4 28 15 15 19 39 0 24 2 7 3 25 35 12 3 18 31 3 16 1 15 25 10 24 23 18 25 23 17 11 17 2 18 33 13 5 32 9 9 22 12 16 2 11 34 20 4 14 18 30 19 2 10 32 5 30 35 27 2 27 19 30 30 17 13 5 19 25 1 32 20 18 9 16 20 33 35 35 20 31 29 21 13 39 19 39 9 25 18 21 30 5 9 18 33 20 6 15 4 22 31 6
4219 2600 2638 3426 4466 4421 4860 4019 2576 3628 4764 3373 3498 3859 4092 3084 2745 4837 2619 3645 2662 3771 4366 4090 3209 3704 2668 3430 4383 3010 3434 2612 2773 2965 3537 4650 4871 4319 4507 3877 4812 2969 3228 3260 3600 4031 4642 3359 4550 4748 3626 3189 3197 4777 2835 4109 4815 4252 4575 2858 4457 4364 3304 3787 4234 3727 2920 2728 4146 2603 2805 4725 2798 4545 3898 3438 2966 3933 3795 4098 4487 2749 3421 4628 4286 2684 3371 4844 3037 2584 2892 2984 4938 4867 3063 2954 4686 4818 3792 4622 4091 3575 3690 3372 4204 3694 3390 3385 4820 4031 2587 3352 4235 4515 3528 3655 4064 2852 3013 4194 3434 4635 3521 3728 2735 4633 2716 3805 2683 3101 3394 2698 4471 3063 4174 4353 3736 4317 4812 3243 4402 2798 4604 3733 3691 4037 4255 3982 3066 4787 4989 3781 3448 3563 3540 2858 4902 3706 4631 4708 3340 3956 4306 4731 4392 4205 2869 4901 4969 4476 2758 3344 4143 2832 3815 28 1 22 27 4 33 9 23 31 26 30 25 33 11 39 13 3 33 19 26 22 2 9 37 3 5 16 4 28 33 20 23 21 10 26 10 22 10 34 12 36 34 27 24 34 24 26 2 20 23 1 2 17 28 24 31 30 16 9 26 31 12 12 38 14 2 34 33 5 29 22 11 32 38 28 18 14 15 15 15 0 33 5 20 20 17 33 4 26 3 17 29 18 23 14 36 1 23 11 29 25 35 12 24 35 4 7 11 24 22 27 28 12 21 6 8 23 25 27 32 29 13 26 37 27 27 39 13 22 29 27 27 25 29 31 15 26 21 17 10 37 27 11 33 25 36 25 26 14 12 4 8 28 28 2 35 12 20 13 15 39 19 14 10 22 39 3 35 28 31 3 26 10 8 39
2639 3879 4989 2708 2975 3005 4681 3015 2603 4798 2511 3733 3512 3053 3338 4892 4485 4678 2998 4289 3271 2822 2759 3058 3023 3849 4883 2634 3909 4188 3798 4080 3793 4875 3141 4621 4423 4254 3921 4948 3183 15 3578 3288 4121 3112 3900 3011 3933 4908 4995 4949 3641 2896 4593 4727 4107 4118 2576 3875 3300 2740 3711 2836 2981 4606 3249 2944 3151 4217 3856 2510 3254 4788 2574 4202 4610 4607 2772 3760 4945 4659 4872 3679 3220 4439 4531 4818 3261 3234 4144 3264 3327 3726 3476 2711 2727 2653 4648 3913 3277 2848 3335 3556 4687 3086 3712 3266 4133 3233 4774 2632 4557 4917 3050 2666 2599 4543 2839 3439 2641 4640 2886 3843 4147 3708 4140 3479 2845 3168 2711 4951 3129 3372 3474 2764 4729 4806 2509 3704 4352 2898 3592 3056 4865 4857 4637 3658 2922 4674 3349 3715 4161 3287 2863 4430 3119 2808 3503 4326 4575 2796 2989 4077 3906 4533 2848 3448 4031 2551 3401 3017 2614 4231 4704 38 27 37 27 38 25 23 29 20 30 39 33 15 37 3 33 35 8 7 31 10 23 34 10 10 20 12 1 32 31 4 7 25 34 34 23 6 7 34 6 25 22 23 19 16 37 12 32 7 8 13 32 34 20 30 14 38 11 36 22 21 12 34 26 9 6 3 7 1 23 21 24 19 5 17 9 24 38 33 32 8 0 7 37 16 6 26 38 7 3 13 1 11 22 28 22 34 15 19 33 28 12 5 33 7 11 8 1 38 15 2 9 17 15 10 16 2 12 8 29 36 5 5 9 2 27 39 10 33 20 4 33 14 35 1 23 16 35 27 4 6 26 3 4 7 36 5 9 31 26 36 25 15 5 38 20 18 5 33 17 39 15 39 3 17 1 18 29 29 37 22 16 27 7 27
13 4850 4515 4824 2850 4530 3533 3997 2856 4611 2775 3906 2676 4723 4139 3672 2961 4031 4776 3148 3036 2557 4081 3273 2998 2835 3758 3146 4987 4864 3805 3896 4872 3751 4947 3462 9 3495 3522 2709 4442 4245 3337 4509 3668 4785 2633 4868 2629 3336 2881 4290 3223 4760 3850 4435 2616 3168 4528 4708 4451 4827 2867 2728 3221 3435 2531 4292 4809 4440 3681 2858 3781 4760 4469 4894 2881 2678 4382 3339 3462 2876 3937 4780 3494 3248 3915 2874 2952 2537 2904 4968 3084 4609 2728 4934 4352 4935 3057 4308 4290 2953 3510 3739 3169 3430 2625 4612 4867 4284 3140 3940 2696 4909 4412 3423 4031 3490 4561 2908 4766 3215 3730 3768 2883 4460 3248 3716 4973 3171 4628 3978 3148 3145 2916 3139 3130 3652 2773 2728 4503 3458 3226 2738 3088 4475 4255 2567 3847 2641 4643 3728 4893 2829 3814 3692 4829 4759 4829 2630 3571 3597 3120 4828 4845 3335 3793 2898 3207 2691 3649 3683 2735 3626 4351 12 29 3 33 13 11 16 35 36 10 36 33 27 15 13 34 37 32 33 37 37 22 38 2 14 12 38 26 20 34 20 11 26 13 11 9 32 19 10 24 3 21 3 29 3 17 36 27 21 20 15 8 38 22 25 39 31 35 20 13 24 25 14 30 3 18 13 5 36 31 5 34 4 36 36 39 22 19 26 28 36 33 0 19 27 10 37 13 22 39 7 39 6 1 17 20 22 21 32 2 39 39 1 25 13 5 10 22 18 21 34 39 17 27 7 18 2 37 8 19 14 24 17 17 30 11 37 3 6 12 39 18 33 26 2 32 12 3 15 13 20 35 32 12 39 17 29 17 30 15 25 38 34 5 20 8 8 4 18 27 15 37 1 17 14 4 32 34 22 37 2 32 13 20 16
4419 2990 3665 3713 2909 4688 2722 3390 2601 3825 4669 2664 4420 4552 4662 3115 3677 4103 4968 3921 4275 3234 3048 2743 2640 3228 2742 2930 2860 3456 3462 2808 2634 4464 2672 3394 4726 4541 2962 3776 2973 2523 4097 3112 3814 4208 4446 4979 4917 2608 3354 4560 4445 4467 2703 3100 2789 2596 3273 3746 4667 4240 2578 4989 2648 2981 2604 4358 3196 3614 3431 3498 4787 2592 4612 4249 3811 4576 3954 4733 2540 3559 3196 4016 3332 4584 3125 2981 3018 3059 4844 3087 4029 2997 4119 3157 2556 4373 4524 4477 4817 2653 3165 3528 4999 4959 4585 4405 3249 4116 2956 2533 2612 3706 4274 4569 3565 3504 3659 3013 4879 4833 3121 4591 3903 4150 3323 3222 4685 2724 3972 4160 4312 3213 4257 3201 2918 4425 2800 4996 3456 4589 2529 3726 3158 4433 3682 3308 3790 3767 4411 4604 4409 3852 4728 3462 2691 2724 3482 3339 4580 3505 4999 3503 4883 4744 2898 3802 2679 4533 3115 2870 3243 3242 4085 37 28 34 18 38 28 19 31 34 38 20 11 5 17 31 6 5 6 38 29 25 25 1 32 34 17 31 22 18 27 9 14 17 10 13 6 28 6 5 17 25 6 29 23 10 8 2 23 32 38 10 17 35 19 36 3 22 1 24 26 13 23 29 19 6 6 21 10 13 5 16 16 9 21 34 17 7 2 9 36 13 25 33 0 29 4 23 13 29 7 31 22 3 32 32 2 21 23 16 31 21 38 9 33 4 7 22 3 28 8 13 18 4 38 10 17 27 33 18 9 29 26 36 17 27 31 1 11 27 12 36 4 38 7 34 24 38 36 2 34 20 3 17 9 15 6 11 26 22 18 14 16 4 18 26 19 37 10 21 2 30 7 3 4 2 27 23 2 14 27 14 8 39 13 12
2836 4263 3361 3711 4131 3439 4368 3053 3127 3270 2723 4127 4919 2982 4515 4741 4796 2558 2875 4691 4362 4631 2683 3643 3739 3705 4743 2872 4353 4711 3903 4888 3250 2896 2954 3016 3000 3097 3515 3533 4544 4272 4765 4141 3438 2703 2689 3637 4134 4489 3351 4547 2915 4632 3726 4629 4010 3240 3414 3530 3758 2665 3718 4890 2830 4303 3539 4152 3476 4499 4897 3101 3515 4582 3418 4117 3346 4903 4365 2506 4200 4368 4177 4332 4173 2720 4226 2646 3824 4396 4403 4472 4838 3299 2916 4164 2966 2765 3304 2920 3520 3429 4749 4952 2832 3014 2669 3853 3635 4721 4836 3420 2802 2775 4522 3523 3877 4763 4752 4195 2907 4490 3641 2918 4367 4648 4876 3848 3696 3595 2592 2640 4772 4832 4263 4347 3317 3873 3415 4421 3380 2973 3542 3404 4001 4303 3705 2776 3580 4112 3279 4113 2642 3398 3713 2967 3423 2711 4924 3205 4835 3415 3398 2648 3288 4158 2866 4874 3884 3471 3078 3546 2571 2938 4221 13 28 38 24 11 5 8 33 38 29 16 15 5 1 9 24 19 22 16 35 32 22 8 10 4 23 37 22 32 26 11 11 25 33 7 10 19 32 17 12 3 34 37 22 38 4 31 11 9 22 6 15 8 25 39 33 21 3 11 13 24 37 30 34 37 30 22 38 25 27 5 39 12 6 29 5 38 3 16 24 2 14 17 20 0 16 1 38 31 39 26 21 36 35 18 38 37 4 27 31 38 19 11 29 21 22 37 9 27 7 4 27 27 16 9 34 28 28 37 21 25 20 15 15 39 37 5 9 5 33 14 33 12 37 36 3 31 25 30 36 31 38 1 5 5 11 15 20 16 35 2 30 33 27 13 13 30 21 36 26 21 9 20 23 5 11 6 8 18 2 23 31 21 38 25
2584 3019 2878 3743 3817 2787 2733 3260 2815 3775 2567 4840 3103 4829 4057 4344 4025 3227 4696 4877 2771 4577 4201 4225 3880 3977 2725 4482 2880 2505 4079 2995 4070 3389 4414 2991 4335 2590 2717 4232 4036 3102 4827 3867 3658 4977 3110 4328 3252 4928 3281 4969 4963 2635 2798 2733 4907 2583 3799 2501 3694 3311 3212 2766 4031 2906 4149 3158 3817 3378 3187 4713 4195 2501 2910 3518 3590 3887 3887 4072 2999 4429 2885 4955 3240 3696 3778 4500 4895 3187 2834 4401 3920 2694 2523 2866 3208 3227 2787 3549 2772 2718 2843 3282 4614 3785 3899 3084 3772 3125 3747 2590 3044 4164 3351 3328 4670 4981 4066 4114 2531 3312 3612 4919 3045 4109 4611 4908 4313 4810 3734 2762 4714 4032 4865 4022 3675 4984 2937 2633 3940 4096 4885 3851 4054 3394 3526 4682 3900 3814 3985 3145 3865 4551 2816 4427 4641 4348 3303 2614 2655 3296 3577 4348 4629 2886 3895 4680 3788 3571 4008 3490 4770 2716 3374 26 24 12 6 16 33 1 25 11 9 12 14 36 37 1 38 19 6 34 18 3 12 39 17 23 26 32 8 16 13 25 37 1 6 36 31 30 11 13 37 31 30 1 27 20 25 26 22 23 15 21 25 9 2 27 20 1 21 12 19 26 12 26 39 33 28 2 16 16 36 16 20 10 35 15 20 15 13 38 38 13 37 14 16 39 0 37 28 31 22 1 17 8 34 28 24 3 31 29 31 18 29 38 12 18 39 32 21 18 28 27 34 21 39 6 8 25 32 34 21 18 20 28 32 5 35 10 31 22 19 18 36 35 38 5 13 12 15 28 21 32 18 24 33 5 25 20 36 26 19 14 1 20 26 30 37 21 15 18 20 5 13 16 1 6 4 24 17 7 38 5 9 16 39 1
4294 3038 3225 2617 3847 2595 19 4490 4014 3142 3836 3539 3603 4750 3818 3469 4114 2995 3820 4231 3149 2958 3510 4752 4717 4648 4902 3416 3866 3701 3992 4763 2692 3757 2915 2900 4968 4042 3713 2982 3978 3710 3316 4793 4265 3264 4239 2507 4052 4054 3995 3780 3647 4456 2559 4450 4309 3380 4070 4714 3305 4493 2962 3285 2621 4750 4079 3972 4934 3647 2823 3060 4181 4133 3667 2828 2605 3698 4687 2539 4593 4388 4465 3633 3412 4518 4739 4414 2826 4223 3122 3651 3355 2689 4355 2526 3740 4474 4341 3136 2871 4662 4561 4716 4181 4716 2956 4831 4513 3822 3183 3374 3772 3638 3243 3854 4740 2643 3000 2756 4811 4065 4539 4274 3573 3088 4955 3717 4901 3151 2674 4888 4208 4445 4208 2627 4048 4310 4755 4681 3588 2934 3989 4882 3592 3824 4518 2596 4511 4590 2637 4345 2929 4162 2900 4932 4086 4162 3819 4214 3474 4792 4641 3542 2647 3610 4699 3236 4524 3656 3959 4021 4062 3869 3329 33 22 12 11 19 35 30 14 5 30 17 12 25 24 18 11 30 3 10 6 37 12 24 2 9 22 28 7 23 19 4 15 36 9 8 1 20 32 35 6 34 10 5 6 23 29 33 3 25 18 32 16 8 19 27 27 20 22 24 7 19 34 19 39 28 11 25 34 33 34 32 30 5 2 24 12 3 14 29 12 3 3 8 35 16 28 0 29 30 2 26 12 21 10 21 20 39 19 23 10 36 36 16 6 28 8 10 26 35 31 12 26 28 13 21 30 27 10 11 31 35 3 27 32 1 38 13 29 23 20 16 11 19 12 29 21 22 8 4 26 31 33 17 12 11 22 12 2 15 11 34 33 13 36 11 14 17 2 15 26 17 10 26 39 26 15 29 33 21 17 6 9 26 12 7
3191 4149 2864 4024 2638 4882 4430 3851 3361 2888 4628 3896 3722 4562 4470 4244 3387 4244 2553 3684 3420 4730 2866 4374 4790 3061 4544 4533 4733 3659 2560 3247 2868 3348 4718 4206 3826 2592 4626 3249 4189 3648 2537 3383 3727 3892 3943 3061 2720 4327 4815 2895 3613 4252 2655 4988 2534 3189 3064 3631 3337 3042 2937 3698 2810 3750 4704 3001 4882 4305 4228 3612 2893 4846 2542 4689 4676 4549 2637 2632 4652 2993 2992 3016 2852 3277 4187 4119 2807 4725 3337 3869 3406 2786 4798 3545 4543 4893 4020 4698 3783 4010 4462 3552 4453 3793 4024 4247 3603 2771 2765 3085 4498 3698 3539 3811 3296 4379 2796 3883 2825 4851 3394 3239 4329 4546 4986 2706 3635 3571 3586 3825 3990 3509 3257 3168 4524 3542 2536 3345 4020 3983 3779 3628 2861 4307 4088 4983 4501 2758 3650 4735 3748 4461 3331 3365 4946 4940 4751 4448 2610 3021 3372 2842 3022 2693 2791 2589 2637 3666 2548 4227 4805 4229 3715 13 23 32 27 17 32 9 21 2 9 10 5 17 21 10 7 3 22 39 30 2 19 30 10 16 20 26 32 3 29 1 34 28 36 35 1 2 32 2 37 35 26 16 21 20 34 14 19 39 23 13 1 29 8 16 24 20 16 21 33 2 20 30 7 6 21 7 6 31 28 19 24 8 21 7 31 39 14 8 6 37 2 33 16 9 20 39 0 12 4 36 6 10 12 8 4 29 39 27 15 27 9 4 18 30 4 4 9 23 16 28 16 1 9 5 26 30 18 30 13 20 18 39 30 24 26 7 14 2 22 1 5 29 30 22 7 19 13 39 30 25 18 13 24 36 30 13 29 29 15 17 7 31 38 24 21 4 17 28 19 19 10 7 30 3 37 28 29 37 2 25 24 39 8 8
3637 3836 2704 3396 3289 3407 3332 4996 3883 3775 3193 2624 3393 3728 2676 4260 2765 4542 3205 3358 3011 3736 3690 4087 2636 3367 3181 4754 2745 3524 3116 4963 2655 4827 3726 4870 3761 4109 2536 3458 3130 4041 3770 3371 4178 3950 2858 2977 3579 2632 3711 4484 4808 2874 2669 2942 4931 4345 2991 2702 4786 2812 3593 2949 4885 2860 2997 4607 3326 4183 4750 3541 4045 4396 4688 3550 2999 2831 3263 2748 3757 4222 3197 3778 4247 2563 3243 2885 2657 3526 2630 3261 2817 3619 3558 4385 3005 2858 4745 2976 3282 3361 3460 3752 3296 3496 4778 4782 4757 3777 3472 4613 3831 2756 3400 4740 4770 3097 2611 3249 3634 3072 2759 4127 4828 3630 4108 2623 4770 2624 4683 3533 3949 2911 2575 2983 4756 4562 4350 4014 4259 2708 2851 3771 3707 4479 4243 2829 3073 4337 4683 4218 3660 2550 2758 4570 4622 3908 2956 4390 3382 2940 3891 4744 3053 3005 3357 4241 2524 3711 3884 4117 4577 3663 4022 36 30 33 13 4 35 25 23 7 1 38 33 18 30 36 39 17 24 26 7 23 29 17 26 17 21 37 22 17 5 25 4 12 4 3 1 11 37 2 38 36 17 5 29 21 12 36 5 38 18 14 20 13 3 37 29 6 39 6 13 22 10 37 30 31 31 33 12 4 37 20 19 12 13 7 26 20 39 20 32 6 26 29 30 15 9 24 38 0 13 33 33 37 13 14 1 16 4 19 35 6 10 35 24 21 21 1 37 23 20 35 30 23 6 7 35 28 11 13 25 24 17 34 21 16 33 4 4 3 16 11 28 13 29 27 25 36 31 22 27 10 6 18 19 28 39 36 30 19 7 10 11 33 16 28 3 25 25 16 6 22 23 31 7 29 9 25 25 30 21 22 3 39 24 2
4280 3617 4530 4260 4186 4660 3118 3773 4312 3701 4695 3551 4798 3073 4646 3314 3672 4318 3573 2877 4756 4344 3925 2712 4855 4250 3119 4054 4597 4452 3167 4384 3194 3314 3497 2789 4255 3299 2546 4879 2683 4216 4262 2516 3304 3697 2500 4458 3194 4630 4556 4371 2838 3971 3070 4717 3034 3063 4535 3077 4575 3337 2820 4827 4811 3787 2521 3246 2882 3258 3698 4641 3121 3468 3344 3020 4351 3613 4561 3765 3740 2705 4904 4003 3979 4516 4071 3133 3043 3627 3859 3571 4995 4181 4265 3514 4471 3677 3707 2557 4642 4294 3597 4424 2609 3630 4953 4051 3552 2559 3833 3671 3282 4166 4326 4712 4144 3033 4233 4215 4461 4249 4740 3555 4753 4599 4514 3933 4951 4670 3295 3341 4427 3145 2660 3984 4861 4585 4423 3818 4942 4753 3771 3364 4957 2711 2672 3252 4299 4140 4091 3380 4256 2558 3352 3763 4359 4178 3459 2890 3236 3577 3193 4157 3919 3158 2554 3010 4804 2637 3773 10 4628 3811 3403 17 22 30 12 17 13 34 2 33 29 38 13 17 7 13 27 6 27 20 26 18 36 35 25 28 28 19 25 34 20 24 12 12 34 20 17 39 2 9 39 19 9 18 22 29 33 18 15 28 24 7 9 21 27 4 36 30 10 7 9 29 26 26 8 4 20 22 27 35 17 37 15 36 14 15 12 25 36 37 30 35 26 16 12 5 8 15 8 39 0 13 15 18 10 3 20 22 33 22 25 39 16 16 37 13 13 8 32 24 39 3 35 36 5 27 26 14 19 22 1 22 3 4 29 18 13 15 12 14 24 13 14 34 3 25 27 35 20 36 36 21 27 23 17 36 32 31 18 25 20 13 33 21 15 27 10 9 11 9 16 15 24 18 18 10 21 29 14 39 19 25 39 19 36 34
2705 3134 4439 4078 3003 4750 4167 2662 2775 3798 2632 3619 4728 3046 4751 3186 2781 4768 3737 4662 4177 2925 2993 4366 4527 3552 4819 3228 3637 4280 4239 4010 2681 3521 4547 3248 3720 3173 3331 3226 4624 2678 4239 3688 3020 2817 4101 4359 3016 3579 2832 3432 4000 4494 3046 3236 4348 4825 3313 2743 3628 3717 4088 4193 3528 3385 3959 2712 3907 3411 2825 4004 4377 2590 2965 3323 4599 3195 4733 3277 2844 2960 2894 3434 4997 3531 3544 3533 2570 3909 4827 3481 2760 3224 3984 3049 2569 4326 4840 3211 2884 3826 2941 3656 4012 4179 4221 3706 3820 3900 3448 3114 3734 3022 4101 2782 4298 3313 4744 4327 4130 4540 4612 3980 2778 2869 4264 3123 2538 3819 3888 4174 4743 2827 4773 3307 2981 2861 3670 3643 4618 3944 4837 2853 2670 3666 3656 4616 4572 4514 3710 2714 4093 4809 3863 3300 3582 2550 4421 3460 2674 4560 4030 3220 3272 4066 3330 4614 2823 4193 4195 3296 2972 4658 3214 39 31 6 21 12 17 29 21 22 21 25 16 36 35 24 30 39 13 1 27 10 23 25 39 20 5 18 9 28 25 19 35 29 12 29 27 37 6 32 5 5 21 6 23 21 28 26 4 14 13 29 2 16 13 21 7 34 14 5 28 3 38 27 39 10 5 17 14 15 27 14 23 10 21 16 37 16 12 10 38 15 1 9 30 30 5 16 6 19 18 0 1 17 27 19 12 31 36 31 21 38 14 13 34 9 8 1 2 34 34 36 1 16 4 15 3 28 20 38 8 32 3 33 9 4 23 25 20 38 4 1 33 1 17 5 5 38 31 18 39 10 4 18 33 38 24 32 19 13 14 30 29 12 15 8 3 18 2 31 21 13 11 5 36 22 16 7 13 7 22 4 11 8 27 21
3731 4455 3872 3759 3687 3656 4664 2770 4094 2755 3358 3966 3301 3339 2767 4507 4898 2849 4610 3496 3183 3783 3533 4760 4617 3903 4392 4230 3150 4138 3592 4252 4522 3395 4685 3225 4724 4210 4754 3574 3871 3718 3281 2788 4737 4127 2931 4654 2973 3230 4985 4217 3766 3849 3045 4157 3359 3083 4861 2906 4538 3533 3994 3370 2975 2677 4533 2582 3097 4627 4300 4823 4044 2763 2572 4168 3187 4905 4170 3452 3634 4225 3084 4904 4162 4317 2886 4502 4401 4917 3280 4065 3079 4158 3453 4684 3884 3936 3950 4164 2998 3710 4097 2739 3064 4208 4142 2906 4461 2572 4274 2541 3054 3435 4124 4990 2550 3639 2504 4587 2607 4190 2680 3243 3382 4940 3272 4819 3409 4488 3061 2669 4911 2604 3451 3545 3304 3430 4849 4175 3138 4534 2959 4020 2542 4838 4571 2651 2583 3321 3310 3595 2604 4703 3967 3868 2585 3869 4713 2903 4138 3856 3841 2531 4855 2919 4820 4891 4032 4414 3521 4829 3771 3200 2697 24 16 35 14 22 21 33 17 34 39 4 3 37 5 4 5 8 11 28 32 3 24 36 16 29 35 32 38 24 19 33 26 15 14 11 17 26 27 31 31 16 25 31 28 9 10 29 9 37 24 7 4 28 29 27 17 17 2 4 22 18 9 31 14 37 27 26 2 30 18 9 13 30 27 2 20 1 26 13 13 1 34 16 5 7 4 29 29 12 28 33 0 25 27 16 8 13 25 27 16 22 15 22 31 3 38 4 3 16 16 39 16 37 15 4 1 6 4 20 23 34 39 8 18 26 15 14 2 3 5 12 14 6 28 19 19 10 3 19 1 14 36 18 11 11 6 21 4 25 22 27 15 29 22 13 16 26 29 27 35 23 33 19 30 34 27 36 38 16 14 35 7 27 24 7
3409 4042 3335 2733 2785 3924 3370 2908 4720 3772 2770 4477 3923 3185 3535 3209 3107 4358 2783 4286 3906 4967 4665 4763 2568 4517 4219 4009 2538 2670 3456 3872 3580 3074 4146 2616 3490 3332 3049 3407 4403 3470 4095 4422 3510 2935 4505 3050 3085 4914 4782 3124 3992 2639 3559 2941 2977 15 2637 3152 4203 2836 4938 4003 4075 4579 4535 3877 4286 2539 4826 3262 3641 3449 3089 4411 3022 4115 2941 4878 3509 2633 4569 4232 4407 2928 2886 3036 4784 3983 3647 4911 4929 4883 3160 3042 3097 4195 3711 3711 3833 3690 4439 3130 3318 3667 2732 4010 4508 2691 2864 2959 4731 3653 4406 2648 4876 4757 2559 3468 3708 2519 4070 4574 4031 3228 4075 4599 4009 4022 4988 3540 3242 2789 2792 4020 4508 4291 3556 3532 4817 4118 3270 3110 3519 4132 3749 3521 2558 2792 3017 3402 4948 3228 3054 4484 3610 4201 2574 3675 2593 4017 3889 2547 4393 2849 2835 4170 3486 2510 4494 3990 3754 3793 3261 11 27 5 19 9 5 23 36 29 23 15 13 33 4 11 19 5 9 30 3 28 7 28 35 6 1 14 6 14 30 12 18 30 30 5 6 34 9 5 37 9 33 13 27 8 19 33 17 32 9 37 12 7 12 37 36 32 28 16 23 7 1 4 37 13 32 28 6 38 22 39 17 26 35 35 8 38 4 35 28 6 21 16 32 10 27 10 14 8 21 24 7 0 25 28 13 22 36 19 28 32 11 3 20 15 34 30 15 4 34 27 4 30 29 3 7 23 2 14 39 20 25 26 37 24 23 1 30 35 14 30 2 28 37 8 37 15 37 16 24 38 18 11 36 7 39 32 21 15 5 24 14 21 10 30 3 12 2 29 30 28 29 10 29 2 27 39 27 22 34 1 34 11 7 21
4233 4280 4818 4629 4659 3482 4313 4512 2749 4545 4092 3743 3463 2788 3486 3451 3303 3905 4040 3369 4233 3692 4546 4997 3795 2735 4276 3458 4596 4832 4882 3959 2505 4654 4961 4923 4362 4110 4275 4933 3761 4666 4127 4712 4091 2995 4954 4644 4408 3807 3150 4666 2726 3654 3142 2567 3495 3507 4541 2653 3084 3858 2797 3220 4845 3652 2926 3459 3089 4085 3401 4288 2978 4644 4475 4334 3037 3564 4673 4099 3691 3750 3777 2939 4871 3354 4933 3170 4193 2981 3986 3863 2873 3198 2776 3184 4800 3456 4734 4283 4842 4161 4659 4412 3561 2679 2688 2749 3337 3279 4595 3271 3774 4199 2858 3367 3488 3830 4376 4001 4179 2808 3858 4488 4717 4912 3503 3963 4248 4496 4207 3688 4484 4127 2705 3949 3299 4199 3064 4275 3107 3393 4784 4367 3345 4632 3343 2717 2707 4950 4600 4451 3832 3521 3776 4255 4864 14 4571 4392 4599 2652 2978 3479 7 3571 2799 4978 4464 4768 3374 2948 4590 2924 4299 17 5 34 30 25 5 4 32 18 37 24 19 30 19 2 13 25 12 16 13 10 25 24 9 35 11 29 21 1 3 33 18 32 35 35 14 39 10 2 18 17 25 39 27 11 20 8 1 2 34 22 35 6 4 29 36 17 24 5 24 28 20 30 22 30 32 13 31 33 27 23 30 37 25 27 7 25 2 30 33 13 14 14 32 28 11 39 21 19 20 18 26 13 0 33 26 21 36 36 4 31 8 8 31 21 4 24 13 15 12 23 26 2 16 39 30 20 19 26 27 24 26 17 1 8 34 32 39 35 5 4 3 33 33 10 38 32 10 24 6 35 16 7 13 33 13 39 7 15 27 9 6 35 1 34 20 17 37 26 30 7 32 22 34 18 31 3 25 15 27 16 3 21 38 1
3709 2806 4420 2849 3945 3537 3339 2682 4567 3129 2720 4790 3797 3032 3449 4914 3376 3921 4592 4617 3111 3777 2972 4366 3604 4335 4807 3677 3930 2657 4565 3774 3018 2658 4910 4940 4085 2524 4150 3368 3639 4090 3550 4002 4670 3321 3548 4652 4798 2623 4915 4821 3256 4459 4013 2954 2748 2565 3674 4984 3684 3819 3192 4892 3675 4373 4992 2823 4358 4695 4299 3742 3703 4885 4803 2810 4582 3767 3168 4492 2725 2832 3619 4257 4987 4891 4930 4420 4995 3586 3815 4651 4195 3634 2701 2891 4449 3076 3755 2680 2744 3653 3576 4402 4474 3868 4298 4012 3396 4936 3722 4508 2769 4138 2660 4766 4301 2928 3656 2923 3555 3592 3984 2777 3499 4755 2865 3485 3723 2562 3053 2837 4097 4543 3888 4228 2571 4283 3754 3709 4702 3221 4624 4252 3814 4762 2928 4644 3770 4227 4558 4322 2501 3841 4650 2652 3911 2972 2946 4055 3239 4596 3581 3164 2857 3707 4235 3039 4736 2791 3428 4503 4475 4927 2805 6 12 39 25 33 37 16 5 24 12 35 22 8 39 19 23 33 7 24 11 26 13 38 20 18 21 5 22 9 18 20 26 20 2 2 15 35 13 21 5 13 27 15 35 11 1 26 24 28 18 2 2 18 3 39 16 24 34 10 22 33 27 25 8 8 16 22 14 9 9 12 25 19 36 20 18 9 18 14 14 32 8 29 4 12 36 30 36 29 3 22 28 25 14 0 19 15 29 20 22 3 6 28 19 36 30 16 23 19 37 36 25 24 3 31 39 33 12 18 1 30 2 11 14 38 39 23 1 33 28 8 15 20 33 15 16 36 1 25 8 18 4 9 38 22 4 32 1 34 33 15 26 33 21 25 14 3 31 6 12 29 19 26 26 5 28 18 4 17 17 23 14 12 4 9
3692 3684 2899 4786 3090 3400 2827 4121 4700 3471 4084 3985 4501 4302 2564 4995 2770 2761 4301 4493 2866 4740 2500 4033 3274 3977 3058 4508 3752 4543 2678 3534 3549 2517 4265 4080 3838 4842 3707 3853 3113 3718 3702 3373 2714 4053 2780 3224 3488 3934 4968 4897 4344 4014 3358 4359 3438 3336 4758 4513 4245 4717 3884 3777 3738 3308 4970 4580 3873 2757 3494 3037 3763 3026 4816 3989 3172 4442 3624 4573 3613 3427 4377 4199 3180 4762 4712 2653 3463 4755 2869 3703 3078 4900 4414 3284 3184 2915 4432 4004 2718 2776 4372 4991 4039 4540 4214 3008 4166 2617 3850 3977 2635 4344 2617 3050 2558 4406 4847 3646 3499 2869 4096 2960 4493 4497 3607 2594 3960 4210 3324 4181 4405 4135 2919 3100 4905 4360 10 3298 3085 4031 2637 3596 2565 3705 4835 3043 2651 3544 2898 3255 2980 3747 2719 4142 4544 3798 3959 3532 4011 4775 4537 3501 2938 2986 2818 4567 4381 2565 4063 3446 3405 2705 2587 29 25 7 6 6 2 18 26 8 19 3 12 34 27 19 5 28 7 29 38 23 39 6 13 35 5 13 12 4 8 15 39 35 32 20 2 5 16 9 5 1 26 31 16 26 7 26 35 24 4 1 12 3 28 36 21 10 15 14 7 6 21 35 9 36 22 1 13 17 13 9 20 14 14 4 17 18 24 2 18 28 37 34 1 19 24 11 30 39 27 19 29 35 6 27 0 24 15 34 27 23 21 27 5 29 10 19 21 12 3 10 30 27 36 38 1 25 17 1 12 29 12 10 9 18 19 6 28 5 22 22 3 12 22 33 14 21 16 33 36 19 38 17 8 30 39 4 4 21 33 25 11 15 1 4 14 5 39 30 9 20 4 30 34 2 35 35 1 5 15 23 9 5 6 21
4570 3384 3377 4144 3718 2661 2760 4862 3221 4757 3814 3361 3944 3781 4012 3593 4523 4220 4178 4428 4764 4307 2909 3549 2758 2811 4259 2669 3643 4047 3958 3334 3114 3099 4027 2536 3562 3721 3296 4057 2717 3806 3165 2890 2896 2868 2876 3848 2518 4444 4697 2676 3064 3860 4920 9 3916 3541 4650 3624 2974 4191 4222 3016 3275 4559 2746 4455 4536 3117 2867 3299 2608 3226 2798 4031 3011 4499 3792 4935 4788 4981 8 3859 3875 4507 4136 3447 3798 3387 4569 2721 2506 4015 3690 2624 3101 4682 4645 4556 3129 4544 4971 4842 4931 2998 3097 4509 3438 3310 3200 3542 3363 4676 4565 3424 4011 4952 2705 2858 2801 3443 2591 3259 3048 3717 4303 2652 2768 3750 3100 3684 2956 3702 3025 3528 3061 2813 4113 4914 3521 2858 4295 4815 4550 3786 2525 4674 3067 3259 4558 3973 4086 4154 3059 2690 2503 4791 2762 3646 4402 4586 3177 3833 3394 3659 3958 3788 3943 3546 3596 4488 3179 3287 2798 37 22 1 29 33 36 6 37 11 22 3 2 9 39 9 39 26 7 12 24 16 4 18 27 7 19 29 9 8 16 37 1 28 29 11 32 33 3 32 33 27 6 2 33 3 3 27 28 35 38 23 39 39 21 8 39 1 23 32 8 31 35 16 12 14 2 7 30 6 26 33 13 3 36 22 17 28 3 36 10 20 19 8 3 7 35 24 27 10 6 3 9 27 5 1 38 0 17 6 32 15 24 14 33 6 24 28 14 12 16 37 22 20 5 35 27 28 7 37 22 9 30 34 22 19 13 22 28 5 30 2 17 4 12 13 11 22 15 25 6 14 24 27 22 8 26 17 26 36 11 34 10 34 35 25 14 3 13 17 13 5 31 6 23 17 29 9 1 4 28 25 8 38 26 15
3529 4505 3976 3677 4688 3093 3227 3593 4802 4871 4928 4020 4526 3185 3840 3403 4531 4811 4770 4085 2563 3887 4929 3615 4799 2990 2844 3476 3704 2743 4537 2914 3938 3748 4688 3909 3765 3955 2605 3199 3400 2523 2916 2671 2634 2802 4663 3876 2955 4440 3577 4719 3774 3214 4870 4839 2985 2744 2890 3478 4981 3005 3644 3108 3690 4153 4866 2811 2518 2521 4540 2789 3386 2662 2676 3516 3209 3590 3276 2783 2874 4733 2647 3454 2562 3833 4985 2926 2869 2665 4192 3382 2764 4584 4933 4595 3361 3908 4719 3148 3594 3412 3358 4615 2824 4678 4862 4131 3010 2651 2555 4537 3347 4185 3893 4949 4550 4420 3737 4974 3736 4086 2540 4531 3167 4108 3250 2708 2688 2658 3388 3418 3073 4255 4376 2986 4663 4039 4407 4080 3674 2819 3027 4945 4906 4578 3498 3183 2730 2961 3950 2705 2544 3119 3339 4321 2561 2828 3671 4872 3162 2546 3809 3275 2797 3515 4875 4550 4487 3660 4056 3282 3676 2654 4607 35 6 26 16 15 17 35 37 24 14 35 3 29 10 19 16 20 3 4 2 3 8 32 24 25 3 5 3 30 18 2 13 20 20 14 28 27 39 39 2 31 13 29 37 28 11 28 22 22 16 21 39 6 4 34 37 33 26 31 17 25 20 29 18 32 17 6 4 10 39 24 22 16 12 29 19 15 6 28 3 30 20 27 15 34 36 15 22 19 15 27 2 32 21 17 24 20 0 8 39 29 26 19 21 19 12 36 39 31 38 8 1 29 26 24 38 16 28 37 13 3 1 22 33 22 6 10 33 8 17 25 9 21 18 19 6 31 2 3 2 28 38 1 10 36 27 23 4 34 10 35 19 1 6 6 20 10 17 35 25 22 15 28 8 3 7 2 2 29 5 35 5 29 28 28
2740 4822 4953 4783 3691 15 4525 2985 3050 3907 4841 14 3708 3342 3031 2864 3745 4411 4100 4686 2830 4481 2586 3324 3554 3191 4314 4748 4342 4547 4876 4158 3056 4124 2715 4288 4352 2817 4488 3912 4241 4734 4610 3798 2933 3742 3301 2621 2580 4897 4539 3076 3502 2501 2583 3341 3809 3292 2855 4271 4423 4511 3233 4366 4696 2683 3587 2861 3623 3296 4295 3941 4593 4586 3868 4667 3476 4219 2753 4310 2662 4551 4111 3454 4675 3293 4175 2954 4987 4930 3807 4100 2514 2756 3812 3366 4405 4368 3443 4266 3169 4790 3566 4688 3785 2915 3728 3096 2924 4764 4324 3452 2530 2611 4660 3272 3492 3937 3365 3607 4601 4246 3192 2972 4972 4111 2823 3510 2912 4027 4464 3992 3690 3247 4033 2637 3837 3711 3462 3359 4112 2533 3395 4180 4685 4767 4022 3049 3933 3838 3287 3382 3050 4457 3310 3209 4351 3748 4135 4279 3879 3068 4626 3589 3798 3723 2579 9 3205 4737 4746 2838 3033 3290 4133 18 6 13 16 33 27 34 17 10 2 6 16 13 10 33 36 33 15 18 16 3 32 26 38 38 6 8 2 29 13 30 11 35 32 17 9 34 19 6 9 25 26 20 28 3 5 24 26 15 3 28 12 16 20 3 6 34 3 2 26 9 18 5 23 7 38 25 17 37 22 22 13 13 31 21 3 17 26 35 16 37 31 36 13 1 31 6 15 21 15 15 24 20 28 22 9 16 34 0 4 39 31 12 20 20 9 16 2 5 34 16 13 5 4 20 8 28 4 10 9 29 36 39 37 3 22 7 1 31 37 25 31 2 2 23 22 19 32 20 23 26 13 15 6 18 34 4 11 33 39 9 11 30 30 39 22 34 2 12 14 24 13 36 32 16 11 3 27 2 11 37 29 5 35 39
3066 3220 3170 4298 4677 4185 3409 3915 2592 3706 3619 4899 4651 4929 4774 4590 4773 2883 3823 3578 4987 4776 2737 2901 2645 4811 4036 4964 3806 3060 2945 3407 3737 2918 4661 4394 3624 3143 2709 3383 3405 4254 3040 3709 3361 4927 4894 4349 2817 3545 4608 4678 3029 4870 4411 3661 4782 2778 3807 4348 4297 4417 3191 3106 2686 4101 2804 3254 3675 4400 3701 3400 3608 4696 3777 2901 4660 3736 4784 3013 4024 3517 5 3347 4074 2516 3418 3987 4619 4229 4406 3085 3228 4873 4207 2517 4813 4250 2543 4944 4832 3325 3643 3328 12 4829 4902 3379 2906 3228 3809 3579 3577 4029 3271 2862 3877 3482 4076 2680 2693 3251 3192 4165 4669 3996 3552 2509 3043 3659 4742 3353 2527 3254 3400 3995 3103 2952 4573 3877 4059 3007 3981 4192 3341 4924 4336 2677 2614 4966 3872 4710 3700 3792 3814 4051 3769 3490 4614 3974 4845 4907 3378 2981 2655 3136 4969 4643 4927 2542 3568 3980 3761 4113 3867 16 5 29 13 36 18 4 6 31 32 14 7 36 19 4 15 11 32 33 7 33 18 6 38 38 34 13 1 24 12 28 9 33 27 5 29 1 33 28 16 8 14 12 12 4 36 21 4 8 15 30 24 11 35 39 10 32 29 17 31 14 38 30 4 20 2 33 37 8 32 33 24 12 29 26 22 29 38 23 1 11 6 29 13 25 9 35 5 20 14 19 7 19 3 17 9 32 30 29 0 12 34 17 29 34 36 21 30 37 36 13 35 6 8 21 25 13 19 18 24 8 10 13 22 24 5 38 18 21 13 10 21 19 29 12 33 30 11 2 31 34 15 30 12 27 35 32 3 31 27 32 15 17 24 38 6 11 37 29 2 29 18 3 23 39 4 10 3 27 4 34 16 21 23 24
3059 4155 3183 4706 4947 4657 4811 3207 3326 2726 3026 4640 4004 4181 3201 2955 3141 4955 2509 2847 3113 3241 4164 3830 4423 2790 2758 2672 4006 2663 3072 3823 3871 4772 3524 3503 3372 4904 4231 3279 4629 4577 3756 3238 4750 4796 4493 3940 2852 4090 3481 2879 3998 3167 4990 2911 3618 3607 3238 2669 3779 3671 4189 4401 3840 3593 4770 3585 3672 4381 4335 4466 3787 4558 3541 4711 2965 3072 3058 3457 4579 3144 3952 4178 4632 4169 2900 4335 4549 3699 3857 2886 3678 2970 4036 3540 3200 3318 4594 4730 3630 3737 4249 4805 2739 4225 4487 3128 3355 3814 2558 4215 3935 2770 4524 4418 3485 2564 3217 3124 3865 3360 3636 3922 4798 4678 4473 4245 3180 3249 2604 4680 2589 3845 3570 4929 2670 2526 4508 4526 3828 3069 2802 3865 4293 3086 4662 3008 4948 3800 3401 3485 3747 2575 3876 3211 4005 3144 2851 3329 2779 2708 4760 2581 4345 2512 4535 4808 3609 4072 4936 4549 4908 4685 3789 38 19 23 25 38 7 29 34 24 6 22 29 17 36 1 15 26 24 32 12 6 14 35 9 3 31 9 32 3 34 9 6 6 1 35 36 14 18 25 15 34 2 19 1 35 3 18 38 26 20 21 30 19 30 30 22 3 12 2 11 20 23 21 36 24 25 31 19 17 36 16 22 8 28 38 14 21 25 33 31 4 1 28 13 14 5 37 5 33 20 33 7 4 19 26 38 22 17 18 5 0 25 32 19 3 9 9 6 8 24 39 25 21 29 39 39 24 33 9 29 7 13 34 20 29 34 13 28 13 27 11 21 31 29 13 18 31 36 28 33 16 1 9 10 22 10 11 33 3 10 18 36 3 8 7 13 12 33 23 21 10 25 5 24 29 24 28 39 2 33 36 8 23 33 18
2812 4235 2806 4564 2834 2527 4013 4956 3634 4866 4731 2671 4156 4262 2877 2809 2816 3989 4077 2590 4846 3187 3170 3133 3173 3907 4700 3730 4412 3447 4425 4815 4505 3671 4088 3445 4182 3432 3918 2511 3834 2992 4973 3169 3167 4604 4906 3023 4433 3599 3393 4877 2820 4389 3358 2767 2780 4698 4564 3152 4648 3713 4658 2759 3400 3892 2914 4920 3940 3818 2837 4006 3374 3862 2606 2658 4501 4992 3203 2912 4997 3546 4179 3690 3569 2965 4279 3332 3756 4167 4258 2667 3128 4324 2711 2584 4335 4475 4188 2722 3240 3859 4668 3583 4164 2739 3038 4812 4154 4629 2580 2965 3482 4371 3830 3721 2721 2742 3267 3581 2874 3770 3743 4918 4246 4535 3513 4617 2703 2708 3427 3453 4708 4849 4974 3847 4962 4169 19 4067 3252 3634 2615 3453 3653 3616 4052 3873 4628 4172 4389 4249 3718 3202 3643 2971 2887 4065 3882 2807 2980 3435 4917 4683 2765 2678 4566 2577 2716 3724 4917 3045 3772 4986 3231 9 9 34 12 21 9 28 18 21 34 26 32 32 30 4 33 4 28 31 1 27 30 4 38 30 4 10 22 21 1 22 33 5 22 36 27 27 37 20 5 32 36 33 10 7 28 26 24 26 17 2 14 17 21 8 23 34 26 9 15 25 17 25 5 39 20 28 34 4 3 11 14 33 16 39 16 24 37 20 23 3 18 9 13 16 2 14 36 3 7 21 26 35 3 1 15 31 24 15 18 37 0 6 26 16 1 6 23 38 11 36 32 33 22 23 16 8 25 16 26 9 35 9 10 33 10 18 19 11 21 15 37 29 13 17 8 39 13 14 28 32 34 27 20 1 21 16 3 27 12 27 33 17 23 39 27 6 39 17 26 38 33 34 23 32 19 2 27 31 19 9 18 17 21 4
3732 4502 2521 3696 3160 4442 3823 4850 3614 3365 3897 3955 4253 3238 4596 3222 4674 4982 4521 4359 4706 4510 3076 3021 4180 3152 2561 3241 3260 4835 3505 4812 4724 3657 3601 4875 4110 4591 3463 2656 3940 4012 4357 2579 3194 2769 4139 3347 3929 14 2895 2581 3426 2566 3176 3793 2844 4831 3178 3843 4857 2603 3756 3577 4045 3789 3835 4929 4315 4310 3702 3977 3411 4987 3781 3163 3995 2582 4113 3345 3970 2623 2974 4271 2850 4273 2677 3812 3107 4953 4093 4354 4467 3218 4333 3602 4966 4966 4741 2970 3195 3810 4468 3589 4375 2598 4625 4927 4918 4752 2509 3081 4763 2924 2949 2598 2547 2678 3836 3063 4145 3394 2656 4744 3881 3693 4084 2705 3964 3561 2797 4729 2896 4927 3239 2952 4872 4166 3213 4571 4192 4571 4936 4881 4003 3368 4169 2836 3013 3741 3759 2735 4216 4245 3211 4325 2553 4509 2662 4942 2832 4479 3647 3698 3142 3108 4410 4585 3481 3436 3816 4159 3177 4306 3852 32 22 4 31 28 16 1 4 10 19 3 17 29 33 34 3 37 8 5 31 39 5 8 29 15 23 20 30 27 9 7 27 15 34 15 12 36 18 19 28 34 9 35 2 1 32 21 14 2 16 17 16 3 8 11 34 20 18 11 32 3 10 6 29 10 35 31 19 5 30 26 18 9 20 1 19 18 27 34 2 7 26 26 12 10 5 1 24 30 18 38 25 3 28 14 23 7 34 18 33 29 1 0 19 12 15 23 27 12 12 39 23 16 39 30 24 28 37 2 18 31 15 26 8 13 8 19 12 39 12 6 32 2 37 32 13 27 30 30 3 27 12 16 19 22 19 23 24 39 34 38 25 6 28 23 2 17 14 12 35 11 39 18 9 10 20 33 31 37 15 39 27 33 26 27
2606 3327 4553 2577 3243 2650 3587 3506 3910 4193 4958 2867 4293 2806 3567 4508 2514 4744 3241 3025 3762 3712 4020 3799 4943 4032 4636 2557 3660 4329 4971 3370 4768 3387 4784 14 2668 4580 3343 2839 2712 4719 4497 4588 4590 2561 2642 2927 9 4528 3236 4402 2741 3517 16 2595 3712 4807 4955 4076 4492 4609 2708 3433 3103 3553 3896 4322 3655 2786 4378 4702 4568 4026 4048 3151 2779 3369 3036 3885 3612 3576 2916 3081 3407 4724 4309 3703 3925 3608 4711 4325 3264 3777 3530 4710 4586 4521 2514 3083 3972 3439 4843 2812 2556 2852 3661 4220 2822 3079 4027 3824 4180 4115 3125 4920 4294 3425 3311 3773 3247 3640 3021 3071 4599 3218 2980 2939 4747 3518 3850 2811 4357 3953 4103 3125 2573 3940 3364 2556 3846 4088 3970 3307 4100 2583 3158 2790 4501 4005 4446 2812 3874 2815 3223 2782 4664 4715 3743 4305 3621 4030 3987 4107 2699 4241 4309 4419 4064 4515 4896 4913 3650 4491 12 39 32 31 7 36 15 30 16 11 33 34 9 10 35 27 36 37 4 39 15 4 11 36 13 29 5 7 1 32 2 12 27 20 29 32 12 31 14 18 22 21 28 11 19 2 13 3 4 11 14 14 32 21 20 5 15 20 5 23 39 10 39 6 11 20 12 8 26 17 31 4 15 20 32 33 29 33 11 11 29 32 21 25 32 28 6 19 2 30 37 12 14 7 23 21 39 37 2 33 23 9 39 3 0 37 1 29 25 4 14 14 19 2 24 30 27 3 28 23 3 6 17 16 9 21 10 33 4 29 39 29 26 24 30 18 33 26 10 2 22 13 27 26 19 38 12 8 1 17 5 2 24 12 25 32 8 37 32 33 22 32 35 25 7 21 8 29 6 17 36 4 6 32 1 24
2676 3564 2604 4533 3734 4389 3482 2899 3607 2548 4885 4140 3973 4935 3201 4520 4324 4918 4920 2712 2632 3936 3333 3554 4600 2524 4790 4261 2681 3153 3937 2903 2730 4055 2841 2613 4833 2666 4502 2523 2893 4693 3727 4067 2533 4396 3678 4913 4951 4824 4887 2921 4937 3371 4267 4161 4584 3498 2829 4442 4745 4489 4740 3718 4236 4298 4627 4847 3085 2610 4153 4496 2694 2997 3583 3550 3441 2559 4297 3218 4422 3741 4390 3873 4741 4876 4434 4919 2667 4138 3790 4835 3803 2710 4084 3110 2991 3320 3307 4992 3848 3727 2569 4394 3288 3881 3162 4998 3986 4783 2636 4876 3988 3602 4498 4858 3106 4201 3343 4159 3264 4056 2599 4213 4640 3816 2933 3260 4959 3746 2737 4395 4745 2604 4781 4995 4691 2812 3433 4497 3653 3486 4811 4404 4630 4391 3859 3002 4563 2529 4690 3908 4513 3255 4776 3929 4607 4473 2549 3469 3419 3351 4910 2784 3994 4994 3616 3997 4268 3384 4553 2509 4493 2653 4099 39 7 36 38 21 30 3 29 18 25 17 25 39 5 16 32 14 35 26 31 35 14 19 20 17 8 21 20 23 25 30 1 24 12 38 4 16 11 27 33 37 22 19 34 35 22 35 24 21 9 31 21 13 9 3 20 30 21 12 17 19 38 38 29 13 8 38 18 34 28 35 1 23 15 22 35 19 11 2 28 23 17 34 29 5 5 37 15 8 2 5 18 29 25 21 6 24 24 9 21 19 1 21 26 0 36 27 39 9 18 2 1 13 1 37 7 37 17 34 9 7 38 17 13 37 5 21 22 34 24 18 12 13 25 34 20 16 20 26 16 17 25 25 5 18 31 4 24 34 39 10 35 3 11 31 25 29 35 32 5 31 13 13 24 23 24 14 25 8 30 22 17 20 1 11
2574 2946 4495 4243 4695 3432 4828 4009 4366 4443 4821 4685 3620 2793 4904 4966 4743 4889 2859 2615 2750 4260 3825 4053 4025 4695 3482 3716 2855 2591 3899 4951 3920 4175 4420 4837 2760 2964 4928 3979 3373 3533 4690 3457 3723 4764 4509 4943 4401 3647 4941 3668 3571 3468 3776 2746 3157 3006 3656 4288 2999 2516 4210 2516 3818 2938 3743 3883 3206 3953 3885 2690 4785 3502 4294 3118 2748 4294 4653 4096 3959 4201 3815 4217 3366 3203 4255 2798 3599 3455 4828 4503 4669 4849 4933 4233 2551 3258 3882 4876 3529 2857 4167 3437 2545 3411 4722 4002 4649 3626 3372 4509 4397 4613 4437 4772 3180 4590 2610 3861 2921 4405 3376 2838 4089 4499 3325 3106 4071 4632 2714 4779 3261 3508 4959 3538 2633 2883 3656 3829 3712 2748 3247 3038 4952 4701 4790 3477 3904 3930 4232 3407 4883 4082 4832 3341 4154 4273 3490 4894 2896 3269 3535 4167 3915 3406 3241 4335 3079 4541 3714 2944 2908 3083 2854 12 17 1 38 11 19 3 12 18 13 10 13 4 19 31 1 11 6 14 25 12 39 6 30 4 24 11 28 20 26 22 1 13 4 34 9 5 21 32 25 2 29 3 12 14 36 28 26 21 20 24 31 38 25 29 34 6 32 28 24 36 25 21 17 38 33 16 18 3 17 36 21 33 22 39 36 13 18 19 25 20 3 13 16 11 4 11 23 3 8 33 10 17 23 3 24 5 1 16 38 37 30 13 23 36 0 5 27 9 32 9 33 34 11 34 19 14 23 4 27 32 16 2 12 6 14 5 5 26 29 1 19 1 14 15 31 37 7 25 19 17 24 38 14 19 23 31 23 34 13 29 23 26 39 1 13 38 22 30 4 8 29 26 32 14 16 5 9 10 5 37 25 4 37 2
2612 3941 3523 3106 4612 4578 3403 4464 4761 4739 4710 2975 4246 2841 4407 4312 4708 4954 4332 3384 3807 4924 4668 4151 3342 4594 3385 4616 2632 3842 3511 4543 2653 4143 4586 2927 4173 4492 3943 3493 4719 4424 4624 2828 4366 2557 3772 4345 4101 4109 3047 4181 3334 2996 2937 3080 4084 4571 4716 3813 4470 4043 4514 4172 4735 4835 3618 3486 4406 4615 2974 4240 4987 4114 4017 3014 3730 3913 2824 3875 3883 2614 3204 2591 4850 3405 3579 3525 4563 3346 4694 4657 3911 3444 2673 4153 3170 4928 2883 3735 4030 2524 3162 2505 3604 2565 4709 3841 4420 4963 3292 2799 4531 4314 4288 3497 4498 3317 3012 2568 3765 4802 4260 3549 3380 3424 4055 3016 3605 3121 4238 4841 4896 4953 3462 2830 3521 3891 2992 4246 4465 2985 3835 3365 4614 2907 2505 2518 2955 4160 2678 2762 2906 3202 3294 2637 4987 3967 4116 4676 3250 3031 2793 4812 3468 4802 4179 4250 3944 4500 3901 2583 4378 3934 13 25 18 9 37 12 7 38 13 27 11 6 28 15 17 18 17 33 22 6 24 23 13 36 8 21 5 1 22 34 2 36 39 28 7 6 38 13 20 23 26 4 25 7 28 18 31 29 15 36 1 35 13 35 14 16 25 15 28 2 4 3 28 7 13 39 36 18 5 33 10 24 38 19 9 37 4 17 37 9 8 13 37 33 12 23 14 8 18 6 32 3 2 3 13 24 5 39 20 10 12 5 37 21 9 4 5 0 7 36 10 18 4 6 29 22 5 17 7 33 7 13 29 4 30 39 19 24 38 36 31 6 24 31 24 15 35 16 17 32 33 39 23 6 37 15 9 7 22 31 34 27 32 24 39 14 8 14 32 21 23 32 27 1 21 29 3 10 4 9 23 39 10 33 39 16
3778 4797 4468 2501 2921 2872 3680 2544 4985 4085 3531 4904 3270 3347 8 4171 3817 4681 4647 3156 9 3949 4051 3788 3470 3306 2894 3955 3575 3920 4868 4844 3371 3376 2827 3571 4038 3455 4373 4545 3160 2764 3467 3604 3062 4301 3998 4673 2655 3654 4617 3055 2825 4443 4727 3860 4178 3790 4114 3137 3383 4267 2894 2631 4271 2581 3548 3505 3517 2880 4829 3425 3040 4102 4415 4999 3472 4118 3093 3604 3455 2614 4918 3437 3923 2590 3663 2768 3456 2721 3603 3520 2654 3620 3387 3905 4964 4644 3654 4649 4381 3234 4241 4110 3587 3403 4631 3808 2592 3695 2797 4813 3440 3769 4579 4009 3355 2954 4149 4199 3415 3473 3154 4477 2731 4215 3214 4691 4556 3144 4301 4539 3290 4141 3723 4617 3341 3276 3617 4931 3345 4288 3950 2798 2815 4888 3041 4740 3246 4272 2571 4534 3964 2878 2752 3671 4006 4151 3069 3524 3834 4608 3034 3712 2582 3026 3785 3297 4351 4144 2899 3536 3717 3849 2646 5 31 34 30 14 29 10 7 14 20 21 9 14 29 26 22 26 6 25 4 12 2 14 10 27 14 25 2 25 2 27 20 34 22 5 29 31 14 29 27 31 19 16 22 16 38 33 36 39 26 18 27 3 12 36 39 32 33 36 31 33 14 12 5 19 5 1 28 26 5 11 9 11 7 6 9 5 24 6 36 20 26 20 18 11 17 6 33 26 35 7 18 9 9 25 1 33 6 8 10 38 39 4 31 28 2 39 0 30 13 19 30 28 18 5 4 36 13 10 39 33 32 30 16 12 27 30 28 14 36 4 8 38 1 9 20 11 2 4 35 7 34 34 18 32 13 8 14 6 11 20 38 4 19 39 17 17 31 22 39 1 2 16 29 31 31 26 39 31 39 17 24 11 20 19
3777 4852 4153 3191 3543 2825 2716 3730 4321 4268 4025 3628 4883 4400 3325 4323 4243 3496 4881 4476 3033 4656 4426 4025 4883 4581 3594 3265 4970 4113 2813 3872 2647 3010 4992 3353 3792 4565 2970 3959 2549 2795 3932 4118 2930 4223 4900 3605 3279 4476 3552 3890 4395 2999 4223 4458 3590 3942 2886 4830 4184 3053 2777 4963 3641 4189 2960 3330 4815 4746 4642 4254 3305 2575 4236 3172 4554 3230 3244 3201 3360 3332 3236 4117 3836 4565 3583 2506 4136 3408 3161 3935 4822 3791 3775 2529 4447 2892 4402 4086 4136 4547 2684 3043 2709 2587 2511 3013 4352 2919 4321 3851 4652 3662 3672 4407 4451 4721 3924 2713 4726 4783 2749 3662 3186 2943 3052 2508 4964 2651 4308 4548 4212 4671 4775 3992 4980 3381 4450 3007 3465 4514 3555 3758 4550 3854 3928 3118 2881 4061 3729 4787 3815 4071 3760 4938 3211 2759 4834 3194 4192 3350 4375 3660 3543 4095 4418 4756 2794 4094 3523 4157 4612 3450 4891 25 38 18 36 4 34 4 3 6 32 26 19 32 5 25 18 33 30 39 13 37 38 17 24 25 37 4 13 16 16 14 10 12 28 33 38 13 38 25 5 11 4 36 31 2 20 37 27 31 18 13 37 11 1 19 26 39 10 33 6 38 33 34 36 12 29 8 10 16 17 31 5 37 36 26 27 32 18 33 35 24 27 8 34 27 18 24 37 27 11 36 10 11 17 34 16 19 38 5 25 2 22 29 8 23 29 30 2 0 4 8 1 27 20 3 36 5 33 4 32 36 24 29 12 33 8 29 32 12 5 6 11 4 25 38 29 38 32 30 13 35 35 31 17 26 28 19 13 25 36 27 15 25 25 21 1 26 18 33 17 33 7 36 3 38 33 9 2 39 13 4 33 20 8 38
4442 3506 4904 2967 3794 3604 2958 3861 3811 3893 4372 3236 2696 2706 3146 2733 4694 4462 4038 4746 3425 3473 4450 3049 3140 3345 4583 2861 2568 2514 4283 3438 3182 2994 2979 4670 2907 3932 4043 4878 4363 2574 3533 4780 2914 3373 4421 3426 3454 3366 2598 4454 4965 4134 4400 4301 4526 2827 4990 2795 4680 3333 3825 4259 2824 4371 2724 4608 4664 2709 4655 3667 3349 4667 4182 4072 2679 2813 4749 4816 4915 3829 2542 3347 4826 4878 2924 4331 3803 3609 2619 2573 3729 4120 4167 4301 2612 3498 3386 2590 3662 4638 2991 4370 3973 2529 4663 3043 3305 4442 3542 3635 3673 3247 2869 4637 3988 3399 2838 3157 2988 4312 4809 3649 4719 2597 2589 2832 2841 4041 3897 3139 4291 3942 3336 3362 4150 3696 2796 4030 4989 2677 4302 4992 4084 4950 2618 4552 4772 3613 4648 3937 3630 4056 2512 2676 2737 3162 3183 4088 3696 4811 3098 3248 3448 3546 3649 3231 3149 3230 3816 2623 3100 3460 3565 8 18 19 1 38 26 9 34 22 32 38 18 9 38 31 25 3 25 31 16 6 5 34 30 14 11 22 17 2 35 37 22 36 16 24 16 38 35 4 1 4 24 7 7 28 24 1 10 7 35 17 14 5 13 13 16 29 38 7 10 10 19 26 10 35 14 8 6 32 37 21 20 36 16 33 36 21 2 11 2 4 27 17 7 26 15 29 11 11 37 29 39 5 28 6 23 31 26 9 1 6 9 13 14 13 5 14 37 28 0 5 27 31 17 39 24 36 30 19 17 31 8 6 29 28 9 33 20 27 39 24 12 21 3 31 24 28 12 14 18 20 29 15 15 6 39 35 15 29 27 4 35 25 2 8 33 33 4 33 35 34 12 12 32 7 2 2 33 23 20 16 37 32 3 30
4976 3044 2942 3128 3555 4419 4606 2824 3193 3292 3726 3360 3034 2588 3331 3861 3902 3608 3022 4782 4420 3454 4934 3936 2542 3338 2699 3819 4762 2570 2687 4780 2642 2756 4831 3915 4349 3426 3700 3885 4051 4681 2758 4951 2812 2509 4779 2815 2793 4728 4228 3268 4244 3340 3874 2843 3609 3425 4757 3648 4492 3309 3666 2522 4447 3875 3077 4957 3398 3665 4910 2746 3853 2746 4908 2543 3310 4722 3779 2500 2752 2767 3716 4728 3824 3959 3404 4958 3136 4819 2669 4091 3317 2930 4801 3332 4030 4876 2653 3010 2688 4166 4082 3924 3552 3106 3187 3061 4000 3962 4305 3106 2637 3496 4709 4727 2853 4124 3231 3086 4685 2767 3746 2907 3693 4482 3955 4822 3914 4770 3149 4972 2777 3038 2840 4014 3234 4366 4266 4742 4458 3203 2883 4555 4769 3719 3666 3001 2693 3477 2870 2625 4175 4107 4036 3210 3214 2718 4376 4468 4419 2575 3710 4785 3142 3883 4735 4867 2566 3349 3029 3045 2788 4196 4444 12 20 11 37 10 20 36 17 38 2 28 22 33 27 13 26 16 24 33 5 19 38 4 6 7 15 4 24 37 38 11 20 8 33 38 38 31 16 33 16 37 29 15 11 27 7 9 27 31 32 39 37 28 29 24 17 26 35 17 8 25 3 37 17 13 30 20 35 25 3 22 35 39 33 14 23 31 20 14 14 3 1 38 22 1 24 28 21 25 32 25 15 2 31 34 11 11 26 30 3 18 8 3 4 32 11 2 1 34 21 0 13 30 27 6 1 34 19 2 21 24 12 12 17 24 4 7 1 34 7 30 5 28 24 16 2 25 13 32 4 31 38 32 22 11 23 2 31 34 13 16 10 2 31 39 4 25 18 18 39 35 24 38 8 11 10 35 18 2 22 32 26 9 11 32
4396 4741 4756 2850 3219 3462 3971 3854 4800 3147 3950 4963 4954 4565 2982 4475 3170 3757 4904 4324 2767 4886 2920 2683 4275 3815 3043 2906 4063 3172 2996 2857 4764 4679 2963 13 4312 4632 4380 3150 3207 4560 3537 4260 4626 4311 3321 4832 2946 4702 2638 3531 3857 3080 4456 4372 4702 3624 4773 3985 4620 2850 2757 2955 4450 3893 3154 3361 3221 3974 3636 2619 3964 3531 4760 3704 4211 2812 3990 4750 3753 4596 4919 2587 3159 3940 4349 2876 2670 2820 4285 3648 3298 4764 2800 4246 2806 4626 4355 3220 3976 3701 2615 4786 3916 4052 3763 4778 2820 4276 3510 3859 3777 4706 4790 4924 4032 3155 3674 4713 4376 3310 3307 3656 3496 4202 3074 4105 3452 2633 4484 2536 4517 3114 3551 4224 3177 3205 4508 3926 3743 4280 2831 4581 4696 3597 4063 3103 4183 3149 3084 3576 4763 2915 4402 3361 4865 3588 3044 4134 3303 4870 3788 2634 2525 4152 4434 3004 3162 2515 4753 3914 2976 3560 4099 30 4 36 5 1 29 35 5 3 30 9 5 3 1 17 8 6 36 8 24 9 36 13 33 39 25 24 12 14 23 17 5 32 4 9 7 37 11 14 29 33 5 7 37 16 26 19 34 33 29 8 4 33 18 7 11 4 10 10 35 3 13 6 13 32 10 3 7 20 18 30 32 22 1 31 9 9 9 15 19 7 28 36 33 15 31 39 34 37 12 12 38 18 18 18 15 30 7 1 7 14 34 2 19 26 18 21 13 35 31 33 0 3 35 3 28 29 30 39 8 26 26 25 32 26 39 16 4 5 33 20 18 19 33 11 17 6 36 13 37 2 26 14 5 39 21 27 22 29 30 14 15 36 21 5 22 37 36 20 22 7 28 22 14 33 26 5 29 6 32 38 38 11 35 2
4072 3594 4512 4039 3703 8 4127 3216 4841 4006 3269 4847 4337 2993 4342 4850 3266 4983 3599 4022 4713 2954 4048 3723 3046 4845 3191 3487 3494 2555 4319 2645 2975 2797 2892 4320 3815 3062 2747 4888 2619 4172 4805 3122 4160 3154 4995 3583 2808 3894 2604 2971 3099 4756 3103 3888 2685 4046 2703 3871 2784 3905 3478 4891 4427 2622 4221 2736 3974 3592 4396 3663 3765 4407 2651 2940 4815 2650 4251 2826 3249 4475 4659 2891 2697 4518 3207 4576 3490 4732 3478 3900 2838 3604 3606 2538 19 4179 3451 2928 4097 2907 2881 3659 4236 3344 15 4715 3437 3515 4175 3795 3039 4654 2801 2835 3698 4184 3166 3605 3838 3527 3796 4684 3539 3372 4808 4441 4708 4385 4943 3691 3734 3500 3459 3473 3259 3740 4532 3389 3612 4536 2646 3095 3426 4427 3902 3778 3444 2601 3355 3433 4098 4392 4685 4251 2994 2861 3638 3646 4902 3548 3852 2613 4009 4184 3751 4265 2848 4470 2814 4849 4691 4988 4522 4 22 14 26 11 22 4 5 5 37 13 17 12 13 5 23 31 29 23 14 26 8 13 23 36 5 21 23 36 36 33 11 6 24 3 13 21 3 29 23 2 25 16 6 19 1 29 13 16 32 37 20 39 19 28 7 4 36 10 21 12 22 19 37 39 33 11 35 19 6 22 31 5 25 14 38 5 16 7 12 36 7 1 39 25 27 1 19 20 27 23 19 39 26 24 8 24 14 31 28 5 32 26 28 32 37 13 37 8 28 16 16 0 28 10 30 38 39 7 10 32 6 7 33 28 27 34 37 21 31 37 35 22 21 19 36 24 10 9 24 25 19 34 10 20 11 5 19 29 5 39 26 23 25 31 12 24 32 3 32 14 34 22 22 25 20 10 2 14 5 11 4 36 14 18
4064 4940 4713 2606 4676 4455 4726 4202 4048 3276 2750 4627 4372 3002 3718 3249 2852 4597 4428 4547 4552 2816 4007 4924 3682 2580 3414 4942 3169 4533 3992 4318 3038 3323 3074 3303 4918 4170 3721 4108 4932 4615 4686 4406 3202 4896 4195 4803 3722 4934 2661 4242 3805 3161 4021 4464 3223 3267 4094 4704 2662 3166 2622 2679 3888 3953 4188 2564 3736 3210 3087 3668 3372 4071 4021 3609 3610 3938 4970 2506 2557 3340 4767 4144 3929 3953 3529 2623 2587 3381 3567 4761 2879 4979 3621 4700 4752 4871 2699 4739 2556 2903 3670 4266 2738 3003 3599 3118 4133 3982 3426 3791 4529 4581 4809 2788 3088 3181 3891 3191 4603 3688 4393 4132 3759 2745 3515 4723 3373 3019 3324 3006 3545 3686 4310 3711 4404 4067 4009 3998 4457 4775 4045 3558 3625 3550 4043 3687 2981 3981 4648 2539 3333 4103 4438 4744 4687 4526 4981 2886 3322 2748 3595 4493 2647 3642 2567 4398 4428 3395 4442 3973 4891 3455 3566 13 16 34 10 23 16 16 1 9 16 31 22 3 11 28 36 26 15 23 10 2 21 26 10 17 38 26 28 34 11 11 6 29 4 28 20 13 17 25 29 34 6 24 23 11 7 24 18 6 14 30 16 29 25 32 12 35 11 29 7 2 35 20 32 27 29 19 9 12 33 31 26 12 20 17 28 19 32 15 39 23 19 15 8 11 26 4 11 1 9 18 37 20 28 5 35 10 13 24 15 23 36 21 13 32 8 1 7 15 4 29 7 38 0 5 11 22 17 37 39 8 29 1 33 14 26 15 12 22 27 17 35 4 18 5 9 19 9 24 19 35 39 10 20 6 37 29 38 34 17 39 12 13 35 30 31 12 28 26 12 35 5 31 3 24 11 29 17 20 1 5 3 36 26 20
2617 2613 2662 4811 3050 4391 4301 3210 2850 3043 4622 4461 3297 4166 3463 4383 3367 3733 4030 4576 3196 3215 3519 4466 3230 4525 4747 2511 2601 3541 4356 3628 3791 4311 3043 4071 3293 2684 4979 3277 2647 3304 4269 4467 3016 4874 2530 4559 4722 3862 2772 3489 3526 3003 4106 3623 4566 3608 2976 4999 4310 3291 4424 2678 3632 4112 3720 3444 2694 4947 2812 3644 4489 2514 4232 3495 4422 2787 3427 2698 4139 3251 3429 3811 4033 4574 3633 4871 4081 2992 4782 4037 2978 2960 2973 4782 4465 4369 3083 2801 3883 4473 4519 2731 3755 2953 4505 3101 4913 4953 3658 2841 4227 3951 4732 3513 3879 7 4005 4592 3932 4897 3904 4103 3682 4100 4471 2860 3787 3366 2866 4895 3749 4719 4997 4997 4880 4935 3568 4468 3622 4735 3611 3227 3505 3822 3053 3187 2922 4072 4045 4962 4047 4608 4028 4707 3821 4908 4784 3833 2697 3491 3475 3933 3439 4202 4938 3419 4337 4314 2982 4231 3720 4829 3077 12 11 28 32 22 25 1 31 24 12 5 27 13 1 15 9 38 35 23 6 6 33 16 4 39 24 22 38 36 30 31 1 29 9 28 10 11 9 7 14 13 2 20 2 6 30 38 27 6 29 27 38 4 11 1 26 33 9 9 22 15 30 37 1 36 33 33 35 27 32 39 8 24 38 5 24 27 31 39 17 34 8 17 15 15 18 12 17 18 27 13 39 30 22 7 32 39 18 4 1 38 30 36 5 26 10 19 2 34 11 17 2 6 14 0 15 22 12 34 15 19 17 19 3 23 22 18 8 17 38 27 33 20 7 26 1 26 14 25 34 5 21 29 37 5 21 1 3 3 5 21 28 27 32 26 3 29 11 39 39 37 26 22 15 34 10 13 39 22 10 27 11 33 33 19
4869 4592 4501 2862 4808 4529 3590 4883 4083 3933 2666 3608 4935 4439 4106 4867 4220 3067 3796 4381 3913 4930 4453 3141 2832 3010 3004 4769 3508 2665 3782 3776 3793 4353 3166 3408 3951 3095 2954 4657 4060 3016 4281 2577 3085 3882 2590 4986 2941 3853 4046 3039 4239 3088 4008 3006 3962 4311 4716 4222 4932 2585 4872 3076 3039 4792 3612 4124 4302 3507 3736 3214 2760 3936 2713 4785 2783 4820 4970 3575 4694 4391 2766 3620 2776 4258 3864 4625 4024 3294 2716 4239 3391 2723 3820 4381 3601 4217 4785 4534 4968 4934 4999 4054 3187 4398 2922 3623 4210 2585 2775 3337 3414 2813 2525 3040 2520 3459 4672 4421 3994 3273 2742 3326 4607 4690 4344 3171 4720 2825 3197 3852 4492 3580 3219 4259 10 2809 2940 4239 4935 2561 3203 4884 4936 4705 4623 3055 3935 3428 2839 4303 3467 3637 4385 3982 3701 3547 4413 3636 3266 3066 4419 4182 4762 2995 4746 3592 2897 3772 2528 4726 3977 2681 3153 23 39 20 28 14 14 10 31 20 38 30 3 3 33 18 34 20 5 14 8 29 1 1 16 7 8 29 1 10 8 19 35 33 24 15 17 13 39 27 34 25 19 15 18 8 24 25 33 35 36 32 7 33 5 7 22 25 1 32 37 8 8 14 2 23 26 20 21 6 19 22 1 16 35 38 29 16 2 17 2 20 27 11 17 5 32 38 34 13 31 9 20 30 30 17 23 10 14 15 9 28 20 24 6 38 4 17 11 36 31 31 14 25 38 34 0 25 2 13 19 22 25 27 30 37 25 5 9 34 2 34 15 20 36 9 1 2 22 12 25 6 11 7 31 2 32 34 29 29 3 20 32 17 1 8 35 17 28 8 11 20 29 33 28 29 21 29 6 9 22 25 19 31 28 5
2513 4547 4797 4564 3018 4081 3269 3552 3164 2771 4917 3180 3490 2534 2685 4146 3086 4721 3827 4563 3465 2734 2509 3438 2991 4258 3248 3800 3523 2825 4689 4366 3291 3215 3982 4730 3854 3436 4783 4566 2571 4674 3256 3560 3408 2636 3467 15 4515 3428 2651 3986 4640 4503 3690 3125 4870 10 4473 4994 3585 2579 3974 2722 4324 2773 3511 3536 4687 3932 3855 3467 4520 4245 3025 3351 3473 3425 3788 4526 4928 3629 4397 3037 2885 4723 4494 3677 4637 2528 4986 4443 3107 4986 3157 3940 2852 4690 2513 4177 3054 4515 4953 4525 3169 3185 2534 3496 3997 2955 4327 14 2794 3622 2594 3028 2580 3370 2851 4867 4773 4197 3042 4001 3714 3446 2604 3115 2711 4192 2608 4995 4691 2792 4919 2899 3580 2836 3805 4764 3562 4413 3512 3514 4801 3970 4420 3954 3592 4745 4480 4275 3562 4602 3705 2650 3853 3618 2714 3226 3726 3015 3363 4241 3366 4232 4389 4538 4018 4055 4837 4650 2691 4606 4069 31 7 11 35 1 28 36 15 12 1 14 15 26 3 10 22 4 2 10 13 33 5 22 31 33 7 10 33 30 17 34 31 6 34 15 28 31 6 35 21 19 29 26 22 6 28 8 35 21 27 35 28 1 9 25 37 25 7 30 26 16 20 15 12 37 16 32 5 34 18 27 4 7 1 25 4 8 35 27 13 21 5 32 24 2 1 30 2 9 17 10 30 21 14 38 37 1 3 32 39 27 31 36 24 17 2 25 13 21 25 13 27 20 32 34 16 0 23 16 6 22 25 18 14 5 12 20 33 14 27 3 39 25 10 7 25 17 30 34 8 18 34 25 16 26 4 33 25 2 28 16 17 20 3 20 30 34 23 35 23 11 12 35 19 36 23 39 26 16 24 14 3 37 30 34
2502 3728 3915 4849 3803 2701 4765 2766 2730 2624 2859 4332 3960 3908 4295 4645 4892 4910 4215 3640 4280 4761 2923 3852 4242 4554 3983 4370 4445 2642 4750 3251 3467 4999 2659 3344 4079 4050 3552 4621 3773 4741 4857 3133 4170 3601 4869 2685 3786 3922 4049 3304 3660 3834 4687 2582 17 3114 3055 3073 2828 3045 3448 3959 4680 3383 2546 3440 3430 3138 3308 4114 3388 3543 2510 4697 4725 4871 4453 2769 2732 2805 4445 3425 3309 3044 2634 4156 2586 3275 4801 3189 4050 4283 3304 4191 3161 4823 2966 2890 3348 3727 4682 4347 2627 3450 3388 2786 3735 4861 3195 4287 2529 2964 4242 4563 2745 3986 3530 4948 4892 4164 4720 3211 4241 3650 2599 3919 2795 3181 4771 3421 4028 3755 4944 3406 4759 3743 3259 2756 4884 3057 3471 3887 3358 3845 3597 3095 2923 4219 4340 3213 3985 2999 4376 4583 3235 3640 3064 3687 4595 4821 4979 3993 2756 4019 4656 2771 2638 2731 4442 3566 3752 4322 3871 2 26 5 7 38 10 28 18 2 21 35 34 29 27 2 25 3 21 17 10 9 31 10 19 36 20 31 37 13 29 24 18 29 17 7 27 14 6 9 11 23 29 11 34 31 1 28 28 23 5 3 4 31 1 20 2 13 28 27 31 17 6 36 35 25 16 34 12 24 7 27 39 2 30 38 39 32 36 19 33 39 27 1 28 4 30 17 17 27 29 12 11 17 36 5 27 17 25 25 29 33 25 25 3 2 37 28 24 11 6 18 14 33 38 14 26 4 0 10 12 23 30 5 32 36 5 19 38 18 16 22 12 12 11 10 20 34 32 24 20 11 6 36 18 11 29 27 5 39 29 16 10 1 35 22 1 22 20 15 27 5 3 14 38 38 1 1 37 7 25 31 25 10 3 5
4334 4102 4600 2530 3779 2564 2502 3849 3100 4358 3786 4576 3466 2935 3097 4107 4562 3121 2535 4187 3449 4742 3609 4379 4766 4679 3222 3937 4021 4189 2954 4956 2845 4413 4417 3534 3594 4665 2517 3700 3108 3453 2988 4871 3364 4544 3111 4770 2971 2864 4374 2624 2900 2693 4064 4260 3581 3608 4265 4145 3124 3442 3396 4248 2783 4275 4089 3514 2738 4111 4849 4776 4228 3340 3768 4767 3539 2659 4776 3504 4150 3411 3994 2888 4691 3793 2812 3957 2954 2966 3601 3232 4208 4075 4591 2909 4586 2643 4638 3479 4241 4199 2932 3378 3990 8 2681 2879 4438 4825 4224 2970 3819 3009 3783 3549 2733 4888 4252 2874 4858 4582 4524 4261 3977 3405 4450 4797 2818 4563 4116 2896 3333 4725 3186 17 3174 3833 4678 3043 4387 3986 4567 3648 3757 2534 4603 2983 2517 3133 3063 2501 2608 4056 4167 4861 3868 2532 3549 3586 4993 4939 2995 4069 3309 4302 3446 3470 4599 3156 3150 2634 4489 3043 3561 32 7 6 39 36 38 29 36 27 25 26 24 28 29 3 33 37 2 17 5 29 5 25 34 13 39 2 10 3 31 21 15 16 39 27 39 1 24 22 20 26 23 17 31 35 7 13 33 26 21 14 20 7 17 12 38 20 14 5 25 33 20 39 22 24 31 24 31 39 28 31 37 20 35 15 15 13 25 26 10 18 19 20 12 31 36 36 38 2 6 6 16 38 22 6 31 22 10 10 24 25 11 31 27 20 31 33 7 39 4 6 22 24 21 10 8 6 13 0 7 18 2 28 13 17 12 34 26 39 27 5 29 39 28 10 35 32 9 33 11 39 21 23 1 21 37 10 37 39 16 14 39 34 14 26 39 36 22 9 20 29 1 19 11 20 27 21 26 39 24 12 16 39 26 12
3648 2557 3912 4083 3664 4366 4764 3123 4338 3343 2524 2598 4737 3336 2761 4281 4134 4711 3913 3775 3089 3067 3334 2890 3047 4850 3726 4440 2885 3149 4554 2575 3263 4673 3272 2745 4121 4467 3815 2634 2933 4534 4882 3361 3830 3886 3810 4710 3978 2952 2663 4747 4432 2886 3973 4294 3260 4176 3626 4434 3480 4697 3760 4863 4825 4013 3767 2587 3114 3040 4975 4903 3699 3710 3054 3922 3357 3648 4045 2909 2591 3152 3963 2542 3268 4819 4145 4047 3243 4763 2584 2542 2794 3810 3412 2800 3672 3645 2775 2795 2684 2672 4066 4756 4326 4961 4693 4382 2645 3399 4003 4958 4105 3205 3196 4976 2586 4818 2615 2664 2674 3200 3028 2637 3716 4551 4569 4654 4105 3630 3543 2730 3455 3668 4768 2690 2615 2939 2554 4920 2580 3684 3962 4569 4241 4149 3732 2545 4411 3871 4482 4288 3982 4931 3918 4060 4021 2825 3977 4617 2567 4229 2595 4403 2867 4805 3410 2632 4440 4326 3841 3243 3939 3631 2630 8 12 28 15 26 2 29 19 14 6 21 6 6 1 30 30 35 20 3 22 8 26 15 2 26 34 38 5 26 19 8 26 2 14 35 27 27 39 26 19 39 32 30 23 23 28 15 19 28 38 10 13 11 4 25 35 3 37 31 10 6 36 12 14 4 7 33 3 14 21 33 16 25 35 3 22 4 9 23 7 28 19 6 18 29 27 37 22 11 3 35 28 8 4 17 29 5 9 8 35 28 12 32 29 31 29 10 23 13 11 5 9 13 1 38 37 8 37 3 0 23 19 37 8 5 29 32 10 26 6 22 16 37 35 18 32 22 39 10 22 30 27 8 31 19 19 24 23 15 34 1 22 5 39 10 23 31 15 36 8 21 7 20 23 38 21 12 34 39 26 21 9 23 9 30
4708 4637 3473 4651 4672 3745 2829 4642 4926 2680 3867 4848 4362 3926 4939 4128 2914 4908 4009 3696 4046 3674 2881 4782 2835 3423 4118 4045 3491 2701 3434 2522 3907 3654 4635 2715 2860 4887 2800 3476 2782 3917 2834 4694 3428 3398 2676 3928 3370 3287 2770 4298 2718 2990 2608 3089 2617 3807 4110 3310 4223 2882 2794 2891 2664 2558 2541 4850 2842 3704 3797 4941 3699 4514 2894 3305 4400 4545 4150 3319 4406 4803 4473 4025 3831 2546 4897 3621 3586 4707 3216 4898 2928 2868 4675 4995 4390 4339 4266 4419 2705 4911 4174 2600 4402 4149 4938 3271 4004 4912 4506 4606 4062 3926 4032 4639 3593 4990 3293 4372 4474 4586 3311 3313 2553 4792 4865 14 2989 2836 4289 4874 3184 3473 4593 4255 4179 3809 4195 4029 4998 2708 3228 2748 2542 4506 3023 4679 3320 4879 3883 3024 3705 3125 3137 3270 3185 4073 3493 3914 2916 3121 2551 4882 3176 3397 2857 2975 2949 3834 4160 4516 4493 4108 3395 8 12 18 33 14 22 7 32 29 26 39 5 39 12 23 27 1 21 39 26 25 6 19 27 6 7 37 39 5 17 38 9 38 29 6 23 1 9 16 23 14 18 5 4 29 4 29 24 18 22 24 7 28 33 17 13 19 5 23 7 16 33 27 8 26 6 6 27 19 27 20 2 19 3 16 35 13 33 10 1 29 33 27 35 4 16 29 13 34 13 2 33 2 39 11 39 4 17 1 9 7 7 10 36 11 21 26 21 27 29 33 29 11 13 7 3 20 23 11 9 0 26 36 28 13 5 21 32 16 7 2 11 30 11 12 33 28 22 6 10 26 7 32 27 38 15 13 26 5 39 31 22 30 8 35 12 3 19 36 39 13 39 36 14 3 16 38 36 29 39 1 39 6 7 24
2684 2732 4335 3736 4500 2840 3339 3325 4798 3466 2871 4393 2709 3889 4880 4216 4737 2601 4946 3623 3825 4964 3508 2514 2980 4792 4765 3634 3881 3826 3468 4552 3032 4783 3080 3642 2604 2601 2707 3167 2833 4245 4447 3792 3326 4931 2576 2574 3578 2885 2580 2868 3686 3264 4950 4772 3745 4893 4352 3181 4604 4978 3950 3522 4866 4725 4842 4286 3437 3793 4101 2954 2658 2836 2873 3655 2721 4527 4828 4281 3594 4487 3761 3606 3415 4931 3467 4222 2930 3673 2514 4547 3717 3168 4261 3148 4935 4814 3018 4430 3297 2643 3515 4924 4699 2600 3878 3631 3453 2783 3006 2604 2980 2510 3302 2529 3422 4173 4383 4987 4358 3321 4649 3458 2579 3495 3203 4193 4375 3055 4899 3688 3002 3665 3017 3036 4104 3675 3265 4800 4005 4199 3597 3974 4290 4588 3533 4685 3392 2839 3621 4794 4294 3122 3643 3783 3455 2910 13 3248 2807 4261 4918 3943 2899 4992 4458 3508 4664 2921 4917 4920 4000 4868 2668 1 12 38 1 30 3 26 11 8 9 26 34 26 12 18 10 8 20 32 14 6 18 7 1 21 30 36 32 27 21 8 6 13 25 39 2 4 29 25 13 27 10 8 1 28 10 7 1 15 5 13 15 36 37 8 20 30 7 17 4 3 19 29 11 24 38 1 4 1 7 13 3 7 2 7 25 32 1 3 1 15 36 1 6 8 5 1 21 13 8 30 9 24 29 10 17 11 29 1 36 20 29 35 10 33 28 31 10 2 17 37 29 7 4 36 39 33 10 1 6 29 0 20 8 15 6 6 33 6 18 26 30 29 6 8 2 26 8 21 7 20 24 6 18 13 16 38 34 30 2 20 34 23 39 18 23 15 1 38 6 16 31 25 2 25 4 38 20 32 31 37 5 19 32 35
3082 3434 3932 2547 2871 4715 3262 3974 3931 4375 4801 4163 4606 3020 4064 3900 4273 4467 3988 3156 3150 3207 4969 3813 4108 3866 4454 4696 2665 3792 4651 4010 3980 3250 3279 4385 4064 3471 4916 3611 4724 4036 3294 3000 4405 4204 4275 4530 4917 4523 3622 2572 4011 4292 3954 4771 4336 2776 3160 3057 2558 2544 2675 4105 4592 3990 3790 2715 2636 4784 4473 4556 4771 3768 3833 2875 3681 3013 2812 3451 4256 4066 2508 3328 4246 3238 4667 3093 4509 2569 3101 4542 4338 4088 3966 3427 3426 2717 4373 3070 4984 2977 3549 2775 3951 4314 3475 4073 3940 4877 3154 4754 3988 2707 4511 4686 3206 4623 4441 3010 3065 3742 4080 4513 3092 3245 4605 4945 2501 3698 3929 4633 4733 3875 13 3446 3694 4475 3400 2678 2934 2750 4431 4831 4165 4419 3469 2583 4645 3974 3563 4504 4287 3639 4875 3060 3735 3769 4837 4298 4506 3455 4147 2835 4634 2949 2943 3236 2603 3866 4579 4081 2596 2515 4131 1 30 30 9 4 9 23 23 11 8 33 16 1 15 25 32 23 23 28 17 33 17 11 25 29 2 15 2 15 31 21 33 2 19 39 34 19 31 28 18 38 2 5 9 39 14 5 1 25 17 30 24 10 16 29 19 23 32 28 15 16 38 6 3 8 18 31 27 13 5 5 11 39 24 26 28 34 13 33 31 1 10 29 6 20 14 16 17 20 18 3 17 14 3 18 19 32 3 10 26 5 26 28 21 3 9 28 16 26 13 20 35 14 15 24 4 2 27 17 16 10 18 0 3 12 17 7 10 3 39 31 39 31 32 4 36 12 7 3 18 12 36 12 1 19 19 38 31 4 29 25 22 35 10 14 27 39 15 26 4 4 16 18 6 20 8 21 17 16 24 25 25 3 20 14
4331 3877 4818 3199 4464 3286 3438 3407 4641 4456 4177 4089 4662 4287 3829 4816 4582 3958 4482 2868 2608 4843 4870 2552 3640 3149 4258 2929 3724 4214 3964 4871 4549 4203 4191 4003 3481 11 4507 2714 2656 3086 4284 4709 2984 2803 3515 4247 2932 3686 4774 4938 15 4357 4795 3913 2956 2949 3559 4248 3806 3005 2890 4110 3229 4707 3160 3201 3208 4346 3025 2872 3734 4622 8 3509 3553 4114 2835 2508 3869 3135 3338 3256 3355 3388 4484 2507 3057 4132 2680 3150 3559 4950 4342 2787 2969 4889 3586 4942 4364 4641 3669 4206 4637 3542 3353 4661 4134 4464 2626 2815 3019 3739 4757 3269 2942 3076 2944 4534 4144 4666 2943 4650 4251 4821 3093 3182 3100 4168 3534 4715 3381 3551 3874 2526 4180 4035 4863 4419 4548 4491 3591 4950 4657 4892 3877 4711 3615 3224 2619 2813 4068 3757 4886 3515 4258 2973 3313 13 2922 2748 3937 4968 4235 2674 2550 3043 2616 4840 4859 4363 2779 3883 4501 2 32 22 6 9 1 2 14 20 34 12 18 39 11 28 19 35 17 31 12 33 2 12 36 39 9 3 36 14 23 9 11 7 3 12 35 8 37 3 21 7 7 7 34 39 1 12 20 7 4 36 13 16 25 31 3 33 34 29 3 36 2 34 22 12 32 11 10 28 1 22 34 5 17 25 20 9 12 17 18 38 3 24 5 31 24 39 18 38 29 10 33 29 13 31 15 10 26 9 2 1 16 32 4 33 35 10 38 25 36 15 6 27 10 31 2 38 30 12 20 28 25 33 0 7 16 23 31 29 16 17 33 9 18 17 32 1 26 17 36 10 8 5 35 37 15 3 13 7 21 3 3 29 22 11 34 29 7 28 39 23 29 8 17 10 12 37 8 3 5 12 20 19 29 38
3664 4972 4837 3978 4156 3581 4428 3939 2943 4736 2949 3481 4487 3362 4716 4169 4894 3533 3981 4205 4244 4730 3533 4186 2736 2771 3711 4856 3238 3452 3561 3126 4551 3823 2558 4904 4346 3259 3785 3993 2997 4839 2994 4878 4308 2829 4864 4679 3183 3828 3178 4486 2692 4561 3218 3838 4352 2797 4612 3634 3933 3023 3564 4387 3783 4664 4882 3413 3163 4561 4441 3086 3991 2805 3410 4427 3563 4180 2717 3675 4809 2668 3362 4983 2536 4605 4916 2993 3943 4383 4036 4222 3394 4698 3953 2725 4611 2844 4040 2588 3468 3459 4789 3193 2752 4623 2721 3534 4176 4021 3226 4117 3179 4150 4539 3628 3159 4670 4157 2746 2954 4232 2867 3364 2944 4766 3667 4431 2718 4394 3708 3788 4423 4371 4031 4023 4041 3160 3388 3394 3724 4648 4381 4143 3024 4217 2919 2812 4958 3330 3859 3977 3642 4726 3517 4940 2863 3992 3525 4473 3522 4481 4814 4283 3929 3910 3954 3157 4686 3512 4100 3519 2538 4411 3642 35 7 5 38 28 20 38 4 32 39 26 26 4 4 6 8 37 19 26 19 9 23 24 9 30 16 23 21 17 25 9 27 27 30 15 4 23 7 16 17 19 34 30 15 33 7 9 38 21 14 37 12 17 22 30 1 17 28 12 29 2 33 34 5 16 1 16 4 2 11 26 30 8 1 4 38 39 6 2 21 3 28 12 1 30 11 10 21 38 6 28 18 20 17 13 15 26 32 27 7 20 36 24 2 39 12 39 28 23 18 19 2 4 3 9 35 27 8 13 11 17 13 35 29 0 35 17 4 25 9 7 1 14 39 12 9 20 30 14 6 27 30 26 29 13 8 32 37 30 13 11 25 15 6 27 13 29 2 6 10 36 37 33 4 27 39 35 23 28 3 12 38 19 21 8
4768 4795 3049 4154 3090 4327 4879 3186 4457 2915 3772 3258 2654 2969 2546 3856 4809 4231 3134 3902 3562 3551 2573 3155 2619 3128 2810 4937 4882 3592 3850 3737 4292 3062 2521 3102 4514 4934 3637 3205 15 4931 4965 3785 3417 4188 2914 3511 3976 4559 2772 3533 3591 3775 2807 4731 3285 3068 3172 4848 3960 4447 2678 3609 3467 3003 4370 4605 4303 4233 2833 4067 2736 3114 3696 3750 3301 3515 3575 4987 3386 4385 3269 3617 3154 3625 4278 2974 3181 2842 3594 3095 4506 4904 3132 3738 3595 4129 3910 3725 3013 2887 3330 4070 4528 3610 4960 3848 3121 4832 2656 2966 4852 4868 4398 4970 4855 4985 3890 3194 4014 3995 3658 3022 4552 4676 3693 4613 4981 3540 4320 4198 4760 3488 3384 4164 3428 4266 4967 2729 3698 3445 2969 4913 3926 3457 4376 2794 3297 3313 4520 4943 4213 4960 4290 2768 3798 4717 4584 3779 3237 3583 4320 2707 3328 3454 3630 4664 3285 3749 2516 4701 4397 3217 4998 32 17 3 30 27 3 14 1 25 23 30 30 13 34 11 11 7 36 12 28 15 22 26 22 14 19 32 6 35 17 34 5 28 28 17 17 26 7 33 31 12 12 10 21 35 17 1 32 33 15 30 17 30 20 1 23 35 13 20 31 15 22 27 1 37 15 24 13 5 15 33 13 21 24 22 10 8 11 22 15 3 13 27 12 21 23 29 1 14 36 35 7 1 25 14 12 24 1 19 30 26 11 26 27 9 1 22 24 10 12 28 24 15 17 1 7 32 31 16 17 31 29 27 17 15 0 4 10 19 36 9 14 6 25 26 20 22 1 4 3 33 15 31 36 32 24 29 3 9 3 28 31 39 33 29 20 26 37 20 36 22 22 12 30 1 18 1 1 36 25 1 10 22 1 39
2692 3566 4542 3623 3030 4219 3313 4675 3710 3390 2804 3512 3520 3276 2953 3009 3223 2509 3334 4144 3371 4423 3835 4963 2739 3690 4642 4878 4781 4602 3185 4147 2868 2718 4147 2770 4309 4649 3913 3055 4447 4348 3834 4421 3464 4806 3928 2986 3477 3713 2940 2911 4641 3009 3425 4619 3007 2541 3485 3475 2831 3197 4344 3303 4869 4505 3562 3598 4764 3868 3721 4467 2521 3612 3608 4316 3264 2762 4833 4053 3002 3505 3286 3870 2644 2640 4404 3338 4786 3471 3996 4901 3479 3322 3146 4178 2611 4981 3193 2829 3635 3806 2907 4896 3506 2973 2655 3973 2502 4341 3914 3684 4531 4708 3499 2635 3223 2982 3660 4189 3807 2717 2845 2584 3417 3273 4596 3116 4995 2649 4936 3646 3315 4007 4451 2521 2993 4679 3432 2592 3696 3351 4130 4304 3933 3800 4029 4568 3712 4957 3936 3296 4669 2643 2821 4553 4432 3377 4130 4963 4781 4553 4653 3784 2908 4309 4548 3190 2549 2924 3821 3977 3870 2960 3223 37 35 33 12 17 25 33 6 38 10 39 22 29 21 17 25 13 37 30 17 19 13 2 14 1 39 30 1 28 5 2 19 24 20 18 10 20 8 2 31 1 36 23 21 31 26 8 5 9 12 20 16 30 33 33 30 9 13 3 26 20 28 18 30 23 16 38 4 10 31 11 19 8 12 3 23 9 25 28 2 11 26 3 34 38 30 30 6 22 1 7 7 28 8 27 33 2 32 27 2 29 14 39 23 34 27 6 20 21 3 30 32 27 1 7 9 9 39 1 27 9 5 22 6 8 25 0 31 18 23 35 37 24 23 6 13 13 7 20 35 32 29 31 1 17 2 22 29 1 11 11 34 36 23 31 27 21 36 19 30 3 35 4 31 29 21 13 25 17 10 4 27 17 31 14
4629 4083 3115 2919 4355 4501 3166 2721 4818 2675 4291 2581 4934 3270 3943 2812 4874 4798 2664 3300 3236 4842 4238 4932 3842 2898 3211 2987 3768 4037 4415 4181 4653 3798 4408 3893 4691 3423 4717 4905 4398 4943 4098 2780 4802 4729 2773 4886 4986 3109 3372 2630 4343 3157 3612 4707 2780 3646 4587 4359 4566 4907 3989 4733 3310 4155 4208 2805 2722 2775 3833 2761 3975 2648 2680 2504 3373 3807 3480 4062 4629 2585 3932 2652 4407 4644 3732 3859 2968 3915 2513 3395 4681 4493 4743 3120 4739 4244 4732 4138 3832 2972 4596 4079 3070 3997 2511 3912 4885 4417 2787 2667 4576 4640 2631 3570 2889 4740 3807 3669 4140 3809 3542 3176 4339 3513 2756 3373 4553 4666 4833 4846 3755 2984 4121 3621 2751 3747 3118 4137 3762 3427 2958 3522 2830 4523 4959 4305 2622 2630 4922 4719 3085 3575 4363 3375 3641 4700 4084 3383 3706 4845 3677 4466 4153 3373 2595 3073 2650 3147 4726 2940 4953 4501 2892 38 5 28 35 5 20 13 11 27 2 24 20 24 17 4 28 16 5 33 35 33 7 28 36 17 13 34 17 6 37 5 14 33 21 34 31 5 6 19 19 35 23 17 38 13 18 21 11 16 34 29 25 20 12 1 31 27 33 14 29 31 24 27 28 30 32 23 4 26 12 12 23 6 2 32 4 37 17 30 14 9 15 39 39 7 33 26 4 25 24 26 9 33 2 7 24 13 30 37 3 17 18 24 27 29 33 2 13 31 9 1 32 21 21 17 35 20 34 25 15 12 22 10 15 29 3 38 0 4 38 17 17 23 29 32 4 2 23 31 5 30 31 39 21 1 9 15 25 11 31 12 32 1 29 7 1 5 33 16 38 25 12 2 19 29 8 20 31 12 5 33 9 21 31 31
3400 4425 4942 3466 4221 3882 4618 3179 3511 4684 2574 4968 2511 3663 4666 3429 4097 4214 3083 4446 3183 3518 4317 3805 2708 4708 4916 3016 2652 4859 2703 3336 4888 4230 3033 4131 4536 4524 4063 3605 4488 2987 3814 3934 3196 3512 3207 3711 3007 3752 4477 4666 4483 2969 4744 4329 2838 17 3444 3448 4101 3672 3349 3012 4291 4006 2776 2983 4422 3761 4439 4314 2647 4857 3390 2914 3015 2998 3827 4659 2858 3615 3079 2561 3128 4033 4920 4599 4395 2853 4283 3288 4524 4318 3474 2776 3115 2976 3530 3983 4909 2715 4844 3040 2571 3392 3673 4611 3063 4435 4601 4299 4949 4995 4299 4861 4332 2562 3484 3278 3774 3114 3423 4704 3829 4765 2613 2815 4163 3673 4249 3914 3841 4052 4968 4674 4931 2667 4798 4326 3558 3950 4474 2676 2526 4574 4520 2740 4532 2672 4645 3932 4895 2880 3283 3349 4916 3004 4061 4714 2535 3525 3005 4046 3541 3674 3832 2781 3060 2693 2627 2510 4391 3688 3412 38 26 39 32 2 23 24 30 22 3 26 38 9 3 20 37 11 4 37 13 31 39 7 29 6 24 4 37 35 39 1 28 11 19 13 37 16 37 18 29 17 10 38 25 20 29 11 11 11 21 37 18 21 35 26 17 16 6 34 31 30 25 19 28 18 31 18 5 6 9 24 13 36 13 39 33 36 30 6 26 20 19 5 30 2 12 23 12 26 29 12 34 2 34 33 1 19 3 8 32 9 39 5 18 27 37 32 26 34 33 3 31 4 27 7 20 14 12 24 11 14 27 28 25 30 19 1 4 0 10 6 8 31 6 39 16 16 34 3 38 18 16 7 19 18 4 34 7 23 11 30 23 9 8 8 16 26 35 1 13 3 20 3 18 13 36 38 37 3 10 10 20 31 13 3
4548 3828 3797 3829 3633 2760 3171 3277 2500 2693 3884 2607 3954 3875 3656 4438 2818 4425 2776 3073 2989 3934 4408 4310 2901 3591 4166 4256 4800 2821 4207 3042 4513 4832 4001 4474 4143 2620 2541 3723 2671 4974 3089 9 3195 4559 3293 4457 3724 3287 3674 2840 2984 3063 2563 3094 3921 2778 2910 3368 4121 3553 4507 3010 4085 3221 4612 4337 4119 4927 4158 4913 3304 2776 3471 4348 4798 3724 3639 4600 3929 2673 4063 3230 4085 2511 3364 3329 4894 2888 3555 4312 4919 3061 2591 2674 3479 4781 2900 3574 4721 4787 3051 2921 4423 4942 4787 2840 3271 2931 3513 4034 3931 4461 4817 4991 4902 3426 3309 4122 2733 2844 3611 3762 4594 3582 2700 4365 3826 4609 3242 4274 3218 4361 4342 4405 4572 4816 3089 4525 4741 4239 3968 3410 2838 4266 4840 2890 2886 4313 3634 3022 4697 3375 3949 3600 4337 3848 2754 4543 4972 4389 3661 4169 3029 2661 3126 3913 4552 3725 2882 2716 2824 3645 2706 3 26 36 21 10 14 22 34 14 13 5 39 1 5 10 38 27 25 27 11 35 29 34 5 18 18 30 18 36 9 6 19 29 31 30 19 14 2 13 3 20 7 19 6 4 8 19 9 1 8 13 35 14 2 26 38 4 21 27 7 37 10 29 16 2 33 27 17 35 34 28 31 26 23 10 2 7 26 1 13 19 8 11 35 17 18 26 28 16 37 32 35 23 2 9 33 29 11 19 12 25 34 8 18 19 24 2 38 13 18 18 37 26 27 5 21 12 5 22 34 31 28 5 15 2 22 9 11 20 0 21 37 37 18 9 8 13 38 20 35 34 38 20 20 32 6 27 10 16 16 39 18 7 21 34 14 37 14 2 2 11 18 36 25 9 15 1 30 30 17 1 33 11 19 31
4669 3849 3824 2500 4554 3182 3668 3666 4998 4773 3466 4007 3485 3507 2647 2802 2722 4835 4597 2969 3021 4352 3648 2543 4559 4207 3196 4831 4139 3471 4221 2590 4024 2777 3852 4919 3609 3704 2675 4937 3591 4886 2648 2585 3297 4429 3722 4634 3532 2525 3408 3370 3286 2518 4240 4857 3060 3578 3487 3501 4245 4581 4226 4442 3344 3761 4656 3100 3056 3453 4566 2960 2667 4957 4275 4581 2631 3655 3690 3189 4526 3316 3344 3589 2665 3482 3800 3562 4306 4293 2628 2761 4639 2811 2641 3410 4129 3382 3082 2854 2671 3395 3665 4187 3676 3085 4856 2560 2724 3331 8 2594 3407 2955 3145 2563 2802 4712 3766 3996 4679 4460 3177 3974 3863 4986 3382 4010 4539 3860 2994 3443 3161 2865 3785 4236 4086 4474 3653 3243 4611 3623 3973 4052 3478 4672 2843 3803 3368 3223 2838 4080 4540 4250 3218 2847 3524 4745 2813 4544 4617 2642 2868 4266 4605 3709 3690 4959 3222 3804 2925 3520 3948 4146 3495 27 2 34 30 9 26 5 28 15 5 16 28 5 34 35 25 31 4 10 19 22 13 32 39 11 38 38 35 29 32 27 39 16 15 27 2 9 17 25 30 17 18 3 15 8 19 7 13 4 22 30 4 21 12 14 34 1 20 5 34 26 15 2 29 14 13 24 26 31 20 36 39 29 14 1 9 28 37 5 13 3 5 39 30 25 12 4 35 4 19 31 20 37 32 1 35 28 6 36 12 34 28 5 36 32 10 17 6 18 32 30 22 2 38 4 37 36 27 29 20 36 15 2 39 9 11 6 21 16 11 0 15 11 16 18 8 1 35 23 24 31 23 36 20 3 17 14 34 11 36 38 3 38 22 3 36 14 27 38 8 31 22 6 7 15 37 24 16 14 7 23 12 4 12 7
3664 4140 2697 4316 3310 3881 2640 4421 3803 3148 4620 3584 2778 3744 4432 2964 3491 3361 4859 2626 3447 2510 3847 3268 4003 4494 3490 4665 4890 4772 3006 3447 4541 2522 4656 3081 3365 3835 4552 4519 2713 2894 3591 3249 3940 2612 4112 3942 4354 3006 2923 3953 4564 4591 4055 2742 3132 2822 4877 4683 4876 3308 4540 2745 4955 3132 3539 2656 3247 3595 2512 4482 4597 4502 3642 4223 4520 2777 4983 3776 3608 3160 4727 4241 3219 2943 3943 2713 2857 4690 4347 3993 3058 3386 2559 2686 3060 4326 4571 4701 4961 2958 3732 2663 3229 4036 3706 4952 3993 4893 4404 4903 3326 4031 4763 4689 3182 2609 2676 2819 3879 3432 3683 4591 4895 2793 3747 3536 3624 4524 3250 3037 2718 4175 4598 4057 4418 3449 2674 2678 4346 4946 4012 4671 3022 3961 4612 3966 3801 3101 3482 3851 2608 3807 3283 4274 3581 4178 4339 3840 2734 2517 2877 2815 4770 4633 3909 4876 4231 4333 2895 2948 4376 2579 3841 12 11 25 14 13 3 35 10 35 26 36 23 26 11 2 9 18 11 20 30 39 17 2 23 36 14 7 15 19 11 11 29 3 28 26 2 24 6 35 25 31 39 12 24 22 28 17 33 15 31 2 38 22 25 38 15 38 20 6 39 6 10 20 25 5 26 38 6 32 1 38 20 11 23 28 32 20 2 5 9 38 7 6 16 13 21 10 18 7 20 30 24 11 34 14 12 30 20 30 24 17 3 1 4 38 13 6 11 14 16 9 21 33 4 30 9 13 27 13 13 25 28 18 29 33 5 17 7 27 35 24 0 30 8 16 14 3 12 8 7 34 10 9 20 3 35 13 20 23 18 36 29 39 12 10 10 35 4 30 11 28 6 2 10 15 24 24 32 31 28 39 36 14 18 16
3874 4261 3898 4141 3399 2566 3122 4616 4040 4788 2858 4160 3633 4863 2702 4896 4863 2860 3408 3029 2770 3350 3626 2686 2955 4711 3661 4174 4275 2692 2527 2659 4628 2586 3341 4103 4968 3466 3059 2994 3102 3115 2997 3434 3396 3332 4943 2757 3817 2665 3691 2683 4146 4109 3156 3479 3200 4489 3854 4726 3722 4481 2664 3952 4466 4699 3004 3072 3041 3718 4975 2719 4970 3392 2912 2795 4884 4054 3400 4437 4369 4798 4194 3966 4254 2723 3510 4005 4681 4457 3527 4785 3833 4303 3739 3495 3429 4361 2807 3809 3917 4137 3318 3330 3027 3643 4995 4844 2612 4926 3382 3027 4559 4141 3931 3044 3821 3926 4561 2632 4998 2965 2719 4417 2687 2864 3290 2787 3761 4764 3543 3654 4772 4720 3744 4308 4900 4602 3194 3618 4423 4386 4173 4540 4031 4055 3046 3600 4823 4863 4850 4245 3826 2784 3827 3816 4366 2963 3297 4848 2946 3274 3498 2638 2787 16 3357 4334 4472 4016 3391 3060 2537 4357 4325 3 8 15 13 6 12 1 23 3 7 11 21 27 22 6 14 18 38 39 24 10 26 3 9 8 35 31 2 8 35 15 15 1 34 27 25 10 37 11 16 35 17 27 28 32 35 13 36 4 29 8 11 2 25 6 32 35 7 5 3 12 34 21 21 35 21 21 7 33 22 24 21 36 31 37 21 20 29 9 14 9 37 9 14 7 6 38 34 9 1 36 16 20 35 20 3 21 15 8 9 20 25 10 33 4 20 4 20 19 24 29 32 8 18 6 7 37 25 11 14 30 23 35 20 20 36 22 12 22 33 33 28 0 19 39 6 21 36 37 31 38 15 1 20 4 16 6 15 23 29 39 4 39 13 32 18 30 24 24 34 24 2 38 18 23 1 35 5 22 16 17 34 28 24 30
3770 2705 3719 2849 3420 4426 4840 4810 4817 3149 2726 3485 3169 4546 4725 4017 3194 4332 2711 4167 3970 3535 3825 3140 2910 4676 3329 3868 2691 4720 3942 4651 3657 2748 4257 3029 2952 3728 13 3545 4354 2954 3981 3725 3279 3063 4249 3625 3196 4441 2615 4508 4681 4012 4266 4801 4435 2526 2718 2883 3670 4573 2921 4945 4688 3633 4866 4074 3489 4970 2565 3340 4053 2796 4873 4202 3649 4280 4456 4291 3633 2757 3184 3430 2656 3775 3835 4195 4039 2972 3286 14 2705 4021 4365 2837 4189 2810 4461 2675 4525 4154 4084 3662 4607 3032 2603 3826 4778 4105 2849 2615 2881 4104 3654 4111 3463 4888 2751 4267 2973 2878 4560 3842 3326 2954 4610 4390 4209 3237 4022 4495 3432 3223 4941 4481 3834 3105 2992 3773 4823 4953 3852 3552 3382 4184 2701 2674 3357 4629 4139 3589 2628 2689 4158 3459 2955 3149 12 3706 4190 3055 4968 3982 4029 4770 4652 3011 3464 4970 3720 4901 4362 4046 3102 31 15 21 19 3 36 25 24 2 5 1 11 7 18 30 33 20 3 27 18 30 39 21 13 26 39 23 22 37 27 3 14 34 22 4 21 16 9 39 5 10 35 18 25 17 21 36 14 30 9 19 37 34 15 28 39 6 38 39 30 5 11 1 8 38 34 21 28 16 8 27 33 33 3 4 38 29 36 34 9 34 20 19 4 1 39 35 9 25 18 3 1 16 36 37 37 7 9 12 27 33 7 10 16 1 1 14 37 19 22 33 14 7 7 24 16 35 11 26 36 30 5 17 27 14 29 1 5 13 1 39 24 29 0 5 23 14 3 16 34 4 11 9 27 14 22 9 26 30 5 14 25 3 4 10 36 11 1 21 19 38 8 21 26 16 31 11 19 24 2 6 18 27 25 10
3844 4425 4846 3996 2612 3718 3997 3563 2987 4353 4845 3089 3437 3469 4753 3505 3905 4325 4258 2749 4439 2519 3846 3977 2789 2784 3364 4209 4596 4162 2533 4097 3729 4964 4732 3521 4227 3337 4975 3496 4901 3223 4305 3005 3176 4845 4474 2709 3915 4214 4707 4440 2647 2713 4618 4220 3001 2924 3143 3579 4520 3628 3767 2912 2745 4943 2620 3772 2782 3516 3985 4891 3272 4349 2537 4534 3280 2877 2940 4590 4452 2669 3787 4574 4976 4187 3982 2517 2907 4457 4323 3253 3153 3903 4347 3598 4388 19 3434 2972 2726 3325 3922 3303 2516 4532 3206 3505 4051 4344 4241 4443 2995 4169 3164 4302 4964 4798 3562 4270 3504 3953 3300 2692 3776 4240 3930 3382 4595 3633 4445 3784 3071 4211 4681 4261 3072 3498 4180 2930 3416 2798 4614 3594 4981 2514 3056 4805 3245 3725 4673 4794 3356 3786 4836 3161 4240 4370 3406 3610 2616 3287 3737 4130 4331 2501 3354 3889 3756 3640 3556 2600 2968 3188 3361 22 8 12 6 39 10 21 8 17 31 18 34 38 39 34 28 16 37 23 27 18 32 19 6 19 12 36 37 32 19 17 33 20 30 2 36 39 6 10 38 14 8 14 9 7 26 13 17 27 36 24 33 34 20 8 19 15 36 35 4 5 35 3 4 37 17 7 31 26 20 26 7 2 23 5 28 4 31 14 25 17 39 39 19 38 2 15 15 8 26 4 38 29 5 19 13 31 8 3 21 17 29 21 26 26 32 22 7 31 34 27 31 26 30 6 28 3 16 18 29 8 28 31 8 36 36 19 13 32 19 12 31 18 5 0 5 11 36 7 6 4 16 6 20 23 24 22 4 17 14 21 1 37 9 4 16 2 30 33 39 16 35 38 7 20 3 29 39 8 9 3 23 39 12 19
4329 3555 3949 4069 4096 2615 2928 4206 4786 3388 3767 2692 4096 3460 4643 4897 3542 3698 4544 4741 4061 4243 4675 4994 3938 4853 2908 3713 4110 3431 3712 3167 4984 4131 2808 4948 4112 2756 3398 4260 7 2525 3498 2842 3651 4968 4572 4864 3872 4374 3269 4622 4332 4845 4007 3847 2735 2580 2919 2944 3802 4024 4605 4198 4633 4234 4588 3766 3704 3016 3896 4985 4020 4795 4295 4283 2603 3361 3794 3790 4315 4219 2819 3022 3014 4692 4846 4339 3858 4460 2793 2957 3934 3186 3718 4103 3112 4088 3255 3428 4042 3494 3315 3639 4322 2770 3740 2800 4116 3189 3611 4236 4701 4295 4839 2529 4248 4366 4789 4520 3162 4469 4654 4349 3499 4237 2702 2771 3316 4705 3223 3658 3007 4830 2832 4760 3727 3341 3799 4201 4315 3987 2866 3977 2614 4329 4241 4813 3533 3821 4709 2768 3573 4956 2616 3642 3386 4976 4834 2663 4600 3882 3745 4501 3850 3376 4634 4623 4745 4670 2847 3390 2803 3342 3052 7 9 30 20 34 27 32 18 15 37 19 31 39 20 38 17 19 34 14 34 15 21 10 2 17 12 29 10 12 36 17 24 39 33 32 1 4 32 19 21 26 31 37 10 12 11 15 27 6 36 14 2 38 28 18 34 33 31 16 34 21 31 30 35 29 36 38 9 5 1 25 29 17 10 33 30 32 12 11 24 32 16 31 21 34 30 31 2 20 37 39 6 7 7 31 25 30 7 6 6 14 26 29 28 24 4 22 19 11 1 26 39 1 9 18 10 22 30 28 15 2 17 29 36 24 29 23 10 4 26 35 38 21 36 1 0 32 5 37 36 27 10 38 3 25 13 5 37 3 28 7 8 3 19 38 35 28 10 32 27 8 22 23 21 39 39 20 32 35 8 7 12 26 19 34
4257 4018 3565 3857 4969 3548 3066 2700 3684 4770 4419 2735 4738 3968 3722 3353 2811 4705 3539 4150 3669 2736 3055 4347 3697 4738 3381 4905 4906 4823 3984 3591 2576 2684 4107 2556 3336 4330 2590 3387 4666 4235 3675 4634 2823 3073 2957 4139 3574 3520 4892 4475 2526 3470 4023 4455 3281 3142 4953 4510 3555 4621 4985 2614 4782 4886 2994 4022 4125 3689 3641 3467 3513 4207 3020 4004 3045 4278 3912 2572 4961 3846 2942 4979 4005 3624 2625 9 3301 4795 2919 2834 2521 3417 4703 3715 4626 4671 4705 4675 4258 4042 3884 4826 3420 4973 2624 3609 3934 4039 2978 4033 3803 2906 3963 3278 3492 3070 4010 4538 3580 3795 3602 3795 4343 3110 2948 3233 4974 2941 4516 2919 3228 4451 4753 2570 3722 3897 3092 2520 3344 3484 3324 3331 3880 3548 4512 3322 2636 3729 4162 4879 4994 3254 4501 3303 2559 4573 2868 3965 4510 3959 4680 3357 3368 4185 3281 4457 4610 4841 4806 3411 2983 3097 3622 8 11 7 15 2 19 23 35 21 6 16 26 36 19 33 16 27 34 20 20 22 2 32 17 2 25 9 39 38 35 22 32 27 36 9 17 18 10 30 37 15 31 29 9 5 38 26 4 31 10 30 38 17 32 15 6 21 28 28 17 25 18 16 30 22 16 37 20 3 13 17 7 28 30 15 22 19 15 22 24 9 25 4 19 6 5 39 26 17 20 19 15 26 13 37 10 38 7 36 5 5 16 24 29 25 37 20 14 5 23 32 35 38 30 6 21 24 7 1 39 15 25 34 29 37 9 6 5 34 7 6 20 20 12 3 21 0 16 37 26 30 21 27 21 33 1 10 10 30 8 17 32 19 34 33 20 16 32 35 11 31 35 32 1 7 10 10 17 6 23 8 5 18 3 39
4788 3377 4442 4753 4410 3676 3045 2780 2942 3816 4801 4191 3059 2530 3688 2638 4146 4303 3917 3405 4246 3984 3323 3135 4509 2755 4858 4976 4535 3967 4121 4422 3576 4716 3489 3669 3703 4150 4995 4543 4698 4667 4105 3192 4787 2868 2988 3519 2679 18 3375 3997 4468 4177 3953 2943 4426 3883 3996 4426 4519 3356 3179 2956 3098 4934 4998 3761 3368 4138 4042 3488 3736 2948 2756 2827 3325 3681 2869 2822 4984 3746 2813 2906 3134 4490 4223 2835 2685 4617 2921 2811 4201 3450 4085 4747 3842 3912 3712 3053 3163 3531 4797 4511 2860 4914 4444 2680 4615 3477 4032 2916 2513 2576 4409 3650 4143 4186 3980 4174 2882 3474 3636 4008 4838 3694 3042 3207 3307 2749 4024 4250 3986 4074 4639 4314 3696 4942 2659 4530 4061 4939 4533 2986 3827 3448 3750 4525 2720 3796 2783 3276 3532 3532 3538 2657 3238 2863 4415 3284 4851 3449 4940 3273 2707 3542 3081 3223 2831 3984 3634 3146 2608 4852 4518 21 28 26 32 20 8 1 17 4 27 26 17 29 20 3 8 17 18 20 8 35 19 1 8 20 30 10 37 7 17 9 36 10 23 32 3 4 33 26 10 5 18 26 21 22 2 26 17 10 30 15 35 26 29 13 7 22 10 18 36 16 38 36 1 32 38 16 29 17 15 11 17 1 4 26 30 17 37 16 31 30 3 23 28 10 13 32 34 29 7 12 13 37 12 25 31 28 30 27 15 2 38 8 16 2 17 20 7 4 15 33 12 4 23 10 14 25 30 21 32 27 26 29 23 6 24 18 8 12 34 15 9 37 24 17 30 2 0 25 12 32 5 12 8 6 17 6 36 38 28 28 24 31 5 1 16 13 5 1 5 37 36 18 19 12 35 1 30 3 31 27 27 31 34 31
3328 3073 4213 3199 4074 4670 2577 4227 3339 3566 3865 4800 4103 4970 3066 3104 3947 2858 2845 2808 4046 4465 4855 4090 3394 2567 3398 3947 4698 4826 3325 3742 3873 2735 4218 3835 3765 4966 4902 2679 3841 4852 3345 3989 3447 4448 2617 2982 3794 2574 3043 3944 2665 3572 4314 3355 2554 3085 4864 2695 4185 4037 3785 4556 3035 3926 4814 4731 3317 3490 2680 3241 3255 4060 3195 4705 4847 4811 4193 4171 4779 3124 4639 3648 3153 4476 3850 3589 4635 4506 3638 2703 4709 4275 2726 4194 4700 4356 3463 3808 3064 3147 3535 2593 4810 4003 4078 4986 4094 4323 4696 2507 4961 4856 4768 3220 4232 2810 4486 2749 3506 3201 2629 3181 4681 4544 3051 3593 3224 2675 2748 3124 3376 3072 3378 4139 3848 3987 4192 3859 3038 4391 14 4407 3676 4423 3275 3951 3314 2696 3135 3588 2889 3100 4366 2865 3291 4084 4974 3690 3397 2709 2537 4788 2611 3530 4935 3307 3251 4393 4851 3964 4020 4250 2837 26 13 24 21 9 33 15 23 15 31 6 31 13 31 39 33 16 8 9 10 12 16 2 16 22 4 9 24 13 37 33 4 31 10 11 4 5 11 31 5 9 9 30 16 23 26 15 1 37 11 31 30 16 34 21 16 5 12 24 24 5 13 11 35 22 14 29 21 12 36 29 38 35 25 22 3 14 9 39 11 16 36 31 15 34 35 29 8 13 10 24 31 5 34 33 16 16 11 19 24 29 20 34 21 6 38 25 18 12 17 34 34 30 30 3 30 28 18 20 38 9 1 23 7 28 16 1 30 36 31 7 31 29 33 30 20 34 24 0 3 23 8 31 28 7 35 20 17 26 10 7 27 25 29 17 27 18 7 29 31 12 26 38 7 23 27 27 22 24 12 39 7 11 27 14
4968 3367 4666 3141 3651 3205 2687 4517 3746 3923 4589 2952 4009 4582 4940 4679 4678 4401 3244 3495 3136 4886 2554 4344 3880 4427 2749 3048 4169 2884 4075 3007 2706 4405 4821 4605 3881 4669 4747 4060 3389 4287 3191 3252 4472 4223 4280 4185 2640 4848 2561 2564 4167 3352 4462 4723 4353 4397 4258 3008 3625 3330 3075 4571 2779 4974 3511 3159 3024 4345 2809 2593 4976 3651 3726 2711 4887 2593 4820 4946 3601 3616 3441 4558 3073 4006 2506 4513 4243 4312 2802 3749 4648 2741 3956 3550 3853 3243 4339 4183 2868 4841 3338 2632 3664 4306 4436 3481 3790 4710 2788 3327 3931 3957 4163 4628 4981 3696 2722 4612 3760 3420 4922 3372 4402 3210 3627 4392 4977 3098 4801 3982 3260 2782 4447 2788 4994 2943 3869 3732 3817 4635 3703 3006 3431 4523 3256 4188 2816 4731 4236 4324 4864 4449 2504 4012 4659 4955 4321 4242 3991 4455 3618 3005 4898 4856 4112 2595 2831 3048 3065 2756 4619 3121 3342 14 21 35 20 24 37 3 29 33 34 28 17 30 34 35 33 29 32 6 39 16 38 24 15 28 20 35 34 37 31 11 8 26 16 32 4 5 24 36 22 10 14 24 27 30 5 21 35 12 38 13 15 4 28 3 13 22 9 19 27 19 6 32 26 26 25 35 19 3 24 25 24 27 7 30 19 37 17 11 24 11 21 36 18 15 37 11 5 6 18 10 5 11 6 18 14 4 5 10 35 35 36 8 27 2 29 1 17 1 30 22 9 19 20 34 35 38 23 31 18 8 15 33 34 14 2 17 14 36 32 2 19 14 29 29 36 19 19 8 0 24 4 26 35 9 35 14 39 34 39 11 7 14 14 9 10 24 24 37 7 18 31 35 37 33 27 23 7 18 31 16 23 2 18 13
3164 3775 3706 4293 4312 4032 4470 4711 3277 4750 4457 4618 3099 2662 4945 3957 4380 4939 2527 3606 3370 4150 4261 4674 3335 4762 3335 3125 4986 2758 3469 3425 12 4561 4079 2819 3848 3081 3605 3124 3211 4601 4100 3650 3017 3019 3627 4796 3748 4540 3592 4431 2746 4407 4631 4851 4434 3903 2895 4304 2727 2973 4478 3357 4384 4799 4487 4455 2973 3710 4866 4002 2775 3035 3095 3460 3491 2675 2829 4583 2826 3314 4776 3057 3947 3145 3781 4924 3587 3087 3786 3099 3338 4697 3007 4877 4418 3916 2985 3068 4152 3453 2787 2751 3018 3921 2555 4893 4254 4401 4826 4037 2980 3043 3676 2773 3339 3467 4049 3310 3711 2633 2624 3227 4130 4578 3479 2986 2886 3278 3378 3113 3635 4084 4959 2694 3970 3409 2734 3689 4719 4160 4107 3886 4283 3752 4373 3965 3633 4617 2533 3099 3387 2959 2570 4399 4761 3929 3905 3104 2675 4358 2506 3992 3258 4084 3162 4915 3056 3400 4580 4153 3073 2557 3233 2 16 4 12 6 15 39 14 7 12 30 38 20 25 36 1 29 11 9 7 14 3 20 14 15 23 18 16 26 28 6 4 18 21 28 12 10 16 10 36 39 20 7 27 3 4 35 6 5 31 18 7 24 8 31 5 15 25 22 34 3 7 14 23 21 18 15 9 13 28 34 9 8 9 18 17 35 16 22 10 29 32 20 36 13 30 8 24 38 29 15 17 4 15 3 21 9 39 30 38 17 21 11 25 4 32 15 28 26 19 16 33 22 12 7 35 32 3 13 11 1 25 21 17 20 36 39 5 20 2 22 37 33 15 9 24 7 14 26 24 0 15 32 10 25 36 31 28 9 35 18 21 5 7 22 39 9 7 6 36 32 39 39 37 2 2 22 33 24 9 33 24 6 21 29
4705 3218 2898 4134 4751 2736 3236 3705 3244 4302 4896 4830 4024 4484 3906 3447 3864 2568 4359 4904 3396 3914 2896 2624 4018 3925 3218 2700 3344 3275 4686 3351 4603 3119 4896 3998 4979 4249 4310 3843 2564 4044 3723 4658 3545 15 3710 3207 3978 4741 3506 2550 4338 3651 4662 4744 2856 3217 3601 3156 3976 3193 3486 2694 3772 4834 2614 2677 4421 4561 3039 3740 4605 3490 3011 4069 2698 4837 2665 3296 4128 2759 3748 2570 4180 2596 4064 3675 4312 3109 3697 3758 2655 2635 3295 3582 3929 4980 3083 4420 2950 2785 3170 4159 3216 3587 4232 2514 3394 4639 2635 3645 4500 4946 2900 3403 2511 3389 3889 3478 3445 4266 2817 4877 4748 3138 4548 3484 4951 3839 3696 4420 4854 4811 3303 2511 4366 3000 2621 4087 3169 2545 4927 4654 4238 3605 3236 3651 4065 3593 2626 3568 4246 3750 4027 3935 4723 4382 2758 2841 3615 4659 4145 4168 3526 3898 2814 3791 4446 4427 4655 2723 3249 2754 3920 5 13 10 18 15 7 8 22 4 15 17 5 4 38 11 7 22 37 12 11 5 4 34 16 10 3 10 10 25 25 14 10 22 12 24 26 7 33 32 31 39 15 28 18 39 33 20 12 8 20 6 12 26 17 7 17 20 6 17 28 21 18 11 28 3 27 16 19 14 21 27 12 6 13 8 23 20 19 20 38 33 12 28 4 37 21 15 5 36 10 33 36 4 23 27 21 34 12 13 25 5 3 36 34 14 37 25 17 10 39 36 39 18 8 33 27 11 12 20 34 18 24 22 15 7 11 38 8 12 16 11 37 21 16 1 16 21 14 27 28 17 0 4 4 5 36 4 11 22 8 19 10 32 1 9 2 37 32 10 37 26 8 38 19 26 32 28 26 38 2 15 4 15 17 11
3232 4680 4280 3734 3463 3880 4218 2782 2797 3037 3761 3650 4647 3740 3569 2852 3305 4543 2811 4064 4420 4849 2663 2728 4751 3844 3610 4620 2777 3647 2989 3133 2845 4685 3090 3034 4865 3116 3264 3071 3694 2904 4646 4034 2945 2530 2604 4423 2888 4408 3624 3272 2721 4332 2716 4914 3702 4778 3210 3812 3510 4255 3490 4284 4301 3552 3873 2984 4121 4195 4095 2837 3481 3729 4898 2618 2615 4160 2557 2789 2921 3582 2544 4177 4072 4975 2631 4453 3180 4289 2617 2789 4480 4714 3242 3803 3453 3251 4747 2860 4290 3220 3046 2761 3170 4345 2914 3805 3577 4028 3486 2921 4443 4719 4007 3899 4936 2691 4591 3311 2687 4236 3384 2557 4590 4962 3714 3407 4702 3319 2654 4236 3042 3376 4394 3717 2569 4451 3507 4048 3256 4922 2921 2883 3412 3558 4585 3239 2924 3043 4136 2957 2867 3015 4799 2884 3756 3304 3668 4392 3852 3775 4239 4854 3945 4613 3943 3754 3203 2955 3098 2692 3592 3412 3018 39 5 33 3 4 31 24 22 20 10 37 19 34 31 26 8 6 17 11 17 9 24 34 8 33 22 5 25 3 22 18 10 10 16 23 29 14 22 4 20 22 10 35 34 39 37 5 30 17 6 30 17 25 31 33 10 33 16 32 15 12 37 28 38 39 8 15 15 36 38 25 39 6 19 38 6 1 8 28 2 35 31 32 24 21 19 30 37 29 28 39 5 9 21 17 9 19 8 3 25 31 16 8 30 35 17 33 15 21 7 36 38 32 24 34 32 4 6 1 35 24 17 38 32 5 17 15 4 25 14 22 30 28 33 39 28 18 22 15 36 36 3 0 30 22 25 8 19 21 36 22 11 22 14 32 8 25 19 33 34 2 18 6 38 36 28 26 10 32 24 15 29 34 17 36
3102 4819 4034 3638 2787 4369 4978 3167 4999 4902 3850 4733 4787 3303 2690 4059 4276 3533 3188 4289 3608 2983 3850 2641 3702 2535 3089 2520 4512 3008 3468 4226 2812 4104 4281 4382 2726 2922 4194 3875 2721 3653 2571 3748 4946 2941 2958 3869 2698 4948 4651 4674 3377 4381 3552 3391 3331 4551 4265 3088 2698 3197 4767 4900 2649 4979 3464 3955 4651 2708 4703 4078 3568 3964 3451 2672 3305 4321 4124 3637 4902 4169 4894 2506 3405 2835 2876 3076 2949 2961 3832 2863 4182 2507 2637 3561 4033 2941 4650 4497 4315 4318 2723 4172 3810 2868 3353 2587 2600 2813 2745 4674 2561 4600 3270 4050 4452 4950 4185 3740 4401 2643 3418 3911 4757 3493 3061 3639 4627 3668 3964 3223 4959 3847 2595 2890 4172 3492 2730 3221 3549 3580 3285 3499 3940 3734 3029 2846 4562 2959 4782 2857 3146 4095 3239 4897 2593 2945 4455 4399 4180 2629 2861 4930 4955 4011 4881 4177 3872 4337 3323 2727 4678 4795 4388 20 6 5 39 32 36 7 30 5 20 38 13 2 23 12 1 34 25 22 16 16 35 7 32 28 31 5 36 26 30 21 19 4 22 36 17 2 31 34 31 24 27 38 10 9 2 39 15 9 26 9 1 39 6 32 34 35 10 31 14 12 17 11 10 7 5 34 22 9 4 1 5 5 39 39 12 7 27 10 32 14 24 3 36 33 13 3 24 38 27 35 35 2 27 31 22 21 18 10 38 26 11 11 12 2 2 15 13 24 10 32 13 30 7 34 30 25 18 19 22 29 35 2 8 16 29 3 26 11 20 14 19 11 16 30 6 33 38 30 20 31 4 37 0 1 10 34 13 38 19 31 27 5 20 19 8 32 37 25 15 4 15 18 28 14 21 1 37 20 27 7 23 32 33 7
3394 3701 3013 4221 4352 3388 4971 4129 4175 4087 3570 4683 3602 2573 3499 3560 3258 4872 2523 3152 3991 3719 3696 4624 4674 4654 2978 3333 4241 2516 3237 3831 2520 4417 3301 4293 4451 3880 4366 3985 3457 3574 2705 4753 2601 2649 2999 4566 4250 2570 8 3702 3456 3098 4871 4480 3247 4350 2708 4179 3523 2514 4814 4304 4010 3748 3891 4623 3238 2593 3472 3675 4157 2924 4430 3208 3440 4810 2552 4164 2869 2641 4045 4400 3178 2908 4336 2992 4558 4527 4052 3761 2605 2870 2747 2589 3050 4296 3640 4115 4215 2766 2894 3002 3616 2763 3245 3229 2809 4047 3249 3446 3133 3028 2872 2647 3619 2760 4661 2833 2911 3628 3469 4209 3113 4005 3740 2544 4412 2825 3993 2640 3119 3072 4640 4082 3274 3988 4128 4709 3087 3757 3381 4726 4652 4857 2680 2987 3726 3349 4391 3463 4487 3703 4136 4676 4164 3484 2501 4277 2569 2619 3774 4695 4389 4582 4303 3597 4461 4544 3450 4722 4239 4791 3020 14 23 39 27 14 31 12 37 9 25 25 32 33 36 22 37 30 6 22 20 27 29 26 28 12 32 9 13 6 2 29 28 27 33 26 3 32 27 8 36 25 14 27 37 8 36 6 29 29 22 38 12 11 1 8 24 1 3 32 35 4 34 22 2 27 25 23 26 10 34 18 11 19 38 13 33 21 24 24 4 35 18 15 34 19 13 33 18 26 35 22 7 34 15 22 21 31 17 3 16 20 16 24 5 33 17 24 5 11 35 23 26 22 11 36 33 25 15 4 21 4 20 39 23 10 27 17 12 18 21 6 35 5 39 7 15 2 38 20 8 18 19 35 1 0 21 26 36 32 24 18 26 15 7 37 25 23 29 26 35 17 36 36 13 20 37 6 27 3 4 18 5 17 22 27
4472 4309 4910 3077 4984 4371 17 4561 3382 4143 2616 4413 2709 2810 4887 4411 2599 3454 2608 3969 3262 4696 3226 3317 4202 3036 3371 4450 2632 3617 3400 3179 4904 4701 2971 2664 2868 4740 4549 2560 3964 4212 3689 4199 3672 4388 2869 4957 3972 4903 4185 4882 3271 3462 3292 4509 4659 2956 2699 4056 3247 3893 3398 4628 4529 3199 3651 2527 4273 4340 3714 3217 4833 3022 2552 4691 4951 3786 4703 2786 3663 4645 4763 4098 3678 2587 3726 4494 3896 2809 3005 4817 3055 3531 4442 4955 3012 2916 2765 4158 3400 4525 3750 3475 3812 3593 4567 3363 4877 3684 4572 3549 3141 3671 3296 3157 4427 3932 3862 3898 3464 4662 2888 4979 4266 4525 3859 4156 3168 2561 2771 3382 3424 3330 4657 2952 3483 4632 3200 4092 4632 2502 4244 3935 3845 3091 3414 3545 3042 3024 4824 4478 3548 4133 2599 3284 3310 3895 3274 2600 4719 4225 3542 2976 2627 3095 4053 4252 3095 3708 2640 4167 4040 3140 3675 30 2 21 26 1 19 23 25 10 17 1 4 21 37 16 37 27 4 14 34 14 31 11 25 23 36 2 36 14 23 38 39 26 18 39 24 30 24 14 15 36 36 37 12 36 34 38 1 2 25 32 29 15 11 27 37 24 20 17 21 36 38 34 32 33 23 31 16 15 37 11 36 37 25 18 1 21 26 16 37 4 34 10 5 23 30 22 37 30 2 27 24 10 18 11 37 28 21 14 4 13 15 13 2 3 22 24 24 23 3 39 19 23 4 23 33 13 30 25 11 30 9 4 17 6 37 7 14 38 26 35 15 11 33 7 10 13 24 27 18 31 11 4 8 17 0 2 28 11 23 20 31 14 19 7 31 7 7 38 25 22 34 22 7 25 22 31 23 10 9 34 12 32 37 16
4665 3075 3988 2960 3078 3622 4461 2831 4568 3778 2714 2750 3395 2547 4468 4329 4144 4011 3198 4001 3218 4176 3530 3719 4586 2822 4278 4035 3312 4204 4697 2733 3386 3197 4813 3362 4937 4301 3478 4723 2971 2577 4724 4779 3402 3101 4854 3288 3097 3323 4341 2677 2647 2784 4558 3875 4890 3022 4044 3763 3447 4700 4011 4895 2938 2623 3800 2886 3471 4272 3207 2661 4286 2723 3265 2729 4142 3724 3711 2936 4563 3212 4929 3819 3913 3097 4081 2682 4281 3841 3166 2637 4672 4175 3114 2548 2824 3186 3727 4015 3227 2803 4005 2898 2742 4060 4896 4791 3028 2904 3479 3561 4188 4299 4023 2784 3391 4879 2555 3706 4886 2616 4152 4304 2753 3746 2866 4293 4024 4376 3193 3536 3379 4845 2895 3868 4888 4731 3228 3455 3167 3688 3822 4094 4215 3470 4431 4278 4632 4854 4181 4321 4892 2807 3099 4448 2774 3653 2692 2917 4388 4158 3173 4025 4098 4948 2786 3632 3073 2643 4049 2973 3153 3948 3187 26 4 38 20 6 8 32 9 10 13 28 15 1 35 27 6 19 17 29 38 36 31 18 28 26 7 31 30 33 30 17 31 7 33 27 26 29 39 39 9 36 12 27 19 23 31 32 39 15 20 10 32 22 11 35 24 17 37 32 20 7 29 27 37 37 31 23 15 18 33 5 32 20 27 1 32 15 8 12 3 9 33 24 34 31 34 13 9 36 22 8 38 7 32 9 27 15 24 27 39 33 1 36 34 34 28 39 34 23 5 38 33 13 6 37 11 11 11 3 28 33 24 26 20 4 28 11 5 37 2 16 18 24 24 23 13 16 31 3 35 20 38 26 36 28 32 0 4 17 18 18 1 35 21 37 18 37 32 28 34 38 31 10 28 5 5 12 23 1 5 28 30 38 3 3
3517 3515 4408 2608 3858 4404 3428 3528 4905 4798 4591 2763 4504 4835 3653 3974 2822 3618 3044 4275 4317 4107 4629 4119 3616 3473 3429 3504 4465 2787 4302 2804 4539 4337 4453 3864 4165 3243 4374 4185 2934 2733 2503 3901 3881 4308 3155 3279 4858 2872 3558 4268 2938 4666 3696 4709 2711 4627 4828 4816 4332 4131 4241 3685 4238 3628 3585 3754 3288 4619 4014 4753 3105 2728 4219 4188 4130 3503 4717 4329 3305 2598 4953 3126 4468 4121 3524 3838 3913 2689 4070 3176 4447 3228 3947 4940 2777 2893 3424 2988 3459 3352 4518 4972 4125 3800 3315 4327 3583 4214 8 3551 3346 4252 3795 4679 3863 2806 2703 3415 4090 4512 3900 3408 3949 2776 2565 4800 3897 3073 2519 4534 2952 2820 3253 3693 3748 3987 3351 4678 4047 3950 4311 3630 3636 4664 4161 4982 3762 3484 3752 3210 3781 3048 2567 4940 3786 3286 4777 2917 3933 4180 4317 3439 3410 3248 2617 3399 4747 2893 3812 4796 4103 4159 3571 21 22 38 7 6 20 35 31 10 9 10 4 33 5 22 7 39 5 33 35 12 5 39 12 33 21 31 19 19 17 34 9 17 31 27 12 11 6 15 25 5 31 16 24 5 11 10 35 20 26 19 17 23 34 29 38 23 31 38 14 14 31 10 28 16 31 5 22 39 8 21 26 6 4 18 14 13 16 2 35 9 27 24 27 30 9 30 19 38 13 26 2 38 35 3 23 20 23 3 23 39 6 20 20 28 23 27 32 37 19 28 8 19 18 10 7 16 27 21 24 3 16 34 26 23 13 16 36 20 12 11 11 14 15 6 39 34 8 35 13 36 27 21 22 26 13 12 0 38 12 15 35 21 1 6 22 7 30 21 30 28 27 6 39 10 16 3 36 35 36 33 38 6 9 16
4150 2543 4865 3628 4478 2815 4820 2551 4471 4501 4458 2512 2957 2901 4684 4526 4359 3931 2542 3860 3686 3125 2846 4635 2608 4143 4793 2830 3495 4516 2681 4875 4806 4790 12 2586 3927 4328 2807 4991 4822 4639 3248 2719 3577 2945 3330 4978 2843 4381 3032 3636 3962 2984 2968 4037 4928 3171 4891 2729 2701 3387 2527 3202 4984 4577 2640 4420 3503 4123 3788 4424 3335 2779 2751 2671 3733 3993 3944 3551 3461 2993 2955 4331 4911 3448 2680 3381 2705 4063 4854 4887 4253 4475 3689 3759 3516 3334 4549 3549 3298 3122 4829 2711 2927 3314 3703 4702 2537 2800 4662 4554 3041 2844 3363 4584 4713 4174 2766 2987 2999 2830 3696 4263 3881 4839 3054 2800 2682 3676 4059 3433 4952 3927 3151 3555 4818 3301 2886 3460 2800 3988 4970 4358 3536 3254 2525 4462 2698 2692 3699 2547 4800 3915 3286 3631 3484 4176 4761 3184 3854 3511 4481 3022 3728 2954 3911 3861 4609 2941 3182 4182 3730 4063 3995 7 1 4 20 30 17 3 3 5 32 19 10 19 17 28 19 3 3 24 30 30 7 7 28 31 14 2 28 30 38 14 20 17 7 6 37 19 21 1 2 37 21 27 21 10 8 26 11 20 39 17 8 38 7 32 29 16 17 26 8 37 12 27 13 34 21 34 16 26 14 36 30 23 2 7 27 9 36 37 38 35 30 13 9 25 2 15 4 23 29 11 29 18 10 15 14 7 6 9 25 18 24 34 35 24 34 1 22 38 2 8 12 1 3 3 38 6 12 28 34 26 12 32 34 2 26 9 12 4 23 26 24 21 24 19 38 15 31 21 33 31 36 28 31 25 29 14 39 0 34 10 38 29 10 26 17 7 10 18 9 6 11 18 18 31 31 9 5 7 17 38 34 9 20 31
4490 4549 4677 4606 3482 3645 4948 3378 3475 4890 3437 4722 3997 4856 2884 2624 3938 3351 3108 4424 3889 3065 4018 2789 4978 4307 4720 3477 4748 2949 4605 3120 3695 4999 3452 3621 3881 3529 3384 4694 3926 4694 4173 3258 4744 4549 3448 2816 3575 4715 4609 4304 3526 4190 4138 2816 4876 3740 3683 4936 3645 2756 3677 3747 4809 2657 2520 3073 2956 3221 4700 4834 4533 4531 3330 4854 3824 3821 4725 3731 2648 3518 4791 3233 3965 3239 4626 4632 4515 2772 3147 4972 3068 3720 3765 2525 3964 2894 3792 3821 4731 2561 3324 2636 3823 3196 3320 4844 3034 3263 4792 4247 2833 2597 4910 3600 3096 4389 4994 3825 2984 3904 2690 2970 3354 3623 2807 2694 4422 2651 3917 2927 3966 4099 4341 3168 3076 3667 3052 3823 2590 4579 2624 4033 2911 2835 3020 2643 4934 2507 4561 3770 3886 4568 4786 4753 3350 4375 4224 3864 4608 11 4363 3947 3628 3110 3124 4912 3171 2694 3864 2827 2515 3995 3290 17 34 11 31 7 4 24 21 36 3 29 26 2 27 12 6 22 32 14 22 3 17 29 2 3 5 23 12 15 7 16 9 30 15 32 28 3 22 10 8 8 4 32 11 39 28 20 1 7 20 3 10 25 1 2 20 19 37 26 9 37 30 32 36 23 18 25 24 22 18 7 32 18 14 2 23 2 20 33 37 15 18 11 24 5 9 10 12 13 16 14 38 15 30 24 30 21 36 1 10 32 29 30 34 7 27 34 20 23 39 2 33 3 24 23 8 11 11 19 29 15 16 37 7 24 15 21 38 3 13 39 35 9 38 3 29 22 30 17 37 10 15 29 2 31 8 22 37 7 0 26 27 31 2 15 17 29 19 18 11 3 15 28 29 27 28 15 23 13 10 18 13 14 36 30
4004 3196 3094 3123 4438 4615 4136 17 4387 2666 2736 3889 4858 3379 2515 3850 4627 4791 4413 3027 3969 4642 4498 3367 2593 2958 4210 2740 2958 3904 4496 3362 2929 3919 3826 3822 3977 3532 2540 3438 3969 3861 4414 3524 4470 2579 4172 2606 3639 3181 3436 3280 4015 4286 3726 3869 3814 4538 4366 3296 4729 4398 3172 3481 4828 3278 3961 4270 4552 3832 3038 3230 3579 2910 4258 4809 3379 4126 4139 3916 2974 3451 4943 4755 2878 3528 2931 2663 6 2805 2781 3040 4908 4103 3098 4417 2916 2737 3886 4116 3917 19 2639 3777 2985 3687 3354 4446 2708 2811 4040 4426 4308 2712 4518 4369 4694 2804 4599 2511 3326 4081 2775 3922 4426 4367 4118 2567 2573 3629 4286 3176 4075 3274 2916 3787 3020 3263 4173 4633 4051 2526 4894 2910 3733 3268 4322 3996 4441 3248 3609 2839 3443 3390 3623 4686 4912 4043 4790 2540 4067 4180 3976 3891 4723 10 3827 2527 3905 4293 4953 4788 4313 2794 3135 29 1 20 7 10 6 16 26 37 15 29 8 19 37 32 14 26 24 32 24 22 37 34 8 7 16 13 23 6 29 21 36 38 9 8 38 38 33 37 8 10 9 14 23 30 7 37 21 9 38 36 2 23 19 19 24 31 23 4 21 27 32 17 16 31 20 10 23 32 14 38 10 35 30 35 8 16 35 20 18 30 4 33 31 30 32 36 18 27 14 26 23 17 32 9 15 25 20 10 29 36 20 19 24 33 16 22 3 5 39 39 15 36 2 37 16 13 38 25 11 26 30 5 36 7 26 18 22 19 24 37 16 2 23 36 24 36 22 23 26 23 2 10 1 25 36 13 2 13 17 0 18 1 7 3 19 7 10 7 24 25 2 29 30 26 15 9 14 33 32 9 18 38 21 24
2992 2748 3250 4287 3087 3001 2640 2884 4881 3279 2723 4528 4401 4428 3176 4747 4309 4044 3812 4873 4769 2952 3933 3557 3639 2971 4080 4904 4016 2655 2644 4647 3008 3310 4539 3309 3428 2660 2736 4607 4201 3830 4958 4194 4190 4373 3687 3995 2869 4308 3550 3009 3860 2802 3021 4268 4969 2622 2871 4270 4121 4775 4991 3618 2500 3983 2764 3528 4522 4983 4259 3451 4137 2567 4505 3782 2856 4798 4530 3455 4884 3278 3439 4594 2989 3931 3034 4176 2519 4506 3995 2595 3722 2533 4017 3957 3246 3913 2513 3499 3588 2688 2678 4483 4187 2669 4323 4654 4112 2519 4736 2987 4012 4428 4602 3857 2512 4167 4897 2913 4351 3287 4016 4040 3064 2639 3583 3884 3040 3809 4821 3688 3713 3948 3986 16 3594 2592 3863 4995 4959 3056 16 3877 4444 2612 4025 3371 3929 4870 3123 4936 3889 3145 3009 3703 4632 2533 4590 4132 3792 4373 3944 3686 4976 4691 3752 3563 4487 3166 3315 3079 4361 2889 2670 33 28 16 17 4 22 23 36 16 19 14 21 28 23 36 6 30 7 35 20 30 5 4 31 17 32 35 6 6 36 16 16 24 14 31 32 21 3 7 21 19 1 15 4 31 35 34 28 14 29 15 37 1 14 2 29 16 38 5 26 37 36 27 34 34 15 15 37 26 4 8 28 4 18 2 36 23 25 16 22 11 7 28 16 1 15 35 28 34 39 38 37 14 12 15 3 27 22 32 25 24 23 21 3 17 6 27 24 32 31 31 21 28 33 25 9 24 17 24 32 24 7 32 31 29 30 18 18 16 28 32 11 18 35 21 19 24 37 9 18 20 10 12 2 8 19 1 27 38 32 32 0 19 23 2 18 23 2 4 8 13 35 6 26 29 4 1 4 3 15 34 17 36 2 25
3429 4673 3258 2882 4993 3936 4577 2918 3172 3352 4907 4371 2945 2727 2799 3678 4922 3102 3373 4602 3343 3202 3249 2857 3994 4263 2648 4824 2525 4701 2827 3658 4609 3963 4229 2592 4358 2989 4659 3921 3310 4123 3107 3608 2689 3401 2592 4080 4152 2558 2798 2588 3069 4014 4683 3948 4649 3916 2534 4197 3132 3835 2759 4377 3083 3088 4458 4977 3142 3329 4970 4437 3014 4769 2924 4631 3142 3248 4575 3111 3775 3852 4592 4064 3154 2848 3646 2689 4556 3468 3070 3855 3425 4463 4117 3131 3125 4435 2906 2898 3318 4923 2786 3851 4179 4889 4549 2903 4270 2946 4532 4842 2771 2503 2913 3363 4581 3126 4565 4618 4235 3156 3317 4379 2976 4494 3789 2717 3041 3143 4211 4388 2631 4075 3629 3849 2943 3932 4519 4171 3513 4795 2999 3214 3313 3307 3919 2990 3548 3679 3616 3128 2671 3066 3632 2515 4011 3827 2686 4278 3404 4248 4449 2861 4348 2664 2595 4351 4899 3723 2908 3851 3234 4902 4374 29 4 8 35 12 22 25 11 23 31 28 14 16 28 19 8 11 29 28 35 6 25 18 35 22 15 25 13 1 2 11 16 15 6 12 29 21 25 36 39 31 11 25 17 2 2 2 7 18 27 22 39 22 8 6 13 9 33 20 2 11 21 35 20 28 12 15 4 30 35 14 15 6 31 3 32 28 10 4 38 38 25 26 23 7 27 28 36 14 31 5 16 4 10 7 24 15 22 9 9 19 9 23 29 1 39 27 25 33 4 22 33 1 19 1 10 5 30 8 29 10 39 9 19 17 34 25 22 13 20 26 30 26 32 23 29 13 24 26 13 27 13 20 28 15 28 24 12 9 30 36 19 0 30 34 36 3 34 16 31 8 1 35 11 27 35 38 28 38 15 33 18 33 30 11
4197 3781 3339 4773 2605 3378 4652 3332 2845 4379 3091 3175 2702 3499 4077 3517 3494 4150 3869 4608 3477 4821 3299 4564 4799 4860 3354 4262 2628 3571 3256 4655 2564 4588 3655 3331 4113 4719 3709 3304 4014 3609 4631 4252 3833 2904 3261 3969 4837 4141 4977 15 3074 3566 2695 4596 4085 4911 4370 3451 3520 4336 3145 3556 4996 4967 2621 4799 4444 4319 3862 4851 3589 4673 2917 3658 2915 4912 3141 3537 4083 4476 4212 4569 4310 2863 4647 2514 4655 3332 4231 4644 4007 2741 3031 3872 4029 4947 3032 3608 4645 4981 3118 3887 3494 3552 2957 3375 4192 3960 3373 4721 3043 3263 2565 3086 4073 3437 4497 4153 4001 2624 3222 4300 4984 4696 2798 2868 3150 4554 3239 3914 4415 3973 2740 2988 4224 2914 2629 3024 3296 4878 4783 4856 3061 2559 4547 3560 2793 3117 4944 3390 2788 3026 3082 4827 2564 4185 4884 4313 3860 4164 3028 3669 3449 3910 2765 4133 4858 3825 2772 3257 4645 4337 2628 39 34 34 8 17 13 19 5 30 17 24 4 3 34 23 16 17 32 28 28 15 23 18 4 4 18 27 1 21 16 24 13 34 17 31 1 1 5 4 10 14 28 21 13 7 16 21 38 34 31 6 15 4 17 1 6 15 11 23 36 39 19 32 9 38 5 3 34 22 18 9 19 7 28 22 2 17 7 1 39 12 31 33 22 11 6 37 15 34 21 21 29 25 14 10 19 9 23 36 37 8 34 39 30 14 16 39 21 13 16 37 32 8 7 2 2 10 16 29 15 31 21 22 12 27 21 37 35 32 21 8 26 39 23 35 5 30 21 39 12 37 25 31 7 20 13 35 12 21 13 30 3 22 0 33 24 29 13 37 8 38 15 12 30 4 6 22 21 21 32 26 39 22 4 6
4266 2907 3827 3389 2851 2758 3204 4045 4137 4135 4867 4967 4647 4171 4993 4699 4243 2589 3457 3387 3598 14 3025 3927 4874 4016 3127 2993 3149 3756 3587 3476 3864 4348 2716 3932 3146 4025 3141 3388 4360 3217 3914 2635 4533 3686 3177 4551 3949 2796 4065 4462 4271 4891 3315 4843 4928 3008 3809 4684 4614 4626 3118 4900 4603 2723 4656 2772 4648 3153 3652 2558 2699 3829 3382 2716 3414 3329 4561 2614 2705 3894 3678 2677 2864 4301 4772 4963 3313 4713 2754 2573 4402 2800 4964 4227 2873 3086 4243 4119 2932 4743 3546 3588 3726 2572 4115 3966 4021 4324 4541 3011 3644 3667 4253 2650 3401 4144 2571 2711 4302 2733 3859 3863 4179 4191 4669 3488 4193 4761 3703 4230 3169 3186 4923 2525 3299 4597 3123 3650 3502 2754 3198 3572 3423 4535 3422 4711 2692 4278 4509 2967 3353 2756 3615 4115 2675 4714 4574 3871 3228 3678 2618 3657 4518 2727 3009 4732 4700 4780 4667 3720 4714 3381 2749 1 14 5 29 15 3 24 7 28 24 27 31 37 10 38 29 8 29 8 14 2 14 27 15 10 32 21 33 7 23 1 19 25 31 36 24 30 27 1 9 17 11 26 36 25 3 13 9 34 13 38 32 4 17 21 9 8 20 7 15 38 19 8 35 13 30 32 28 30 39 29 7 2 10 21 25 35 11 26 7 12 22 28 9 16 32 4 26 2 13 10 33 4 20 6 2 13 17 37 13 13 1 10 8 14 3 32 36 11 26 35 26 5 25 17 36 4 19 12 35 24 36 6 1 13 38 13 24 24 6 33 13 34 30 28 5 5 6 13 2 19 18 27 25 6 35 10 12 2 25 29 5 38 19 0 25 38 12 5 17 32 36 38 30 9 11 29 19 19 25 21 13 7 10 38
3988 3421 3378 3882 2883 4833 3153 3499 2960 3550 3367 4847 4571 4155 3177 4916 3948 4830 4353 4299 3869 4028 4530 3881 4537 4824 3752 3053 4151 4860 3899 4468 4974 3628 4373 2609 4840 2728 2730 4218 3748 2641 4245 2701 4215 4584 3071 2886 3981 2794 3982 3800 3334 4892 3555 8 4927 2703 3884 2996 4666 3196 3788 4601 3993 2791 4921 4219 3208 3326 3234 4297 2539 2853 3801 3253 3352 3745 4024 4403 3933 2745 4273 3362 3472 3949 4568 3724 2766 3105 3930 3590 3454 2934 3890 4374 4621 4464 2919 4242 4766 3783 3087 3699 3149 4900 4351 2885 4092 4211 4251 4240 3764 4154 3002 3092 4370 4127 2535 2645 4102 3551 4308 2994 3279 4925 3503 3095 2770 3889 3287 3099 15 3239 4566 3773 4456 4538 4037 3979 4947 4538 4566 3631 2804 3791 4322 3084 2979 3777 4185 4036 3584 4869 3376 4496 3811 4448 3302 2582 4064 2883 4508 4738 3680 3574 2557 4323 3692 4456 2791 3998 4640 2733 2965 23 17 38 34 23 9 26 17 15 21 1 13 28 23 25 17 33 27 39 6 29 31 16 3 28 11 21 15 32 31 35 20 35 27 12 28 34 21 15 25 18 16 28 29 29 1 32 18 30 37 27 9 25 2 14 35 31 6 24 17 24 5 7 37 37 4 14 37 12 19 28 9 17 14 24 38 29 34 17 26 4 14 6 35 13 19 3 6 25 34 10 16 39 3 20 13 33 31 1 38 36 13 29 21 8 28 11 28 37 19 11 26 5 27 31 15 13 3 38 27 2 5 21 17 19 1 12 37 23 3 33 30 13 8 29 1 29 6 1 15 31 38 18 22 19 20 34 29 33 3 11 36 9 27 14 0 29 5 3 9 10 25 33 19 8 32 37 18 1 20 9 16 25 18 12
2662 2528 3935 3461 3442 4523 3117 3375 3159 4315 3864 4820 3014 4197 3820 2620 4941 3633 2557 3543 2679 2606 4065 4010 3709 4094 3276 4745 2635 3727 4899 2914 4172 2893 3564 2916 3262 3338 3707 3207 2646 3203 3682 3234 4904 3322 3916 4827 4144 3240 3096 2648 2688 2537 3886 2503 3351 2943 4155 4543 2647 3651 3613 3884 3774 3362 4834 2921 4635 2751 2879 4383 4916 3684 4401 3485 4983 2847 2663 3406 3796 2761 3922 3846 4685 3612 4149 2930 3609 3436 3515 3173 2712 3859 4491 3873 3984 4777 6 3694 2921 4482 3412 4516 2937 4195 4939 3376 3901 3855 3531 3294 4672 3722 3540 4630 4736 4821 2687 3071 3378 2921 2976 3740 3585 4713 4230 4612 4115 3545 4507 4823 2835 4437 2636 3018 4168 3695 2871 3954 3257 3334 3032 3498 3422 4014 3501 2866 2958 3954 2708 4828 4192 4139 4275 4028 4677 4577 3684 4464 4122 3657 3118 4590 2755 2653 3230 4971 4038 4010 2700 2628 3880 4810 3171 7 5 18 37 27 5 32 2 15 2 39 21 20 23 28 4 26 8 37 35 39 4 39 30 37 9 23 26 21 17 33 38 34 25 11 24 12 17 20 11 23 4 34 11 35 32 4 19 2 32 21 33 33 20 32 19 17 19 13 12 6 21 4 5 27 35 39 24 31 24 28 18 14 24 36 5 14 24 5 6 33 37 35 16 16 36 34 36 39 27 10 33 15 8 26 35 8 36 7 23 7 16 37 38 20 29 20 9 23 30 6 29 11 12 35 39 34 27 11 4 13 19 4 5 27 15 20 3 22 28 14 5 12 25 29 27 4 5 29 14 38 18 5 26 7 30 4 16 26 39 1 36 38 7 7 15 0 38 22 6 38 24 35 19 33 29 31 6 16 3 7 36 26 22 8
3665 4231 4125 4636 2996 4663 4891 2585 3707 4862 4508 2669 3512 3591 4059 4597 2688 4837 3482 3611 3209 4815 3722 4798 2855 3081 4628 4062 3369 3332 3116 2944 4392 4791 3768 2515 2521 4123 3649 3443 3749 4454 2932 2708 4762 2865 4859 3489 2761 3216 3857 4614 3111 4388 3998 2611 4812 3250 2897 4121 4316 4094 2669 3212 3174 4744 4414 2667 4086 4791 4884 4766 4556 4231 2582 4846 4587 3406 2639 4379 2804 4086 3834 4179 2720 4570 4213 4141 3952 4207 4405 4624 2858 2971 4393 3461 3463 3833 4450 3289 4909 3059 4006 4086 3864 4238 2806 3398 2974 3465 3436 4873 3741 2622 2612 3412 3385 4486 4439 4310 4497 3242 4425 3188 3975 2919 3690 3085 4399 4103 4377 4195 2897 2692 4466 3371 2512 4419 3206 3577 2632 3085 3611 4148 4700 3184 4954 2510 3467 2954 3907 3274 4669 3275 3461 3257 2865 3964 3388 2576 4547 2781 4637 3828 3780 3791 4279 2738 3216 4198 3731 2769 4895 4777 3013 5 34 8 25 35 37 38 4 2 10 36 12 19 27 13 5 32 18 39 26 7 17 20 36 4 20 33 3 18 27 32 31 31 1 11 18 4 16 8 3 25 24 21 9 29 14 21 24 17 26 33 36 28 3 26 39 24 34 15 36 7 2 6 33 22 15 21 35 30 25 13 34 26 5 35 32 22 13 6 34 10 17 20 13 31 32 27 2 35 32 26 32 6 31 23 11 25 35 13 34 15 18 19 39 25 37 24 17 26 30 16 4 38 14 9 34 19 21 1 9 18 10 25 35 8 18 1 35 7 26 14 36 4 21 33 9 3 28 24 8 34 8 10 36 36 11 36 6 39 33 13 1 1 39 16 29 11 0 2 11 15 25 23 35 23 36 16 6 12 18 19 15 15 21 26
4800 3713 3732 2640 4287 4539 3056 3031 2851 3914 4442 4187 3885 2860 4006 3127 4229 3190 3623 3736 4549 3854 2767 3381 3398 3575 3380 3984 4680 3023 2955 3943 3308 4434 3920 3027 3873 4713 3502 4820 2768 4401 2798 3523 2879 4302 3307 2997 3364 4119 3367 2989 4019 4347 4269 3241 2905 4439 4972 3592 2621 3865 3890 4521 2835 4910 3930 4223 2505 3219 4516 3348 3001 4477 4206 3928 2840 3586 3810 4214 3575 4406 2609 4363 4345 2792 2659 3712 4868 4735 3611 2576 3630 3934 4806 4261 4331 3246 3764 4645 4962 3814 8 4000 3441 2795 4932 4776 3820 3779 3217 3267 3589 4916 4136 4695 3005 4250 2588 4062 4947 3663 3278 4976 4183 3801 3973 4057 3345 4525 3053 4906 3232 4964 3600 3104 3860 4295 2783 4151 2504 2732 3851 4247 4396 4428 4432 4937 3882 3391 3547 3631 4365 3627 4492 4689 2599 2990 3922 4990 3144 3018 2746 3608 4815 3001 4747 4175 4478 3405 4973 4461 2541 3579 3904 14 19 38 39 10 8 37 16 10 17 35 37 15 24 2 5 15 35 36 36 12 26 4 39 5 39 27 7 11 6 23 5 5 18 8 22 30 21 31 17 8 27 33 24 34 34 14 15 19 6 30 9 34 35 10 21 38 3 19 23 39 31 6 32 25 38 5 33 20 24 35 22 3 4 18 8 20 9 31 4 26 33 37 36 32 32 29 26 20 17 32 36 19 23 24 7 9 25 28 29 34 34 8 27 9 27 33 20 30 22 28 5 8 3 11 29 25 32 16 7 39 16 36 16 4 7 32 31 39 39 22 9 25 12 6 38 28 28 39 30 32 10 2 4 19 16 22 8 5 39 7 39 2 33 20 8 30 25 0 28 18 15 8 8 34 20 17 36 11 25 11 7 17 36 7
2652 3179 2884 3489 2798 3710 2896 4279 3245 3392 4062 4986 4807 3459 2542 3535 2854 4533 3468 4252 4744 3544 2789 4549 4355 3476 4711 2947 4392 4127 4400 4891 3084 3484 3748 3617 3654 4712 4008 3840 3550 4632 2517 3414 3505 4980 4744 4454 3470 4860 4309 2754 3328 4501 4200 4909 4336 4753 2512 3619 2885 4428 3369 4692 3854 2935 3700 3035 2511 3114 4774 4143 2594 4193 3729 3907 3327 3277 3104 4803 3026 4022 3970 3602 3416 4382 4707 3211 3307 4286 3937 2927 2938 3747 4557 3342 4687 3207 2695 3654 3630 4464 2839 3793 4104 4462 4021 4569 4837 3914 2833 4294 3914 3977 4490 4496 2904 2814 4660 4164 4293 4865 2919 2725 3983 3712 3078 3945 2832 4803 3288 2962 4562 3429 3955 3144 3603 3295 4679 4864 4087 4715 4896 4085 3665 4496 3059 3553 2697 3649 4318 4489 3693 4090 4523 4863 2725 4921 4414 3119 3806 3391 4102 3754 3682 3621 4094 3088 16 2892 3263 4800 4576 4036 4672 26 23 9 28 8 31 1 6 37 17 8 27 24 5 38 34 19 13 2 9 12 39 28 32 2 1 35 21 5 37 15 13 3 19 11 26 36 4 27 35 17 6 19 18 1 14 6 33 32 4 39 34 39 17 32 25 28 27 21 2 15 11 20 12 4 1 24 15 19 3 13 37 39 28 21 9 31 7 37 5 37 38 22 13 35 24 34 4 38 26 10 31 14 36 14 18 7 5 24 30 13 7 13 32 11 25 36 22 35 5 23 11 30 31 35 14 3 16 20 6 20 1 29 36 16 2 28 28 36 29 2 23 34 6 27 24 5 24 3 4 11 37 19 22 20 14 32 5 3 14 16 2 10 39 31 27 36 12 16 0 11 36 38 3 5 26 11 16 3 9 39 18 39 34 9
4495 3885 2946 2805 4953 4302 4339 3549 2750 2597 3916 4882 3767 3192 3187 3370 3605 4338 3150 4762 2629 3522 3429 3894 2530 4649 2735 2840 2562 4108 3723 3867 3907 4812 4321 4801 2900 3081 4302 3200 4644 4343 2732 2713 2699 4771 4458 3041 4747 4134 4449 3977 2595 4634 2907 3962 4120 2616 4904 3813 3748 2656 3043 2993 3435 2910 4305 4218 4960 3171 3747 2651 4967 4372 4864 4465 3136 3671 4627 3774 4096 3735 3619 2718 4446 2895 4309 4007 4665 17 2826 4277 3758 2818 4322 4398 4043 3005 3967 4252 3607 4257 4471 3049 4317 3563 3286 2853 4452 4497 4391 3665 2579 4847 2661 4477 4095 3606 3397 3224 3890 4357 2594 2758 4629 3795 3364 3529 3996 3888 4918 3892 3276 3470 4013 3581 3844 2774 4323 4552 2922 2655 4321 2611 3562 2801 4984 4559 2863 4666 3802 2593 4493 3389 4763 4162 2752 2536 4617 3311 3947 3374 3444 3145 4002 2865 4919 3381 3694 3901 4702 2660 2552 4070 3412 27 18 37 28 37 39 2 14 28 16 24 33 33 26 7 7 24 25 1 7 5 10 39 5 29 7 38 24 39 2 5 38 24 37 25 6 27 39 20 21 15 37 10 22 14 5 30 14 10 21 14 28 11 27 17 16 26 21 7 12 6 26 32 1 39 26 6 29 32 26 27 6 3 14 19 31 3 2 37 2 25 11 13 32 36 32 9 15 37 16 2 19 11 27 21 9 30 36 33 36 19 30 37 20 35 34 19 4 28 14 20 26 27 24 12 15 36 33 15 29 36 2 7 16 6 7 9 30 36 9 9 25 1 18 15 9 7 7 37 22 8 33 9 12 7 32 11 1 31 4 3 31 33 6 5 37 24 30 39 28 0 16 23 19 11 19 8 18 2 12 14 3 21 36 17
4980 2892 3772 3728 4717 4030 3180 3377 3187 4523 3814 2786 3427 4344 3524 4325 2779 3757 3094 2952 3981 4804 3216 2553 4588 4247 2867 4961 3495 4514 3416 4250 4157 3078 4152 3670 2816 4264 4637 3104 4300 4426 4423 3276 3218 3204 19 4753 3965 4931 2544 2802 4662 4287 3586 3462 2936 3750 2911 3658 3719 4438 3127 4926 3507 3516 4189 3851 3597 4337 4592 3225 2905 3080 2606 3086 3515 3101 3803 3797 4696 4938 3213 4801 2720 4175 2575 4434 3628 4836 4003 3531 4463 3316 4879 4385 4625 4820 3128 2713 4916 3861 3438 3343 3437 3019 2667 4868 4386 4938 3361 2503 2964 3931 4601 3329 3416 3993 4759 3050 4175 2821 3459 2677 4027 4057 4205 3682 4684 4908 3241 3690 2953 4452 4633 4258 3774 8 3942 4821 4595 4076 4804 4900 4094 3307 4895 4909 3219 4146 4616 3345 2522 2917 4765 4080 3849 4032 4907 3837 4297 2611 3849 3293 2800 3647 4484 4999 4701 4962 4390 3957 3514 3385 4713 3 12 21 19 23 10 30 4 8 28 24 27 11 10 34 13 5 33 28 2 14 16 30 25 28 14 39 30 32 19 30 18 38 18 11 8 26 32 23 4 11 15 31 14 15 18 8 38 13 24 9 9 20 31 39 5 31 4 24 17 3 37 24 38 29 13 17 10 20 33 12 26 21 32 24 10 31 32 22 3 5 1 11 30 19 15 4 34 35 39 24 13 10 27 8 16 27 38 3 36 9 1 12 35 10 27 28 37 27 26 29 24 29 39 26 20 10 38 29 8 17 39 19 39 18 2 16 34 3 35 9 26 31 22 9 12 8 39 21 5 20 30 26 30 6 21 35 8 35 16 17 19 27 33 32 34 34 30 21 12 27 0 37 39 28 18 36 5 31 14 24 35 30 15 22
3659 2964 4965 3362 4546 2527 4135 4020 4645 3889 3789 3579 3793 2753 4399 2969 4328 3632 3171 2982 4897 4741 3514 3361 3687 2593 4788 4830 3862 3977 4079 4314 3474 3381 2782 3756 4700 4356 2911 2593 3340 2560 4515 4738 3885 3390 4329 3952 4815 3415 3199 3206 2738 3008 4590 2895 4503 4970 2906 3264 2535 3441 2843 3444 4724 3568 4149 3752 3779 2821 2923 3638 4623 4253 3525 2543 3024 4429 4460 4784 4817 3873 4348 3331 3164 2888 4687 3961 4284 4875 3938 2791 3314 4303 2575 2870 2649 3030 2877 4268 3691 4602 3009 4534 2842 4103 3178 4642 3548 2747 4153 2929 4923 3596 2730 2658 3858 2897 4825 4859 4064 2716 4472 4000 3120 3714 4517 3897 4610 3205 4653 3099 4553 3619 4851 3368 4064 4060 4737 3949 2861 4738 3821 4860 2624 4443 2784 4279 3569 3238 4025 3727 3723 3851 3781 4327 4613 2590 4111 4897 4762 4958 4179 4668 2821 3361 2530 4154 2518 3396 3673 4283 4803 3522 4922 27 11 26 32 35 23 35 1 37 2 13 30 11 22 27 30 20 9 4 22 3 35 33 9 31 28 5 23 3 9 8 21 32 35 16 2 29 38 33 17 33 18 23 25 23 39 4 18 3 32 13 6 9 9 14 18 34 30 7 7 24 1 17 13 4 1 1 16 30 39 29 39 26 10 4 8 9 7 11 12 39 26 38 22 22 4 35 6 38 11 25 22 32 32 27 33 18 16 15 3 7 21 8 37 8 39 14 32 17 18 35 9 34 9 33 3 13 4 26 2 29 16 34 12 34 5 1 16 32 35 12 18 23 37 38 3 30 36 6 21 10 13 33 17 33 32 23 37 32 39 9 2 15 15 27 3 18 23 34 13 1 14 0 31 1 35 5 4 23 15 26 10 2 25 19
4292 3277 3790 4072 4725 3999 3869 2642 3426 2886 2917 3075 4803 4055 4615 2688 4138 3806 4929 3536 4815 3452 3967 4801 3678 2971 3389 4876 3720 4954 3692 3251 3242 2701 4694 2723 4256 4868 4760 4961 4407 3768 4455 2977 3724 3591 2670 4194 4899 4247 2774 2674 2733 3964 3131 4135 2975 3038 3631 4879 3251 4528 3000 4046 2516 3237 3869 3769 2580 2762 4025 2724 4557 3187 3511 3945 3458 3252 2570 4142 4238 4852 4773 4351 4394 4498 4692 2793 11 4626 4872 2858 2750 4291 3240 3675 4531 3139 3631 2984 4886 3645 3972 2744 3092 2930 2995 3938 4684 3787 3284 3541 3887 3354 4439 3934 3266 4638 3725 3493 3254 3987 4794 2721 3017 3632 4820 3670 3569 2581 3788 3200 3630 4051 4310 4406 3833 4575 4011 3185 2734 3615 3819 3961 4015 3904 3996 3662 3412 2612 2976 3227 3866 3152 4865 3781 4328 2913 4894 2651 4210 4781 2927 3595 4221 3064 4591 3515 4453 4255 3797 3171 3131 3168 3381 31 29 16 3 31 20 12 6 5 37 24 4 2 37 20 29 30 6 5 18 38 29 16 6 35 20 15 5 26 22 11 8 14 31 30 8 3 9 30 23 13 36 8 28 37 34 21 15 9 23 35 32 15 7 18 22 38 34 36 9 29 7 38 36 1 26 22 11 26 22 26 34 23 18 21 23 31 12 21 16 2 5 10 1 20 9 1 7 25 10 4 29 13 28 17 1 13 33 18 24 38 36 32 35 19 30 35 7 14 13 33 5 25 32 39 30 12 34 11 15 37 19 19 13 7 5 34 16 14 23 18 24 11 36 35 4 29 3 27 37 38 29 16 26 13 16 24 38 8 19 26 31 39 12 14 21 38 11 36 2 12 21 11 0 15 16 34 25 12 10 24 14 37 16 33
2892 4572 4305 4635 4715 3270 3661 4019 3662 4325 3952 3124 2665 3660 4693 3475 4925 4732 4037 4875 3794 2983 2503 3063 4265 3200 3800 3515 4818 4138 3280 2667 3967 3437 4870 2717 4747 2964 4762 4401 3983 2877 4065 3063 2942 2582 3141 2913 4556 4042 4222 4400 3344 3468 3197 4429 3682 3141 2735 4057 2655 4299 3197 4282 4218 3802 4165 4459 2882 4301 2517 2759 4394 4844 2746 4715 2646 4611 4896 2880 4468 2815 3935 4830 4608 4606 4351 3948 2667 2543 4407 4084 2661 4781 3820 3628 4916 4971 4328 3700 4075 4097 3485 3627 3720 2749 4136 4965 3718 4581 4046 2918 4265 3289 4411 4143 3421 3421 4812 4333 4111 3257 3060 4289 3897 3194 2580 2897 4203 3435 3384 3547 3487 4031 3632 3148 3226 4995 3532 3244 4951 4073 3906 4582 3563 4898 2704 4818 4317 4012 4947 4132 4439 3902 4016 4636 4975 3329 3180 3368 3125 4637 4026 3216 3161 2771 4270 3356 2788 4139 2652 4371 2832 3273 4177 37 15 15 17 16 30 12 24 39 31 6 30 26 35 30 17 5 24 26 39 34 36 26 19 24 14 38 30 35 29 13 2 1 2 4 13 20 36 21 30 5 3 31 15 28 24 23 36 5 32 21 3 37 2 32 8 33 31 39 12 34 27 35 22 18 4 12 19 34 35 38 20 8 23 13 16 8 12 14 35 22 17 3 22 21 28 10 38 6 31 39 2 26 11 28 3 21 5 16 29 29 14 8 17 35 4 32 36 13 36 39 8 7 21 26 28 36 23 31 21 12 38 1 10 35 19 32 5 28 13 10 33 5 14 26 38 13 3 25 29 4 27 3 3 19 8 7 17 16 7 21 4 23 27 17 17 12 25 7 39 30 18 11 1 0 25 17 6 31 23 19 2 6 20 4
3268 3523 4662 4218 2721 3176 3844 3876 4210 2637 4033 3554 2716 2689 3553 4068 2817 2886 2655 4067 3299 4458 4561 3802 2963 4647 3701 3400 3353 3827 4347 2522 3510 3425 4512 4410 2783 2722 4614 2832 2955 3863 4063 4492 2849 4043 4384 4885 4208 4039 3036 4316 2927 3319 4594 4381 3000 4554 4154 2884 3198 4446 4020 3476 2767 3511 3739 4671 4093 4555 2790 2592 3676 4372 3310 4583 2848 3241 4476 4477 2726 4854 3218 4682 4002 3697 4235 4952 4351 4593 3593 3093 3906 3056 4099 4530 3936 4626 2850 3194 3602 4865 3997 4951 2874 2700 4799 3063 4531 3565 3010 3803 3461 4383 3213 4985 3590 2649 3148 4659 3632 4148 3523 2762 8 2883 3177 3912 4391 4190 3357 3240 4279 4824 4458 3235 4991 3274 3377 2882 4354 4430 3376 2933 4934 4899 4915 3302 4914 9 4128 4140 4017 4299 2774 2961 4108 2695 3587 2837 3148 4972 3590 3063 3464 3007 3048 2928 4742 2913 4810 4226 3998 2685 3919 31 6 21 36 16 3 27 21 28 38 5 17 36 20 30 32 20 27 22 28 21 27 6 10 4 30 29 11 24 29 14 32 28 4 1 15 6 2 7 30 10 30 22 20 12 29 36 36 28 36 35 15 12 25 26 30 38 27 27 33 21 30 35 7 19 13 24 14 13 5 17 15 39 12 8 2 21 28 14 2 24 8 39 35 26 25 15 36 6 27 16 23 35 3 31 16 27 33 9 15 7 20 23 20 26 18 1 31 21 9 10 9 36 17 38 1 32 15 14 18 34 10 38 21 5 17 3 21 4 33 35 13 5 27 18 6 29 4 12 28 8 38 1 17 4 28 23 27 25 27 21 24 31 9 1 26 6 2 8 26 5 16 25 25 36 0 6 34 28 15 10 35 30 19 39
4307 2748 2834 3888 2746 3054 3550 3600 3242 3795 4390 3847 4137 4011 4937 3776 4264 4332 4639 2947 3157 4520 3050 4548 4835 3820 4453 4588 3004 4175 4786 4561 4869 4002 4365 4339 3702 3630 2759 2891 3889 2640 2828 4170 3466 4536 2639 3461 4954 3195 3198 4163 4467 4672 4585 4362 3120 4580 3524 2961 3233 3149 2613 4759 4230 3030 2855 4148 3584 3005 3072 2713 3900 2839 3632 4081 3537 3819 2716 3167 3372 3857 4373 3606 4480 4139 4892 3853 3866 4375 3313 3753 2695 3990 4236 4079 4255 4156 2942 2814 3202 4688 4285 2536 4941 4710 4504 3543 4616 3949 3658 4305 3853 4156 3571 4619 3836 4262 2980 3778 4291 3563 3315 2652 4405 2894 2571 3824 2819 2978 3641 2619 2665 2810 2922 4631 4156 4828 2834 4445 3775 4669 4520 3731 4167 2903 4521 4858 3456 4030 3958 2758 2892 4789 3220 4208 3560 4682 3474 2711 4213 4767 4739 4214 3239 4288 3551 4062 4843 3035 4205 4619 4114 3955 2557 13 29 36 27 38 27 24 29 5 10 35 22 22 2 19 26 21 1 4 28 7 12 26 24 31 11 2 25 20 35 22 22 19 18 9 1 28 34 17 19 28 38 31 29 29 12 36 3 1 11 38 11 9 20 4 7 34 12 7 12 4 30 31 31 6 10 4 12 12 24 31 27 15 7 26 31 25 29 3 9 17 38 17 33 19 39 4 7 34 36 31 34 11 3 7 38 29 32 18 18 37 19 29 10 27 39 12 20 10 10 23 28 1 12 31 11 11 32 26 8 35 37 35 1 5 20 19 11 33 33 3 35 7 39 12 1 28 2 17 23 8 18 22 12 24 19 21 10 5 17 23 27 33 32 28 7 32 20 24 9 6 5 36 27 3 5 0 29 8 6 17 30 30 20 19
4826 3707 4426 4089 4327 4796 4365 4946 4793 4443 3061 4973 3276 2878 2646 4796 3388 3344 2504 4920 3932 4035 4953 4590 4831 4089 2670 4728 4663 3380 2656 4468 4552 3878 3995 4520 4302 4293 3020 2878 2881 4682 3562 3680 3047 4818 3200 2852 3955 4748 2897 3161 3389 3051 2567 3103 4610 3952 4592 4436 2868 4258 3122 4225 3901 4592 4577 4827 3081 3357 2561 4799 2554 4154 3928 2969 3360 4771 2753 4546 3499 3552 4289 9 3372 4138 3763 3171 4959 3607 2728 3099 3011 2955 6 4208 4552 4144 2980 3888 3513 2861 2801 4162 2579 4229 4831 4560 4170 3625 3428 3507 3387 2749 3775 4139 2886 2798 4341 3385 3219 3745 3527 4301 4341 2525 2582 2616 2661 3744 4717 3932 4498 2927 4030 4639 3248 4091 3181 3278 3907 3512 4317 4022 3995 2990 3087 3580 3750 2861 3387 4853 2610 3916 2963 3900 3243 3990 3247 3647 3648 3818 2602 2509 4098 3850 4696 2502 3485 3589 3608 2784 4992 4410 3920 13 12 22 20 8 30 17 23 26 22 7 13 33 11 29 12 27 25 21 11 7 23 39 14 16 3 35 11 2 6 33 24 13 38 9 11 19 2 30 14 27 24 39 7 3 37 5 31 16 20 2 31 35 26 18 2 31 26 38 2 1 14 31 24 3 1 17 4 10 32 29 1 30 33 4 23 33 39 7 17 4 20 23 4 25 32 3 1 37 18 36 22 22 2 15 19 30 37 23 31 2 8 34 33 4 12 10 26 22 2 4 29 5 5 24 36 24 34 21 27 3 38 24 28 35 27 11 2 12 1 10 39 2 8 9 13 21 38 3 15 37 26 39 15 11 34 34 19 36 22 26 26 16 36 31 25 26 13 15 1 15 24 27 2 9 38 35 0 19 37 9 10 16 15 34
4818 4916 4774 2972 2977 3608 4939 4319 3903 4368 4737 2581 4715 4246 4205 3038 4964 4396 4736 3495 4025 2930 2608 3088 2811 4242 2761 4791 4012 3566 3043 3300 3738 4759 2653 3794 3629 4668 2884 3668 3464 3871 2744 3203 3244 3328 4917 3627 4377 3452 2666 2889 3702 4510 4732 3096 4271 3566 2976 2787 4645 4258 4457 4767 3902 2565 2890 2761 4224 2760 3049 4636 3923 2964 2957 4254 3501 2946 4999 4434 4161 3781 4845 4857 2956 3385 3089 4439 3831 4588 4251 3790 3359 3273 3238 3974 3068 4012 4016 3155 4670 4798 3357 4654 3187 3009 3686 3827 4949 2853 4125 2792 4154 4958 4065 3306 4158 2683 4107 4126 3095 3014 3187 4741 4593 4150 2756 4825 4849 3748 2790 4106 3015 4986 2739 2762 3796 3609 3774 3154 4419 3727 3566 2709 2865 3331 4253 4794 11 2744 4612 2777 3509 3255 2998 3714 4110 4335 2866 3629 3914 3516 2898 3298 3904 4699 4741 4545 4768 3281 3995 3989 4939 3736 2597 24 6 10 14 32 15 27 30 35 27 3 31 4 28 4 5 7 14 11 10 29 12 11 36 7 17 22 4 17 37 3 24 24 32 6 32 18 10 2 8 21 23 18 14 26 33 2 15 18 2 2 32 16 7 5 24 25 16 21 14 37 4 28 13 7 31 34 32 18 3 6 32 22 38 4 29 19 22 4 9 12 31 19 26 7 33 3 22 29 23 8 14 37 28 5 26 2 29 27 22 3 28 3 8 24 22 18 33 36 19 22 22 17 22 30 39 27 16 37 18 10 9 20 21 23 39 9 30 25 36 35 19 14 35 18 21 20 28 39 26 38 14 30 19 19 17 13 15 39 38 5 33 8 22 28 32 14 23 4 33 9 39 35 9 20 5 4 33 0 19 36 36 28 17 4
4145 4803 2835 2745 3688 4852 4576 4432 3622 4978 4747 3394 3847 3436 4722 3810 3887 4335 4273 4052 4063 2726 4011 4751 2734 4495 2979 4437 3238 4436 3226 3738 2804 3449 2538 2933 3231 4578 4609 3886 3631 2699 2667 2928 4431 4059 4519 2824 2505 3039 3423 2820 3443 4643 3998 4386 3306 3669 3576 2906 3998 3213 3639 3268 3692 3556 4598 3060 2992 3394 3483 2804 3980 4387 4362 3153 2786 4511 3770 2599 3479 4071 3645 3889 2931 4508 4636 4208 3077 4829 3688 3465 4298 4756 2781 4280 4679 4240 2727 4359 3956 3744 4509 2769 4594 4701 2663 4603 2648 2584 2742 3924 2672 2754 3752 4478 3260 4561 2893 2806 4655 3846 3689 4183 2827 3288 4979 3569 2695 3965 3149 4764 4784 4121 4894 3629 3110 3035 3647 3195 4889 4203 4005 3297 4114 4757 4688 3247 4537 3427 4164 2882 4090 4656 2956 2900 4016 2848 3393 2609 3588 2612 2773 4316 4766 3287 2656 4634 3171 4242 4381 3119 4498 2540 3585 2 25 35 21 33 33 31 27 8 13 23 3 8 15 37 34 23 18 25 15 11 12 31 2 13 15 10 30 35 6 17 23 36 22 13 5 13 8 26 4 5 27 9 36 19 16 28 16 27 2 19 29 31 27 26 11 14 14 38 29 27 33 28 35 39 1 2 20 6 27 19 18 35 13 25 31 27 31 10 21 18 38 33 24 20 10 6 11 15 7 27 16 27 5 3 7 9 30 15 6 18 10 2 1 5 32 25 1 11 24 7 10 1 3 5 34 33 18 32 11 6 21 14 13 3 23 13 14 35 31 38 33 17 2 6 11 35 19 30 5 25 2 36 6 24 33 39 10 34 38 29 34 8 25 39 25 8 6 12 1 21 35 8 33 8 35 33 31 25 0 34 6 9 38 23
3447 4105 4047 4567 4040 3097 2946 2813 4725 4063 2514 4539 4326 4849 4781 3007 3452 3723 3860 3134 3815 3426 4933 4419 3321 2994 4246 4820 4042 3613 4157 4391 4259 4857 3416 4646 2752 4238 3985 4425 3754 4086 3807 4705 3063 3015 2822 3705 4012 4751 3619 2513 2542 4239 2638 2969 4333 4982 4994 3904 3791 4272 4474 3960 4903 4760 4736 2587 3983 2541 3607 3983 2626 4239 4042 2505 4188 4306 4468 4239 3288 4466 3558 9 3068 3815 2811 4969 4696 4054 4570 2507 4450 3453 4055 4927 2983 4605 4533 2621 4026 4810 4379 4883 2968 4940 3375 3731 4669 4775 2529 2829 2768 2878 4289 2818 4122 4827 3015 2942 4495 3541 3294 3388 4087 3748 2769 2546 4112 3363 4603 3764 4984 4145 2512 3685 4536 4499 3793 3622 3915 3941 3306 3815 3624 3186 4764 2620 4693 3248 2692 2964 3105 3544 3748 4107 3661 4925 3687 2711 2521 12 4141 3499 4468 4287 3283 4921 4767 4359 4691 2650 3318 3443 4579 36 14 12 34 4 8 27 10 9 17 34 38 26 26 13 7 21 24 28 33 33 8 24 15 33 34 16 27 14 38 23 10 28 33 22 36 9 34 14 18 5 19 31 18 2 15 11 36 27 6 9 34 17 36 25 31 38 11 35 12 30 11 25 29 31 3 29 28 23 29 39 33 10 14 11 33 17 22 15 6 2 23 5 8 37 29 27 34 19 16 13 5 28 23 25 5 33 20 21 6 21 29 33 3 13 19 5 23 8 2 36 7 11 30 23 23 37 28 36 22 39 22 25 17 15 11 3 22 2 38 28 20 11 2 16 31 5 30 20 33 18 7 29 3 31 33 11 11 17 25 19 26 15 38 36 14 20 27 28 3 27 22 39 37 29 8 39 37 9 11 0 5 38 32 4
3054 2503 2857 4586 2598 4492 2567 4193 2769 4389 2940 2633 4023 4985 3239 4904 4367 3071 4618 3124 2943 3829 4030 4742 3983 3731 3697 2571 2608 4314 3255 2771 3519 3642 3463 3308 3081 2948 3671 3631 3257 4611 2875 3453 2521 2909 3189 3379 4549 3295 2806 2662 16 4403 3827 4406 3696 2726 4159 4995 4144 4223 3092 3896 3062 4871 4659 3272 3557 3672 3474 3017 3447 4999 2982 3305 4542 4880 4157 3974 4984 4088 2548 4244 4394 4541 4252 4587 4142 2653 3342 4446 4645 3855 3361 3263 2947 3253 4520 3311 4842 3871 4488 4934 3904 4984 4738 2925 3745 4144 3623 3049 3004 4332 4421 4210 4363 4329 4922 4096 2771 3364 3764 4698 3880 19 4139 3405 2863 3302 4428 2923 4481 4200 3868 4926 3182 3403 4904 2894 4638 4999 4168 2816 4985 4513 3988 4065 2880 4626 4774 2897 4888 4475 2971 4609 2662 4792 4476 4745 3156 4544 3458 2563 2797 4401 3716 3418 3138 2676 4623 2631 2874 4665 3400 20 23 23 34 6 13 35 38 26 16 34 11 28 14 13 9 14 28 26 1 14 18 17 21 28 20 12 11 9 26 1 24 33 13 7 13 19 20 23 19 31 37 6 22 7 39 36 31 32 17 29 21 10 31 11 8 32 13 18 25 2 31 31 27 5 11 28 29 22 19 34 16 3 22 1 2 26 35 12 14 31 13 17 35 19 8 36 13 20 14 20 26 33 12 31 6 35 32 8 37 12 31 38 10 29 30 15 25 8 22 3 31 29 22 32 24 8 27 39 2 2 12 18 34 32 25 37 18 20 19 26 5 35 9 27 15 24 14 3 9 31 19 37 11 4 37 23 22 17 26 5 33 29 30 30 19 21 14 23 6 36 4 25 3 36 1 23 16 8 31 10 0 6 8 20
2618 4165 4858 3474 2872 4019 4172 4728 3354 3858 2761 3518 4570 3048 4425 2683 3589 3980 3527 2612 2509 4837 3832 2987 2891 4411 4776 2880 2585 3641 4216 4084 3250 4001 4646 3270 4946 3363 3156 4382 3808 3115 2614 4018 3822 4437 2931 3305 4398 4855 4848 2699 4661 3323 4011 2952 2551 3135 4743 2629 4714 3287 3587 3722 4312 2800 3388 4292 3066 3151 4379 4236 4729 4364 4460 4208 3654 3844 2530 2868 4385 2943 4049 3152 3106 4926 4220 3311 2654 4995 3018 3075 2697 2900 4784 4740 4996 4956 4574 4803 4424 2897 4242 4993 3950 4310 4948 4757 4925 3429 3623 4324 3860 4704 4688 3507 4976 4175 2562 2849 3264 4219 4239 4062 3506 3750 3807 2857 2820 2555 4730 4007 4656 3270 4748 3230 3481 3627 3091 4429 4759 2875 9 4495 4289 4455 2868 3805 4391 3756 3998 3738 2967 4074 2782 4120 2610 3219 4767 3339 4056 4129 3610 4127 4184 3066 4693 3241 4145 3360 3122 4510 4299 3521 3660 25 26 28 16 25 21 16 5 31 36 19 8 10 24 8 7 5 34 28 37 32 2 36 31 2 36 25 7 26 37 6 4 21 35 10 12 1 31 1 20 35 31 30 10 22 21 12 14 13 39 11 30 10 38 31 9 9 4 32 18 36 23 22 1 25 22 31 24 26 2 5 26 12 30 19 11 39 31 6 19 31 3 26 13 18 39 31 38 28 19 13 25 13 4 32 1 8 7 25 28 4 18 35 25 28 33 29 7 19 12 21 3 16 38 38 3 8 17 3 16 37 14 18 23 7 37 6 7 24 37 36 34 9 38 7 6 15 3 32 11 13 33 31 30 17 28 37 25 8 25 7 36 13 1 24 20 29 18 27 15 12 10 23 29 35 36 13 19 30 16 25 35 0 22 25
3083 3622 4345 4499 3487 4639 4409 2908 3358 4351 2552 4711 2743 4844 2924 3094 4199 2608 4735 3288 2752 2887 3666 3374 2580 2867 4877 3462 4897 2666 3929 4550 4222 3221 4853 3573 2525 3396 4374 4912 3181 2666 2678 3932 3224 2508 4615 3593 2932 3066 3789 3892 3140 4927 2703 3201 3765 4189 4157 2799 4978 3954 3572 2712 3576 4731 3934 3532 3761 3936 3194 3062 4404 2977 4153 4690 4515 3996 4206 4786 4140 3867 4341 4963 4565 4783 4085 4429 3272 4595 4048 4041 2607 4795 3184 4574 4530 9 4737 3883 2590 2660 3670 3537 4807 3358 3667 3093 3509 4414 4042 4201 3618 2630 4854 3717 4283 4181 4012 2881 3664 3929 3630 4549 4604 3904 4278 4470 4483 4586 2932 2937 3845 4689 3606 3011 4171 2661 3104 4995 3667 2625 3491 3641 3182 4610 4918 2564 3547 3827 3009 3973 4746 4222 4534 4560 4003 2793 4849 4935 2636 3671 3770 3001 3465 2924 4995 3342 4224 4355 4049 3891 4624 4035 3606 3 9 31 6 15 32 31 11 17 24 8 20 15 4 35 2 23 25 13 5 7 12 6 29 30 16 7 2 15 5 39 26 36 36 27 14 31 30 13 6 33 21 20 14 30 33 36 21 20 19 15 29 28 7 26 16 14 3 13 33 3 18 11 21 4 30 2 15 39 28 30 17 17 16 13 5 9 19 35 14 8 29 39 14 13 7 24 26 14 6 10 34 25 31 3 6 21 26 4 25 27 4 17 18 7 11 32 13 33 5 9 23 9 10 11 5 36 4 11 28 21 19 27 17 34 13 7 6 23 31 26 34 5 7 8 26 38 4 31 5 23 34 16 33 26 9 1 5 24 4 32 35 13 31 13 30 20 28 21 13 19 24 30 11 33 1 25 18 16 18 6 21 15 0 13
3575 3590 4852 3599 3148 4873 3731 3023 2633 3885 2855 4973 3856 3781 2593 4386 4125 4750 4797 3301 3931 10 2527 2737 4857 3656 3884 3280 4978 3949 3126 3627 4302 4133 2726 2845 4803 2542 3071 2615 2830 2871 3168 2884 4170 4857 4552 4646 2978 4081 4172 2517 4435 4509 3924 3971 2959 4465 2543 3586 4086 4705 2924 4012 4734 2939 4229 3272 4961 4947 4369 3482 4469 3165 4471 3011 3529 2953 4985 2941 3410 3262 2580 4765 2817 4467 2900 2813 3591 3029 3710 3419 2995 4227 3965 4948 4982 3349 2959 3581 4663 2830 3260 3242 4702 3223 4396 4960 4566 2556 3529 4694 3612 4053 3827 3798 4663 3367 4843 2770 4917 2918 4430 2994 3106 3617 2599 2625 2655 4646 4889 3173 4915 4338 4457 3455 3496 3311 4646 2919 4180 3266 4468 4232 4112 4276 3563 3242 3890 4240 2546 4691 3432 3794 3365 2827 2789 4546 3747 3398 3442 2841 4291 4649 3144 3577 3546 3965 3960 2699 3999 2612 3144 3482 3313 5 12 23 21 28 22 24 27 23 24 32 28 28 6 3 1 8 3 17 33 31 32 17 1 2 18 9 23 1 37 19 38 4 8 12 9 38 1 12 18 8 8 9 39 8 17 11 6 7 11 14 34 28 19 32 16 38 19 26 24 8 5 16 34 11 22 5 11 9 20 37 27 31 4 18 33 39 18 22 20 29 29 32 39 35 20 18 34 30 11 7 1 26 10 29 21 4 1 2 5 28 4 20 2 5 19 28 18 12 20 17 12 15 17 33 14 33 22 5 5 3 19 39 4 23 23 21 28 1 1 14 2 25 31 3 21 9 37 18 32 39 28 38 38 26 26 36 31 3 29 28 25 36 14 30 37 4 26 31 20 19 37 9 18 24 22 22 31 15 29 3 13 3 11 0
EOF
