NAME: christofides_hard_n100_s0
TYPE: TSP
COMMENT: christofides_hard generated explicit tsp
DIMENSION: 100
EDGE_WEIGHT_TYPE: EXPLICIT
EDGE_WEIGHT_FORMAT: FULL_MATRIX
EDGE_WEIGHT_SECTION
0 27 35 20 27 29 19 3 27 13 33 27 6 4 27 15 22 19 25 38 11 31 36 22 20 22 23 1 24 7 9 35 7 35 25 34 8 29 6 15 23 20 38 31 35 10 20 10 28 21 3619 3999 3326 3431 2807 4922 2696 3588 4400 4648 4107 3222 4351 2531 3760 4060 4078 4084 4072 3316 4779 2768 4436 19 2575 3234 2885 4018 3874 3580 3084 4366 3781 3990 4163 3400 3691 4347 4165 4917 2643 3861 3688 4500 3189 4243 3642 4935 4867 2891
9 0 26 9 29 23 9 34 30 37 17 34 15 9 13 36 30 9 7 25 18 31 5 11 31 28 25 21 7 26 11 30 6 16 15 25 32 25 14 7 34 14 20 4 18 30 24 23 28 15 3262 3585 4403 4769 4369 3553 4599 3913 2780 3159 3384 3245 4223 3962 4398 3126 4741 2689 3969 4094 4391 3381 2856 3408 3778 3256 16 19 3508 3489 2719 2857 3626 4083 3469 3297 3078 4606 4143 3684 4649 4521 2597 2979 3641 4460 4764 2936 4378 2534
25 2 0 39 22 19 22 23 18 30 33 11 1 20 36 39 38 29 6 37 34 1 24 32 36 38 30 22 26 2 31 22 11 18 20 32 20 32 7 37 9 27 1 9 35 37 2 34 4 13 2978 3820 3411 3530 4242 3044 3423 4871 3945 3942 4301 4640 4813 2631 3148 2912 4904 3109 3786 2735 4332 8 4728 3520 17 2743 3689 3617 4216 4913 3873 3979 4252 4849 3475 2854 4288 4293 12 4283 4303 3844 4054 3116 3820 3553 2904 3798 2535 4655
28 19 34 0 17 28 17 28 34 15 18 31 7 31 20 15 32 36 3 18 38 27 27 16 21 23 26 4 27 17 9 30 20 33 3 14 7 3 22 7 15 12 19 20 12 11 4 15 30 1 4881 3852 3490 4528 4351 3302 4919 3308 3237 4153 2872 4987 3033 2760 4084 4691 2812 2714 2984 4828 3294 3588 3695 3581 3300 3583 3756 3358 4374 3564 4778 4561 2678 4138 4145 2717 3946 3417 2875 4792 4115 4386 2965 4601 3092 4941 4090 4885 3063 3763
10 17 34 28 0 17 18 9 8 24 37 24 8 31 34 36 8 28 6 29 20 36 26 34 18 39 20 23 25 15 19 30 38 5 6 21 16 1 5 7 8 14 25 36 34 17 14 13 34 3 2776 4293 3041 3051 4048 3719 3591 4327 4281 2801 4141 3979 3183 4334 4570 2667 3094 3012 4382 2784 3492 3883 2983 3561 2633 3647 7 4900 4754 3862 4877 4954 2981 11 4737 3020 4808 3029 3703 2770 4427 4917 3086 4427 4525 4262 4457 3922 4220 2744
15 14 28 22 5 0 12 22 31 2 15 6 37 12 1 2 7 35 30 33 25 37 24 9 4 18 16 32 29 11 24 26 21 14 18 15 2 27 31 37 38 32 35 14 14 3 21 38 34 14 2508 4713 4768 2621 3226 2907 3310 3871 3881 3828 4135 4965 2623 3421 3844 4428 8 2656 4508 2587 3039 4830 3896 4709 3701 4750 4623 2875 4250 3555 4203 4128 3126 4120 4392 3714 3289 4217 3084 2852 3381 3625 4572 2597 3345 3918 3158 3776 2704 4786
7 29 6 3 9 1 0 31 26 18 34 18 17 30 25 22 28 7 34 23 4 3 21 33 18 31 14 14 15 2 17 36 7 34 34 6 12 1 16 20 23 6 27 23 20 26 18 7 15 28 3810 2692 2749 4915 3358 4866 4626 4604 2913 4605 2782 2885 2608 4918 3094 3842 2782 4080 2781 3229 3414 4070 2839 2892 4967 3536 4730 4401 4272 4196 2524 4894 4138 2895 3560 3273 2607 4510 3171 3188 2723 3957 4510 4872 3828 3180 4811 3381 2831 3271
20 22 10 30 1 2 36 0 22 8 22 16 29 22 11 14 38 17 10 16 33 18 9 30 23 21 21 34 9 27 29 21 29 13 15 4 13 13 22 25 36 20 15 6 11 23 6 12 21 11 3910 2699 4851 4017 3165 4111 3588 4098 4913 3671 4085 3408 3542 2884 4714 3942 2933 2596 3549 4132 3978 3884 3508 2581 3584 2922 4260 4502 3063 2867 4381 2695 3727 3055 3239 3102 4324 4908 4258 3592 3293 3157 3901 4403 4823 3652 4094 3893 4579 4113
11 13 12 27 28 26 3 4 0 25 9 27 24 39 4 39 30 19 29 3 7 19 39 17 32 23 5 29 35 36 12 32 19 26 6 20 18 20 32 8 23 29 3 26 13 12 22 2 18 14 3335 2735 3884 4503 2658 4868 4467 2849 4118 4268 4949 4929 3471 4137 3702 3780 4856 3132 4511 4982 4791 4721 2819 4455 5 2746 4282 2992 3926 3682 3162 2943 2817 4022 3620 2886 4205 4155 3885 3075 4969 2691 4533 3654 2523 4537 2857 4298 2619 4172
19 35 39 22 20 6 39 31 3 0 24 35 16 17 9 34 30 36 6 22 36 5 4 15 18 3 20 32 14 39 9 27 13 15 37 29 37 39 17 19 5 4 29 24 27 34 2 27 12 31 4562 3037 3293 4169 2968 2547 3317 4852 3478 4727 3753 2820 4893 4780 3673 3006 3776 3792 4581 2841 4231 4282 4360 4427 3722 4252 3312 2886 4927 3483 2896 4411 4701 3431 4941 2790 3653 3849 3259 4046 3009 4802 4891 2917 2628 4953 4383 2678 2646 3912
12 19 4 31 33 25 11 7 7 33 0 39 14 14 27 31 17 32 36 35 15 29 6 15 15 35 8 39 34 9 17 11 20 23 32 2 35 35 27 35 23 32 26 11 32 28 14 34 33 34 4145 4019 2504 3383 3181 4295 4013 3130 3911 4933 3461 2731 4734 3386 3999 2811 3389 3601 4529 4859 4295 4896 2914 3112 4497 2835 2932 3319 4220 3063 2754 2513 4930 3045 4942 3247 4023 4875 3021 3813 4992 4428 3084 2787 2831 4260 2990 2567 4331 3598
39 17 16 5 32 6 33 32 19 16 31 0 37 3 33 4 5 2 23 34 4 16 21 29 35 12 39 34 34 12 31 27 23 36 21 17 16 34 24 28 22 5 35 17 3 32 21 38 36 10 4739 3546 4250 4836 4213 4678 4202 3679 4827 3904 3891 2860 4936 4958 12 3175 3684 3648 2500 4200 4931 3000 4956 2949 4572 3381 4590 3866 4034 4618 2627 4253 2944 3516 3008 3167 3621 3984 4339 2555 4942 3618 2709 3985 3367 3117 2505 2541 4780 3249
23 11 10 1 20 28 37 23 35 29 22 2 0 5 26 8 28 2 36 29 2 14 25 6 37 17 25 20 10 12 16 15 30 34 35 7 21 37 25 23 38 9 26 30 18 2 5 19 30 26 4101 2558 2652 4325 4623 4678 3963 3981 3921 2833 3267 4200 2759 3382 4776 4034 2921 3777 3479 3210 3662 3601 4711 3619 4787 4058 4928 3716 4891 4216 4595 4610 4713 4471 3839 2681 3684 4564 3680 17 4061 3125 3526 4932 4877 4698 2531 4164 4525 4978
36 24 16 39 13 30 5 18 17 12 39 35 24 0 22 18 28 1 39 20 32 12 10 9 26 14 8 31 33 24 32 13 3 33 5 22 7 26 28 16 24 33 14 21 25 16 25 14 10 27 3642 4391 3011 4972 3313 2547 2718 3493 3151 3226 3153 4645 3675 4891 4505 3339 4979 4186 2706 4563 4928 3280 2743 3146 4267 4684 2662 4180 3520 2636 3554 2618 3523 2905 3034 4592 3734 3346 2777 3868 3136 4330 3743 3667 3783 4505 4909 4177 2880 3565
17 36 3 38 24 12 1 24 8 9 33 35 14 37 0 6 24 2 33 6 4 13 27 25 30 9 36 10 34 29 25 11 7 5 33 9 10 10 26 30 3 10 12 29 20 31 32 8 1 1 4100 3079 3075 3286 4403 3381 3978 3689 3815 3124 4027 2754 3827 4438 3361 3075 2759 4627 2913 3144 3397 3542 2601 3258 4693 4231 3601 4473 3334 2930 4149 3942 2889 4233 4080 14 4380 3943 2952 4233 4032 4947 2503 4784 3629 11 3147 4138 2570 2788
6 17 31 15 5 26 7 9 31 2 9 25 23 7 14 0 16 4 10 35 1 12 25 17 17 31 20 33 18 6 33 12 4 32 36 26 30 8 27 35 8 22 38 26 5 23 11 6 36 4 2867 3136 3885 4937 16 4226 3512 4854 4112 4043 3067 4811 4924 3007 3062 4965 4132 4590 3244 4103 4725 3667 14 4374 3455 3307 3378 2654 3360 3971 2527 4348 3927 3686 4628 4992 4116 3492 3764 4411 3418 2512 4472 4217 3133 3531 5 3804 4107 4165
17 18 17 11 15 36 21 33 16 38 14 10 2 15 14 29 0 21 14 6 24 32 36 30 36 26 11 29 3 2 27 37 28 31 8 3 17 18 18 22 26 4 35 39 35 21 5 27 29 39 2842 3960 3950 3048 4807 3279 3796 4724 3917 3158 4526 4987 3717 4831 2856 3280 2723 3409 4710 4489 3647 2719 4965 3935 4366 3067 4171 3635 3258 3827 3018 4352 4372 4461 3704 4694 3287 3113 2955 3838 3135 4373 3856 3031 4287 4787 3122 3239 3566 2781
20 2 29 6 5 3 10 24 13 3 12 35 26 22 24 1 18 0 10 9 36 38 32 15 18 34 36 7 15 23 7 9 29 31 26 27 25 1 25 39 13 22 19 37 36 36 7 30 25 31 3495 4496 4065 3130 3992 3126 3908 4649 3368 4465 4135 2702 3211 3008 3128 3496 3595 3560 4934 4585 3634 4684 3974 4993 2536 2936 4916 2600 3898 3872 3436 2945 3531 3772 2560 3323 3393 4453 4172 2676 4477 3460 3788 3999 4996 4220 2805 3514 3435 4808
2 31 39 7 32 13 5 29 33 24 28 1 10 38 31 39 25 5 0 3 18 3 6 34 17 30 29 6 7 37 37 33 6 35 30 9 33 9 20 2 33 16 35 6 13 2 28 39 23 16 2547 4644 2676 4917 4056 3000 4200 2589 2841 3724 4299 3354 2866 4263 2635 3338 3575 2886 3912 4366 4722 3998 4425 3849 4995 3984 4845 2831 4337 4952 2956 3832 4336 4131 2584 3122 4701 3718 4820 4295 4261 4444 4075 3625 3231 3850 2684 4290 4270 3391
10 16 8 22 38 4 3 25 17 36 32 4 33 22 22 27 35 8 21 0 13 12 9 36 35 21 20 12 14 24 23 5 39 16 10 7 26 20 31 15 2 13 8 2 7 9 13 11 4 20 3447 3944 4213 4992 3001 3560 4436 3367 4299 4758 2665 3200 3744 4121 3443 3729 4130 3971 3702 3301 3842 4120 2576 4450 4653 2693 4131 4914 4869 3409 2924 3367 3474 3145 3455 4907 3710 2652 3472 2607 2916 3803 3533 2832 4790 4837 3262 4975 3001 4248
27 29 37 37 1 21 37 14 25 13 2 1 19 27 2 19 8 3 29 22 0 15 39 2 6 34 20 23 25 5 7 18 1 19 10 27 13 5 4 2 14 19 12 39 1 23 5 34 18 21 3960 2778 4293 3208 4624 3645 4001 4983 3862 2527 3603 2538 3386 4995 4559 3345 4509 17 2864 4623 3723 2808 2832 9 13 4259 4798 4718 3926 4560 3508 2818 3310 3217 3973 4291 4932 4104 4181 3955 3521 2703 4040 4130 2647 3532 2753 2943 4677 4610
35 28 12 35 37 22 33 5 31 14 30 5 35 25 1 28 16 18 34 17 39 0 29 31 22 18 19 9 33 9 16 1 15 20 17 6 16 30 27 36 31 39 28 26 27 6 36 30 14 32 3744 6 3969 4914 3452 4508 3290 4225 4598 4614 4453 3580 3014 4215 2507 4373 4638 3619 3963 4152 3458 4071 3796 3711 4651 2649 3613 4303 3698 2906 3818 3713 4137 13 4586 3190 4639 2702 4634 4883 2596 4183 3522 4407 3010 3186 4515 2944 3990 4085
6 12 13 13 31 29 10 30 12 8 5 5 26 27 2 12 12 32 35 2 1 11 0 2 29 10 2 35 7 32 17 14 7 25 19 15 22 28 2 22 9 5 15 6 6 7 4 5 23 33 3936 4146 4211 4287 3344 5 3690 3199 2746 4868 3305 3721 3512 4275 3250 4248 4257 4753 3004 4061 4296 4209 3548 2960 2931 3583 3859 4295 4232 3197 2514 3076 4096 4222 2752 2644 2794 4527 2611 2676 3042 2554 3126 3943 3257 4446 3795 2764 2967 8
26 28 4 14 29 28 4 3 4 30 26 10 39 24 27 1 5 26 18 36 10 35 11 0 30 28 2 20 9 27 7 22 29 8 21 26 2 34 19 5 21 31 25 32 33 27 2 25 13 21 2685 4676 2748 3146 2764 4973 4337 3709 3668 3607 4819 3599 2779 3137 4441 2992 3533 4819 4914 3548 2509 3891 3800 2983 3384 4550 2818 3992 4111 2855 3461 4146 4352 4569 3620 4447 3585 2805 3390 4580 3141 7 2952 4158 4171 2686 3690 3844 4841 3104
31 24 6 14 11 39 28 30 19 20 22 31 11 3 5 39 3 6 28 26 17 6 6 13 0 10 22 2 6 38 22 17 13 11 38 36 3 22 35 27 15 32 2 2 33 6 4 26 1 15 2933 3476 2686 19 4594 2733 4474 2985 2567 3991 2980 3988 3039 3892 4884 2714 4836 4772 2582 4403 4428 4297 3671 2959 4146 3620 3399 5 3833 3490 2993 3286 4384 3401 2903 2601 2618 3145 4412 4320 3579 2628 2826 4126 3035 2740 3266 3593 4807 3066
23 32 29 4 33 27 12 39 17 10 24 2 15 25 37 16 23 24 13 4 27 32 29 22 39 0 10 15 16 34 10 24 38 20 14 23 19 37 18 30 5 37 28 26 5 36 17 5 34 4 3214 19 4226 3311 3729 2832 4640 3474 4898 3680 4470 4107 4887 4716 2602 2682 3900 3478 4173 4495 3562 4468 3151 3651 2918 4299 3567 3911 4545 4973 4722 3988 2868 4600 4956 2906 4804 4109 3146 3810 4779 4400 2693 3120 4891 19 3548 3623 3704 3656
27 19 11 10 35 14 38 16 26 9 36 34 8 21 20 16 20 20 20 1 24 9 14 37 20 10 0 28 2 17 27 25 33 20 17 31 28 32 29 39 11 27 28 20 2 36 33 28 26 1 4310 3239 3609 3931 3670 3252 3510 3766 2719 2682 4997 3173 4297 4736 4208 3033 4661 2836 3621 3423 2587 2883 3543 4149 4391 2874 3811 3611 4351 3709 3681 3035 4397 4200 4132 4864 3369 2778 2998 4194 2708 3712 4136 4785 2974 3892 3544 3673 3272 4650
8 7 13 2 2 31 1 39 17 35 35 9 17 11 20 37 26 21 23 9 4 6 24 23 12 18 2 0 5 2 18 15 39 33 14 2 8 39 31 13 12 9 17 21 22 3 7 6 26 29 3394 3469 3309 3130 4002 3311 3547 2705 16 4502 3523 2705 2633 3844 4727 3175 4590 3311 4542 3419 4107 2995 3231 19 4968 3210 4331 4991 4275 3862 3258 4003 4166 2533 3044 3040 3506 2989 3587 4405 4423 4812 3368 3105 3916 4477 3737 2678 3365 3629
2 24 2 16 4 24 38 13 7 24 23 23 18 26 37 3 13 28 30 20 35 37 30 33 35 20 12 25 0 8 19 5 24 26 12 34 20 4 2 15 22 36 19 25 10 1 33 35 33 11 3065 4059 4395 4506 3702 4440 3510 2598 2839 4684 4074 3887 4378 4313 3687 4547 3081 4106 3425 4942 2985 4927 4026 2524 2881 3131 2805 2731 2770 3616 3277 4620 4773 4890 4782 2793 3316 2983 3021 3195 3329 2925 4655 4242 4312 3446 2993 4353 6 3728
19 17 39 29 19 11 19 1 28 14 26 13 13 22 37 3 36 29 3 2 6 23 27 25 20 13 6 19 16 0 21 16 17 23 5 31 24 14 7 27 14 26 7 21 36 24 25 7 9 19 3265 4747 4367 3180 2908 4565 2640 4976 4011 2572 3642 4819 2875 2598 4045 2753 4053 3341 4629 3133 4238 4331 4038 2901 4680 3448 3812 2825 4381 3895 2723 4388 4177 3908 4691 3402 3104 4300 3431 3549 3184 3447 3141 3842 3990 4557 4827 4449 4157 4458
24 17 38 23 1 21 5 1 17 21 31 19 1 10 36 17 8 4 28 35 30 35 14 36 8 31 31 34 13 25 0 6 29 4 18 36 25 39 3 32 23 18 14 14 3 39 18 1 31 30 3646 4561 4571 4764 2506 4229 4609 3886 2852 2738 2796 4050 3541 4513 8 3697 2803 3818 4361 3514 4645 2647 4627 4013 2652 3930 2647 4025 4965 4103 4804 4243 4590 4976 4175 2640 4250 4592 3882 4368 4813 2888 2965 2599 2961 2629 4221 3511 3799 3516
33 32 5 3 3 22 16 31 16 28 34 23 23 13 31 32 7 7 3 27 38 6 1 15 28 37 17 3 17 24 38 0 6 27 15 32 5 12 36 1 39 13 22 32 25 10 9 9 20 14 4199 12 2913 4413 2883 4149 3333 3429 4601 4889 4585 3750 3903 2902 4479 4128 2685 3592 4566 3604 4652 3718 2712 4251 3759 7 3741 3317 3386 3935 4754 4098 3802 3077 3359 3399 3497 4307 2931 3803 3231 4342 2886 2977 4869 3466 4989 3898 3110 3687
36 17 25 32 12 6 35 18 11 26 29 10 29 17 5 6 25 10 23 23 15 15 15 18 4 35 34 4 39 25 11 21 0 17 7 12 15 16 7 38 10 12 24 1 31 9 29 30 16 36 3057 3831 4887 4724 4719 4980 3256 3762 4093 3539 4457 3553 3433 4259 3268 4288 3949 11 4643 4854 4927 2551 2922 4476 3903 4773 2956 2666 4056 4939 2744 3103 4516 3308 2794 2592 3826 10 4186 2597 3297 3324 3952 4273 3404 4936 2937 4718 2558 4749
32 9 28 16 7 39 21 1 19 19 23 33 9 25 14 28 13 23 39 13 1 38 25 22 24 37 13 28 20 39 35 27 12 0 35 19 19 6 11 29 4 4 38 7 32 14 37 20 23 24 4233 2965 4846 4013 2527 2831 2983 3295 3279 3041 3922 4627 3334 3618 4803 4333 2570 3814 3036 3157 4690 4031 4391 2730 3134 4694 4608 2800 4020 4908 4288 3624 2947 4912 3726 15 4749 2910 3119 2934 4988 4174 4485 3438 3007 3758 4021 3503 2997 4326
21 1 23 33 38 29 4 15 8 19 28 12 14 39 5 17 37 3 29 30 17 12 34 16 15 37 34 3 18 19 8 35 21 22 0 4 14 26 24 38 32 1 10 24 39 13 32 4 2 30 3028 3130 2908 4304 5 3727 3959 4393 3093 4418 3386 3041 3459 3944 2643 2615 4894 4929 4340 3950 2682 3247 4239 4703 4062 4148 3646 2632 4898 16 2582 2956 3264 3999 3109 3623 4480 2941 3503 2915 4300 2663 3797 2985 2935 4634 4686 4109 4331 4489
18 28 19 35 13 13 39 27 26 26 35 2 5 35 22 25 19 17 29 19 16 16 35 26 34 20 6 1 14 23 11 32 15 17 30 0 29 8 27 3 10 22 15 31 24 4 27 33 26 7 3460 4333 3821 4941 3577 4106 4736 4740 4751 3489 2894 17 3952 4506 3657 3704 2618 3936 2803 3440 3501 4762 2569 2720 4835 3194 4398 4908 3939 4881 3102 4010 4128 4390 4669 3122 2613 3816 2701 3527 4788 4437 4031 3069 4035 3917 2510 3962 4116 4076
30 3 12 23 19 30 18 1 21 13 5 6 14 22 3 31 4 23 21 11 39 10 32 26 15 33 39 22 11 26 14 18 25 25 28 38 0 15 32 26 1 24 21 37 20 18 4 21 33 34 2702 4960 2653 4568 3033 4752 3767 3201 4413 2918 4585 4208 3163 4682 4853 2632 3125 4568 3133 3468 3293 2570 3886 2819 4682 3680 3769 3613 2526 3510 3774 2893 3609 2741 3005 4005 4372 3730 2874 2609 4445 4368 2517 3070 3475 3027 4191 4167 2788 2978
17 13 28 31 11 19 37 8 14 31 27 35 14 19 5 4 1 6 35 34 23 22 24 39 6 31 13 13 29 23 16 20 19 11 9 29 3 0 5 21 5 32 8 2 7 6 38 35 19 31 4855 4295 4594 4394 3129 3331 4177 3250 3947 3127 4729 4489 3092 2937 4780 4682 3140 3417 3240 2669 2686 4954 4191 3620 3952 2836 3011 4707 4328 4450 3916 3831 4689 4292 3192 2842 3832 3928 3284 2722 3562 3317 2679 3401 2856 11 4261 3302 3637 3580
39 31 38 35 13 32 34 13 7 23 12 39 15 12 32 23 3 30 36 25 7 23 27 17 2 24 27 9 14 9 23 5 33 26 26 15 38 35 0 25 5 13 1 31 10 17 14 21 27 34 3086 3384 2772 2572 4676 4686 4604 3492 2561 2615 3128 4994 4799 2802 3497 12 4413 4703 4347 3406 3263 4544 4984 4865 2769 2892 2562 4321 3056 3878 4594 4161 3444 3765 4890 3045 3393 2546 3358 4362 3871 4549 3271 4551 4725 4754 4089 4823 4971 8
11 29 36 17 29 16 39 22 38 2 32 23 35 15 14 29 16 30 32 7 19 25 16 5 4 39 13 32 10 15 16 39 28 36 31 30 19 13 8 0 24 6 26 7 24 5 26 34 36 12 4385 4570 3705 11 4583 2871 4697 3681 3522 3636 2601 4672 3716 3394 4209 2941 3509 2889 4183 4837 3199 3952 4012 2532 3129 3819 4631 4460 3253 4180 3036 3658 4950 4065 2677 3957 3266 2749 4086 4851 4666 2825 4390 3208 4464 2839 4917 3798 4303 4280
22 20 15 5 33 34 34 1 15 6 39 13 24 32 36 13 8 12 22 4 14 15 16 28 16 33 32 31 39 30 8 2 39 28 3 17 36 10 14 36 0 13 26 39 33 21 3 39 6 8 2518 3082 3550 2722 4749 4168 3255 3240 4529 2999 4990 3150 3115 3802 4763 4131 4085 3081 3860 3865 4027 3522 4443 2504 3233 4668 3629 3716 3185 4048 4271 3778 2999 4352 3179 4270 4018 2555 2660 4451 4643 2861 4064 3778 3694 4431 4812 4296 3683 2878
36 32 37 27 15 39 24 33 3 1 23 29 5 27 19 8 2 38 30 16 16 23 37 18 4 39 37 7 2 36 36 22 26 33 24 24 8 22 36 12 3 0 16 33 10 39 29 14 6 27 3659 3269 4176 3682 4972 4323 4945 2815 4286 3521 3817 3651 3611 2897 3089 4133 3605 3268 3156 4731 2701 4551 3595 3311 2557 2605 3689 2754 4597 4653 4753 4177 3260 4283 3011 2853 4384 4908 4765 3354 4602 3894 4279 4261 4596 4167 3079 2770 4222 3525
16 34 32 22 27 1 23 10 2 24 19 7 27 3 28 39 27 1 35 2 21 4 19 28 16 1 13 26 22 35 3 36 23 5 34 10 14 7 35 23 13 33 0 17 7 27 17 6 15 14 4183 3904 3579 2689 3647 4003 3569 3114 3557 3644 3146 4001 4960 4577 3266 3156 3435 2505 3287 4316 3647 3264 2820 3872 4138 3849 4713 4040 3724 3822 3723 4985 3617 4705 4939 4894 4703 2955 3987 3400 2827 4680 4565 4552 4572 2593 4578 3955 4224 4933
23 1 25 4 23 10 21 38 24 26 5 7 5 3 22 21 8 1 22 15 30 24 32 5 5 20 4 27 2 23 19 13 6 21 33 38 10 31 18 5 11 20 8 0 24 37 34 3 8 29 4768 3915 4620 2969 3910 4373 3487 3277 3686 3965 2546 4189 3198 15 3881 2756 3637 3475 3489 2976 2648 2800 2710 3416 2879 4558 2816 2789 3336 3701 2880 2937 3014 3246 4933 3398 3273 3456 3723 3241 4360 2767 3406 3561 3963 4165 2784 4889 3008 3608
4 10 32 4 27 7 8 15 15 26 16 27 37 5 18 17 25 5 10 8 7 10 7 37 14 11 18 8 11 39 13 28 36 17 20 38 18 34 3 37 35 25 31 10 0 18 32 24 33 29 4192 2742 3734 4347 4029 3440 4015 2922 4729 3717 4257 3889 2899 4494 3892 3768 4522 4776 3248 3467 4525 3086 3368 4758 3359 4471 2810 3341 4514 4214 4451 3681 3586 4554 4646 3998 3851 3281 4515 3473 2503 3094 4111 4664 3885 4008 3200 2615 4172 3123
26 34 39 9 16 21 16 21 35 5 14 24 38 32 36 8 27 31 36 30 6 14 27 33 30 25 11 28 7 3 1 2 15 33 24 13 25 17 8 35 29 3 12 17 35 0 1 25 33 38 4917 4252 4550 4291 4825 2656 3835 3878 4871 3000 4356 2727 3730 4357 3934 4672 4702 4450 2560 3619 3530 4855 4793 3241 3550 2812 4104 3947 4248 4442 2758 3038 3452 4044 3998 3543 3861 2789 4949 3303 3923 4624 4970 2930 2508 4284 4126 3048 3869 4051
25 16 35 9 12 27 22 29 34 26 33 10 32 7 14 29 19 4 34 14 32 17 7 39 28 13 25 32 6 23 29 21 33 21 32 28 27 35 36 24 20 17 21 4 1 4 0 34 12 6 4189 4083 4716 3058 3459 2579 4204 4544 4049 4614 2828 4744 4105 3444 7 4542 4155 2882 4978 2613 3583 4878 4315 4181 2792 4321 2818 3507 3078 3839 4171 3068 3527 4794 4871 4697 4396 3516 4779 4885 4966 4673 4079 2564 3356 4422 3825 3535 3835 4004
33 14 31 10 1 15 27 37 9 13 29 36 6 1 20 10 23 26 33 31 25 37 16 15 38 7 21 26 14 31 10 12 25 25 12 25 36 13 28 8 28 11 11 1 6 34 4 0 22 37 3518 4510 3652 4067 3007 2577 2731 3721 2726 2666 4578 4581 3970 3040 4854 4033 3040 4887 3560 4167 3403 4492 2687 4807 2931 4638 2836 7 4014 3013 3134 4880 3192 3121 4557 4636 2570 4856 4397 3772 2710 4251 2587 3536 4357 2629 2964 4915 2873 3278
12 23 39 26 39 27 36 15 21 18 7 11 31 6 39 28 25 39 4 11 3 8 3 21 2 10 3 6 34 9 27 35 15 39 23 13 31 15 34 32 28 2 37 17 23 28 17 28 0 27 2875 2729 4824 4442 2951 4662 4635 3271 2943 3996 3542 3408 3188 4578 4915 2978 4513 3321 4973 4740 3420 4522 4572 2724 3335 3934 4540 4094 4801 2578 3836 4998 4222 4030 4398 4380 4806 2865 3973 3030 4357 4762 3882 3215 3564 2736 2633 4599 4056 3119
26 22 3 13 15 25 27 34 39 19 20 29 22 18 34 8 7 29 26 19 10 10 17 21 24 15 9 4 24 18 12 39 10 25 29 27 36 12 20 26 7 39 18 37 31 12 7 32 8 0 2521 2656 4496 5 3598 3390 3313 4018 3023 4361 4529 4737 3092 12 3448 2885 3827 2990 3322 4982 4357 4906 3176 3007 4067 4729 3147 4412 4333 3263 2599 4058 3761 3834 2929 3043 4881 3317 4748 3629 4145 3578 3701 4048 4669 3531 3774 4654 4611 2868
3619 3262 2978 4881 2776 2508 3810 3910 3335 4562 4145 4739 4101 3642 4100 2867 2842 3495 2547 3447 3960 3744 3936 2685 2933 3214 4310 3394 3065 3265 3646 4199 3057 4233 3028 3460 2702 4855 3086 4385 2518 3659 4183 4768 4192 4917 4189 3518 2875 2521 0 31 35 22 29 33 27 33 37 26 30 6 8 19 39 35 38 38 6 8 26 33 10 7 11 34 29 20 1 15 22 38 38 23 26 2 11 27 39 9 12 25 11 16 13 29 17 11 9 16
3999 3585 3820 3852 4293 4713 2692 2699 2735 3037 4019 3546 2558 4391 3079 3136 3960 4496 4644 3944 2778 6 4146 4676 3476 19 3239 3469 4059 4747 4561 12 3831 2965 3130 4333 4960 4295 3384 4570 3082 3269 3904 3915 2742 4252 4083 4510 2729 2656 3 0 20 28 26 4 34 21 6 7 33 35 21 20 33 22 8 27 33 31 26 38 11 9 11 16 32 15 33 15 22 28 12 24 1 33 28 31 20 36 18 35 33 34 1 5 11 11 8 14
3326 4403 3411 3490 3041 4768 2749 4851 3884 3293 2504 4250 2652 3011 3075 3885 3950 4065 2676 4213 4293 3969 4211 2748 2686 4226 3609 3309 4395 4367 4571 2913 4887 4846 2908 3821 2653 4594 2772 3705 3550 4176 3579 4620 3734 4550 4716 3652 4824 4496 20 3 0 30 33 33 6 6 25 34 11 9 4 11 33 8 26 30 8 15 37 5 23 28 23 3 1 15 1 10 4 37 16 24 22 13 21 30 33 7 7 19 21 5 34 27 3 29 21 18
3431 4769 3530 4528 3051 2621 4915 4017 4503 4169 3383 4836 4325 4972 3286 4937 3048 3130 4917 4992 3208 4914 4287 3146 19 3311 3931 3130 4506 3180 4764 4413 4724 4013 4304 4941 4568 4394 2572 11 2722 3682 2689 2969 4347 4291 3058 4067 4442 5 11 31 38 0 13 4 20 14 11 6 39 16 9 31 23 3 1 17 33 34 15 9 33 34 23 2 36 7 25 30 36 9 1 5 7 22 30 16 8 11 39 1 20 1 21 14 27 15 26 2
2807 4369 4242 4351 4048 3226 3358 3165 2658 2968 3181 4213 4623 3313 4403 16 4807 3992 4056 3001 4624 3452 3344 2764 4594 3729 3670 4002 3702 2908 2506 2883 4719 2527 5 3577 3033 3129 4676 4583 4749 4972 3647 3910 4029 4825 3459 3007 2951 3598 10 14 19 37 0 7 20 39 14 36 30 29 29 25 30 9 24 24 2 32 3 9 34 34 34 18 16 13 36 10 26 32 31 31 18 10 15 20 16 32 13 5 12 32 38 25 9 30 17 26
4922 3553 3044 3302 3719 2907 4866 4111 4868 2547 4295 4678 4678 2547 3381 4226 3279 3126 3000 3560 3645 4508 5 4973 2733 2832 3252 3311 4440 4565 4229 4149 4980 2831 3727 4106 4752 3331 4686 2871 4168 4323 4003 4373 3440 2656 2579 2577 4662 3390 19 14 18 32 7 0 38 15 36 18 21 15 5 4 15 3 9 34 23 8 2 14 8 38 14 16 27 12 6 9 10 20 28 25 1 23 24 18 33 4 27 21 31 9 35 29 2 36 4 35
2696 4599 3423 4919 3591 3310 4626 3588 4467 3317 4013 4202 3963 2718 3978 3512 3796 3908 4200 4436 4001 3290 3690 4337 4474 4640 3510 3547 3510 2640 4609 3333 3256 2983 3959 4736 3767 4177 4604 4697 3255 4945 3569 3487 4015 3835 4204 2731 4635 3313 34 4 27 14 12 10 0 6 2 33 39 19 10 25 6 30 26 27 7 6 10 36 3 23 24 9 28 5 27 2 12 5 25 26 35 9 10 38 9 19 32 35 13 27 36 13 31 7 5 29
3588 3913 4871 3308 4327 3871 4604 4098 2849 4852 3130 3679 3981 3493 3689 4854 4724 4649 2589 3367 4983 4225 3199 3709 2985 3474 3766 2705 2598 4976 3886 3429 3762 3295 4393 4740 3201 3250 3492 3681 3240 2815 3114 3277 2922 3878 4544 3721 3271 4018 2 25 31 28 18 11 4 0 8 35 21 1 34 28 37 21 21 20 29 33 11 26 24 25 35 34 26 36 31 25 38 36 21 19 2 4 9 1 17 2 3 38 23 6 17 3 34 38 15 16
4400 2780 3945 3237 4281 3881 2913 4913 4118 3478 3911 4827 3921 3151 3815 4112 3917 3368 2841 4299 3862 4598 2746 3668 2567 4898 2719 16 2839 4011 2852 4601 4093 3279 3093 4751 4413 3947 2561 3522 4529 4286 3557 3686 4729 4871 4049 2726 2943 3023 26 38 29 25 25 12 1 20 0 10 15 29 37 15 16 25 22 20 3 39 1 16 19 23 11 31 16 18 15 9 28 8 7 31 38 13 3 9 10 1 6 20 18 8 4 29 6 37 16 8
4648 3159 3942 4153 2801 3828 4605 3671 4268 4727 4933 3904 2833 3226 3124 4043 3158 4465 3724 4758 2527 4614 4868 3607 3991 3680 2682 4502 4684 2572 2738 4889 3539 3041 4418 3489 2918 3127 2615 3636 2999 3521 3644 3965 3717 3000 4614 2666 3996 4361 1 37 36 1 5 13 12 28 36 0 25 16 9 18 20 31 3 21 17 10 6 30 23 7 5 34 8 15 6 18 20 29 23 9 23 31 27 8 21 13 13 15 33 3 8 14 26 5 22 1
4107 3384 4301 2872 4141 4135 2782 4085 4949 3753 3461 3891 3267 3153 4027 3067 4526 4135 4299 2665 3603 4453 3305 4819 2980 4470 4997 3523 4074 3642 2796 4585 4457 3922 3386 2894 4585 4729 3128 2601 4990 3817 3146 2546 4257 4356 2828 4578 3542 4529 7 19 12 35 30 20 39 32 37 16 0 34 22 8 5 11 24 29 2 13 31 1 28 39 28 33 1 23 16 29 12 31 33 20 29 10 10 21 26 16 8 22 11 23 7 36 2 4 27 36
3222 3245 4640 4987 3979 4965 2885 3408 4929 2820 2731 2860 4200 4645 2754 4811 4987 2702 3354 3200 2538 3580 3721 3599 3988 4107 3173 2705 3887 4819 4050 3750 3553 4627 3041 17 4208 4489 4994 4672 3150 3651 4001 4189 3889 2727 4744 4581 3408 4737 25 31 22 13 27 20 20 17 33 39 33 0 9 11 27 4 30 23 11 2 33 12 29 32 18 2 28 7 3 20 9 31 38 22 16 26 9 17 35 22 36 17 17 34 3 13 25 5 7 26
4351 4223 4813 3033 3183 2623 2608 3542 3471 4893 4734 4936 2759 3675 3827 4924 3717 3211 2866 3744 3386 3014 3512 2779 3039 4887 4297 2633 4378 2875 3541 3903 3433 3334 3459 3952 3163 3092 4799 3716 3115 3611 4960 3198 2899 3730 4105 3970 3188 3092 19 28 19 3 38 29 3 34 21 5 9 19 0 13 6 31 12 27 17 17 39 20 20 21 3 30 29 25 22 22 3 10 32 20 19 19 15 15 22 33 15 17 32 4 21 12 28 9 26 22
2531 3962 2631 2760 4334 3421 4918 2884 4137 4780 3386 4958 3382 4891 4438 3007 4831 3008 4263 4121 4995 4215 4275 3137 3892 4716 4736 3844 4313 2598 4513 2902 4259 3618 3944 4506 4682 2937 2802 3394 3802 2897 4577 15 4494 4357 3444 3040 4578 12 39 37 2 31 6 5 25 6 4 2 36 1 10 0 36 13 29 37 6 28 38 1 10 21 4 14 6 10 5 2 7 21 25 9 17 32 33 35 19 23 12 7 27 16 18 9 39 23 16 15
3760 4398 3148 4084 4570 3844 3094 4714 3702 3673 3999 12 4776 4505 3361 3062 2856 3128 2635 3443 4559 2507 3250 4441 4884 2602 4208 4727 3687 4045 8 4479 3268 4803 2643 3657 4853 4780 3497 4209 4763 3089 3266 3881 3892 3934 7 4854 4915 3448 33 12 7 23 16 9 32 13 19 23 39 14 18 13 0 8 3 21 3 9 33 18 2 38 14 13 16 39 30 25 16 8 17 31 18 24 1 29 27 29 9 35 38 4 29 16 32 9 11 7
4060 3126 2912 4691 2667 4428 3842 3942 3780 3006 2811 3175 4034 3339 3075 4965 3280 3496 3338 3729 3345 4373 4248 2992 2714 2682 3033 3175 4547 2753 3697 4128 4288 4333 2615 3704 2632 4682 12 2941 4131 4133 3156 2756 3768 4672 4542 4033 2978 2885 18 16 23 20 35 18 9 35 2 33 19 1 16 8 18 0 10 34 9 3 29 26 28 17 38 24 36 34 22 12 13 4 14 16 28 18 20 28 36 32 25 5 31 4 39 38 15 39 29 11
4078 4741 4904 2812 3094 8 2782 2933 4856 3776 3389 3684 2921 4979 2759 4132 2723 3595 3575 4130 4509 4638 4257 3533 4836 3900 4661 4590 3081 4053 2803 2685 3949 2570 4894 2618 3125 3140 4413 3509 4085 3605 3435 3637 4522 4702 4155 3040 4513 3827 10 3 11 25 20 29 21 18 25 9 31 8 13 27 17 14 0 35 5 39 8 2 36 13 19 8 31 22 33 23 13 19 30 29 31 25 30 5 16 21 39 5 24 24 33 33 21 31 13 2
4084 2689 3109 2714 3012 2656 4080 2596 3132 3792 3601 3648 3777 4186 4627 4590 3409 3560 2886 3971 17 3619 4753 4819 4772 3478 2836 3311 4106 3341 3818 3592 11 3814 4929 3936 4568 3417 4703 2889 3081 3268 2505 3475 4776 4450 2882 4887 3321 2990 15 27 11 14 31 10 38 14 2 20 12 25 12 37 6 20 30 0 21 3 8 6 22 22 34 37 26 24 33 34 13 27 6 36 9 32 30 30 14 7 35 25 1 30 17 31 4 33 33 21
4072 3969 3786 2984 4382 4508 2781 3549 4511 4581 4529 2500 3479 2706 2913 3244 4710 4934 3912 3702 2864 3963 3004 4914 2582 4173 3621 4542 3425 4629 4361 4566 4643 3036 4340 2803 3133 3240 4347 4183 3860 3156 3287 3489 3248 2560 4978 3560 4973 3322 5 13 20 14 35 25 36 21 2 26 30 37 29 39 31 33 21 28 0 17 17 20 33 39 14 3 26 28 36 10 23 18 15 22 8 2 27 35 18 22 6 28 16 1 34 27 36 4 36 12
3316 4094 2735 4828 2784 2587 3229 4132 4982 2841 4859 4200 3210 4563 3144 4103 4489 4585 4366 3301 4623 4152 4061 3548 4403 4495 3423 3419 4942 3133 3514 3604 4854 3157 3950 3440 3468 2669 3406 4837 3865 4731 4316 2976 3467 3619 2613 4167 4740 4982 1 36 14 33 12 25 28 28 8 27 9 25 35 20 19 21 31 19 27 0 36 15 17 34 22 36 8 37 3 14 14 38 7 21 25 2 16 16 33 34 8 20 12 5 35 22 4 15 11 32
4779 4391 4332 3294 3492 3039 3414 3978 4791 4231 4295 4931 3662 4928 3397 4725 3647 3634 4722 3842 3723 3458 4296 2509 4428 3562 2587 4107 2985 4238 4645 4652 4927 4690 2682 3501 3293 2686 3263 3199 4027 2701 3647 2648 4525 3530 3583 3403 3420 4357 1 15 10 26 18 10 26 10 6 3 36 4 17 7 33 4 30 14 20 30 0 26 9 17 33 21 8 8 21 36 7 36 18 31 2 21 9 3 39 4 22 15 35 19 15 39 14 8 12 4
2768 3381 8 3588 3883 4830 4070 3884 4721 4282 4896 3000 3601 3280 3542 3667 2719 4684 3998 4120 2808 4071 4209 3891 4297 4468 2883 2995 4927 4331 2647 3718 2551 4031 3247 4762 2570 4954 4544 3952 3522 4551 3264 2800 3086 4855 4878 4492 4522 4906 2 36 20 39 28 31 24 27 17 26 8 16 29 34 28 37 16 30 7 26 32 0 28 36 13 26 9 19 1 36 17 12 31 20 16 39 31 8 2 27 23 19 14 31 8 39 33 23 21 29
4436 2856 4728 3695 2983 3896 2839 3508 2819 4360 2914 4956 4711 2743 2601 14 4965 3974 4425 2576 2832 3796 3548 3800 3671 3151 3543 3231 4026 4038 4627 2712 2922 4391 4239 2569 3886 4191 4984 4012 4443 3595 2820 2710 3368 4793 4315 2687 4572 3176 26 15 4 10 2 25 36 8 2 28 19 18 14 2 37 12 9 36 10 36 35 24 0 7 15 4 27 1 2 2 28 9 21 9 29 19 39 27 27 9 36 7 16 1 37 31 39 31 35 30
19 3408 3520 3581 3561 4709 2892 2581 4455 4427 3112 2949 3619 3146 3258 4374 3935 4993 3849 4450 9 3711 2960 2983 2959 3651 4149 19 2524 2901 4013 4251 4476 2730 4703 2720 2819 3620 4865 2532 2504 3311 3872 3416 4758 3241 4181 4807 2724 3007 4 23 3 17 33 3 31 35 3 22 3 8 32 26 13 34 15 29 16 18 1 28 22 0 25 5 36 26 20 4 9 38 22 33 8 29 22 2 29 19 30 10 15 15 16 22 35 29 26 23
2575 3778 17 3300 2633 3701 4967 3584 5 3722 4497 4572 4787 4267 4693 3455 4366 2536 4995 4653 13 4651 2931 3384 4146 2918 4391 4968 2881 4680 2652 3759 3903 3134 4062 4835 4682 3952 2769 3129 3233 2557 4138 2879 3359 3550 2792 2931 3335 4067 19 7 31 7 15 23 11 11 2 25 29 7 3 33 12 20 10 21 29 29 4 24 20 33 0 15 9 8 32 2 31 30 9 15 3 15 5 4 18 23 22 13 10 39 19 36 17 18 26 5
3234 3256 2743 3583 3647 4750 3536 2922 2746 4252 2835 3381 4058 4684 4231 3307 3067 2936 3984 2693 4259 2649 3583 4550 3620 4299 2874 3210 3131 3448 3930 7 4773 4694 4148 3194 3680 2836 2892 3819 4668 2605 3849 4558 4471 2812 4321 4638 3934 4729 32 15 5 14 39 38 13 34 3 35 22 5 7 38 30 37 5 26 10 13 30 38 37 10 16 0 16 31 26 28 37 24 17 21 36 3 22 28 24 36 19 8 21 15 13 11 37 12 15 25
2885 16 3689 3756 7 4623 4730 4260 4282 3312 2932 4590 4928 2662 3601 3378 4171 4916 4845 4131 4798 3613 3859 2818 3399 3567 3811 4331 2805 3812 2647 3741 2956 4608 3646 4398 3769 3011 2562 4631 3629 3689 4713 2816 2810 4104 2818 2836 4540 3147 30 9 16 21 5 38 1 6 12 28 10 8 10 10 3 2 13 31 18 2 37 18 22 24 10 30 0 39 15 22 32 10 5 39 13 20 3 10 3 26 22 30 13 13 18 28 23 22 3 37
4018 19 3617 3358 4900 2875 4401 4502 2992 2886 3319 3866 3716 4180 4473 2654 3635 2600 2831 4914 4718 4303 4295 3992 5 3911 3611 4991 2731 2825 4025 3317 2666 2800 2632 4908 3613 4707 4321 4460 3716 2754 4040 2789 3341 3947 3507 7 4094 4412 10 9 37 13 6 20 24 34 17 11 11 9 15 29 36 28 28 9 33 11 16 17 4 6 13 32 30 0 8 22 38 31 14 8 39 31 37 8 3 29 17 25 1 3 14 37 13 36 19 17
3874 3508 4216 4374 4754 4250 4272 3063 3926 4927 4220 4034 4891 3520 3334 3360 3258 3898 4337 4869 3926 3698 4232 4111 3833 4545 4351 4275 2770 4381 4965 3386 4056 4020 4898 3939 2526 4328 3056 3253 3185 4597 3724 3336 4514 4248 3078 4014 4801 4333 33 5 18 15 5 16 2 10 25 15 18 32 1 24 27 22 14 13 15 29 39 6 34 8 15 21 29 17 0 24 30 17 35 23 18 14 2 36 2 13 35 22 18 26 8 16 12 20 10 28
3580 3489 4913 3564 3862 3555 4196 2867 3682 3483 3063 4618 4216 2636 2930 3971 3827 3872 4952 3409 4560 2906 3197 2855 3490 4973 3709 3862 3616 3895 4103 3935 4939 4908 16 4881 3510 4450 3878 4180 4048 4653 3822 3701 4214 4442 3839 3013 2578 3263 21 34 10 14 30 13 38 24 29 5 35 16 28 30 5 8 39 28 33 10 37 5 37 19 13 11 28 37 32 0 31 29 7 39 29 6 11 10 6 1 8 13 10 25 15 14 5 26 23 17
3084 2719 3873 4778 4877 4203 2524 4381 3162 2896 2754 2627 4595 3554 4149 2527 3018 3436 2956 2924 3508 3818 2514 3461 2993 4722 3681 3258 3277 2723 4804 4754 2744 4288 2582 3102 3774 3916 4594 3036 4271 4753 3723 2880 4451 2758 4171 3134 3836 2599 4 5 38 28 28 10 18 12 37 19 21 28 35 30 17 18 33 9 17 36 21 34 8 15 5 7 2 34 7 29 0 28 32 26 20 28 34 11 3 10 33 36 7 38 38 7 13 14 39 16
4366 2857 3979 4561 4954 4128 4894 2695 2943 4411 2513 4253 4610 2618 3942 4348 4352 2945 3832 3367 2818 3713 3076 4146 3286 3988 3035 4003 4620 4388 4243 4098 3103 3624 2956 4010 2893 3831 4161 3658 3778 4177 4985 2937 3681 3038 3068 4880 4998 4058 3 13 16 5 30 15 27 16 16 30 16 21 26 36 38 14 17 17 20 32 29 36 30 28 39 7 3 11 8 20 24 0 2 10 32 38 27 35 9 33 33 8 29 5 16 25 12 9 37 25
3781 3626 4252 2678 2981 3126 4138 3727 2817 4701 4930 2944 4713 3523 2889 3927 4372 3531 4336 3474 3310 4137 4096 4352 4384 2868 4397 4166 4773 4177 4590 3802 4516 2947 3264 4128 3609 4689 3444 4950 2999 3260 3617 3014 3586 3452 3527 3192 4222 3761 30 6 6 36 11 26 33 34 35 10 10 27 36 22 37 13 22 21 6 14 17 4 5 33 8 27 18 22 5 31 21 12 0 5 22 17 1 9 5 9 23 18 35 8 16 15 5 4 3 2
3990 4083 4849 4138 11 4120 2895 3055 4022 3431 3045 3516 4471 2905 4233 3686 4461 3772 4131 3145 3217 13 4222 4569 3401 4600 4200 2533 4890 3908 4976 3077 3308 4912 3999 4390 2741 4292 3765 4065 4352 4283 4705 3246 4554 4044 4794 3121 4030 3834 12 7 32 38 25 28 31 35 25 36 10 36 12 31 9 2 5 32 5 17 13 2 31 5 11 13 21 26 8 12 22 5 38 0 23 12 15 8 18 31 32 16 30 34 18 30 25 18 28 13
4163 3469 3475 4145 4737 4392 3560 3239 3620 4941 4942 3008 3839 3034 4080 4628 3704 2560 2584 3455 3973 4586 2752 3620 2903 4956 4132 3044 4782 4691 4175 3359 2794 3726 3109 4669 3005 3192 4890 2677 3179 3011 4939 4933 4646 3998 4871 4557 4398 2929 2 31 39 29 6 33 35 14 35 17 29 35 23 23 39 31 33 16 12 37 12 2 15 34 15 15 18 1 38 37 10 31 23 39 0 30 29 1 23 13 24 8 18 39 27 31 30 6 31 33
3400 3297 2854 2717 3020 3714 3273 3102 2886 2790 3247 3167 2681 4592 14 4992 4694 3323 3122 4907 4291 3190 2644 4447 2601 2906 4864 3040 2793 3402 2640 3399 2592 15 3623 3122 4005 2842 3045 3957 4270 2853 4894 3398 3998 3543 4697 4636 4380 3043 39 15 33 8 24 11 18 13 9 2 2 9 27 14 31 1 5 31 28 12 35 28 14 7 24 23 30 35 36 24 27 21 11 6 35 0 1 39 4 5 30 14 1 24 18 4 10 23 9 32
3691 3078 4288 3946 4808 3289 2607 4324 4205 3653 4023 3621 3684 3734 4380 4116 3287 3393 4701 3710 4932 4639 2794 3585 2618 4804 3369 3506 3316 3104 4250 3497 3826 4749 4480 2613 4372 3832 3393 3266 4018 4384 4703 3273 3851 3861 4396 2570 4806 4881 28 28 20 8 14 9 3 29 30 5 35 17 7 33 7 3 34 33 7 25 19 4 3 6 29 13 20 16 1 7 2 38 31 8 14 36 0 18 7 27 34 25 11 28 7 36 9 30 25 20
4347 4606 4293 3417 3029 4217 4510 4908 4155 3849 4875 3984 4564 3346 3943 3492 3113 4453 3718 2652 4104 2702 4527 2805 3145 4109 2778 2989 2983 4300 4592 4307 10 2910 2941 3816 3730 3928 2546 2749 2555 4908 2955 3456 3281 2789 3516 4856 2865 3317 14 5 25 33 12 26 36 33 32 23 27 16 25 8 28 13 13 33 10 28 22 13 24 18 7 35 36 28 21 5 34 35 25 32 2 25 21 0 10 9 17 11 11 35 18 35 2 26 23 29
4165 4143 12 2875 3703 3084 3171 4258 3885 3259 3021 4339 3680 2777 2952 3764 2955 4172 4820 3472 4181 4634 2611 3390 4412 3146 2998 3587 3021 3431 3882 2931 4186 3119 3503 2701 2874 3284 3358 4086 2660 4765 3987 3723 4515 4949 4779 4397 3973 4748 1 6 3 28 16 25 38 28 10 10 13 5 10 29 2 11 14 38 37 19 31 39 32 29 16 3 11 37 21 36 1 17 6 1 22 33 28 27 0 22 25 10 25 14 29 34 22 39 1 37
4917 3684 4283 4792 2770 2852 3188 3592 3075 4046 3813 2555 17 3868 4233 4411 3838 2676 4295 2607 3955 4883 2676 4580 4320 3810 4194 4405 3195 3549 4368 3803 2597 2934 2915 3527 2609 2722 4362 4851 4451 3354 3400 3241 3473 3303 4885 3772 3030 3629 27 4 21 1 27 33 38 9 20 7 2 29 21 15 11 37 20 2 37 24 29 28 6 28 28 28 34 5 1 15 26 24 2 26 23 23 10 27 31 0 35 16 4 21 10 12 17 23 3 12
2643 4649 4303 4115 4427 3381 2723 3293 4969 3009 4992 4942 4061 3136 4032 3418 3135 4477 4261 2916 3521 2596 3042 3141 3579 4779 2708 4423 3329 3184 4813 3231 3297 4988 4300 4788 4445 3562 3871 4666 4643 4602 2827 4360 2503 3923 4966 2710 4357 4145 16 8 7 15 38 8 34 11 2 7 8 22 2 9 9 10 15 5 23 9 16 10 7 39 9 26 27 1 10 20 12 34 6 30 3 4 22 31 30 32 0 28 12 36 33 5 15 13 5 28
3861 4521 3844 4386 4917 3625 3957 3157 2691 4802 4428 3618 3125 4330 4947 2512 4373 3460 4444 3803 2703 4183 2554 7 2628 4400 3712 4812 2925 3447 2888 4342 3324 4174 2663 4437 4368 3317 4549 2825 2861 3894 4680 2767 3094 4624 4673 4251 4762 3578 21 25 20 38 21 28 16 6 6 10 10 22 37 13 31 16 15 20 9 12 6 28 17 38 2 15 30 13 35 37 11 34 32 4 30 4 20 21 35 11 20 0 8 19 13 19 1 37 29 8
3688 2597 4054 2965 3086 4572 4510 3901 4533 4891 3084 2709 3526 3743 2503 4472 3856 3788 4075 3533 4040 3522 3126 2952 2826 2693 4136 3368 4655 3141 2965 2886 3952 4485 3797 4031 2517 2679 3271 4390 4064 4279 4565 3406 4111 4970 4079 2587 3882 3701 13 22 16 5 30 21 26 5 27 5 12 6 8 6 10 15 1 24 23 12 28 2 31 8 18 20 11 30 14 36 37 23 36 25 17 13 33 22 14 14 39 24 0 24 1 6 25 25 17 18
4500 2979 3116 4601 4427 2597 4872 4403 3654 2917 2787 3985 4932 3667 4784 4217 3031 3999 3625 2832 4130 4407 3943 4158 4126 3120 4785 3105 4242 3842 2599 2977 4273 3438 2985 3069 3070 3401 4551 3208 3778 4261 4552 3561 4664 2930 2564 3536 3215 4048 38 33 32 32 18 12 10 1 36 15 37 31 36 2 37 4 4 11 31 34 19 4 15 1 28 38 11 8 9 21 8 3 16 4 36 32 32 9 18 32 29 17 28 0 10 2 33 29 24 10
3189 3641 3820 3092 4525 3345 3828 4823 2523 2628 2831 3367 4877 3783 3629 3133 4287 4996 3231 4790 2647 3010 3257 4171 3035 4891 2974 3916 4312 3990 2961 4869 3404 3007 2935 4035 3475 2856 4725 4464 3694 4596 4572 3963 3885 2508 3356 4357 3564 4669 36 26 12 12 11 25 7 39 14 10 24 19 8 30 33 15 18 28 9 36 18 22 15 34 6 34 23 25 38 32 20 5 3 13 9 32 5 17 4 29 2 19 14 26 0 34 23 19 2 27
4243 4460 3553 4941 4262 3918 3180 3652 4537 4953 4260 3117 4698 4505 11 3531 4787 4220 3850 4837 3532 3186 4446 2686 2740 19 3892 4477 3446 4557 2629 3466 4936 3758 4634 3917 3027 11 4754 2839 4431 4167 2593 4165 4008 4284 4422 2629 2736 3531 12 28 7 6 23 32 20 11 20 23 5 3 23 24 8 35 38 25 31 14 27 5 8 18 1 28 21 3 5 33 26 37 38 8 32 26 35 31 19 13 9 32 2 4 12 0 6 39 13 9
3642 4764 2904 4090 4457 3158 4811 4094 2857 4383 2990 2505 2531 4909 3147 5 3122 2805 2684 3262 2753 4515 3795 3690 3266 3548 3544 3737 2993 4827 4221 4989 2937 4021 4686 2510 4191 4261 4089 4917 4812 3079 4578 2784 3200 4126 3825 2964 2633 3774 20 39 26 36 1 22 16 9 13 27 20 19 15 11 16 34 4 19 36 31 39 39 35 1 11 26 16 2 6 21 1 8 38 37 33 9 38 10 5 34 39 35 38 28 2 35 0 27 37 8
4935 2936 3798 4885 3922 3776 3381 3893 4298 2678 2567 2541 4164 4177 4138 3804 3239 3514 4290 4975 2943 2944 2764 3844 3593 3623 3673 2678 4353 4449 3511 3898 4718 3503 4109 3962 4167 3302 4823 3798 4296 2770 3955 4889 2615 3048 3535 4915 4599 4654 3 9 13 10 11 28 29 6 30 31 6 26 37 20 7 9 3 25 20 22 26 7 3 21 3 18 7 20 29 16 26 31 33 9 11 12 2 13 6 20 20 4 9 21 27 22 32 0 37 39
4867 4378 2535 3063 4220 2704 2831 4579 2619 2646 4331 4780 4525 2880 2570 4107 3566 3435 4270 3001 4677 3990 2967 4841 4807 3704 3272 3365 6 4157 3799 3110 2558 2997 4331 4116 2788 3637 4971 4303 3683 4222 4224 3008 4172 3869 3835 2873 4056 4611 10 22 36 13 30 3 6 38 14 10 2 7 17 2 36 21 6 6 15 4 18 17 16 16 38 36 10 4 37 14 18 23 35 23 20 24 21 28 2 38 39 6 37 4 29 12 30 34 0 9
2891 2534 4655 3763 2744 4786 3271 4113 4172 3912 3598 3249 4978 3565 2788 4165 2781 4808 3391 4248 4610 4085 8 3104 3066 3656 4650 3629 3728 4458 3516 3687 4749 4326 4489 4076 2978 3580 8 4280 2878 3525 4933 3608 3123 4051 4004 3278 3119 2868 5 38 21 22 11 32 25 34 30 32 20 6 29 25 34 28 11 36 18 37 23 35 12 10 23 15 26 31 38 15 28 36 17 18 4 25 6 17 34 27 36 29 35 22 9 19 21 25 18 0
EOF
