NAME: christofides_hard_n50_s0
TYPE: TSP
COMMENT: christofides_hard generated explicit tsp
DIMENSION: 50
EDGE_WEIGHT_TYPE: EXPLICIT
EDGE_WEIGHT_FORMAT: FULL_MATRIX
EDGE_WEIGHT_SECTION
0 23 9 24 6 13 31 38 6 36 14 2 1 26 37 14 13 3 33 19 38 33 29 29 11 4873 3587 4442 2918 4295 3312 3823 3326 4678 4019 3945 3822 2721 4891 4910 4519 4125 4358 3023 3241 3272 3257 3487 17 2527
34 0 20 9 31 1 28 39 33 29 22 6 26 14 15 39 8 38 28 22 1 33 31 3 1 3233 3625 2964 4838 2991 4892 3447 3623 3340 4740 4852 3561 4012 3098 9 2977 2746 3105 2597 2844 4584 3434 3593 3490 19
10 25 0 14 24 26 5 35 24 6 30 18 21 37 27 27 28 30 9 39 37 28 13 2 23 3484 3181 2585 3583 2902 2831 3242 4979 3932 3874 2894 2747 2562 4628 4591 3575 4254 4087 3600 2893 2521 3488 3069 3744 3014
32 5 30 0 39 7 26 20 19 37 23 4 2 11 10 32 39 19 4 29 6 32 23 14 31 3743 3825 4549 4729 3739 2516 3256 3067 3169 4339 3269 3902 3680 4793 3160 3941 2577 3264 2998 2815 3945 4692 3176 3217 3329
3 34 8 34 0 18 30 10 14 39 23 13 32 20 6 36 4 23 18 24 13 13 1 38 21 3552 3146 8 2741 2979 2950 4684 3136 3693 4598 3467 3053 2918 4570 3475 4358 19 4935 2619 4383 3922 2787 4047 4850 3509
34 15 36 35 19 0 14 4 26 20 23 10 12 23 19 25 15 25 10 15 4 31 3 2 9 4605 4345 3609 2736 3583 3279 2577 4551 3044 4864 4287 4458 2776 2965 4979 3851 2554 2741 4977 2793 3240 2816 3652 8 3863
28 4 38 6 32 5 0 10 15 33 10 27 1 10 2 10 39 25 10 30 2 8 25 27 22 4339 3223 3115 3051 4211 2626 3699 4558 3073 4930 4514 2813 4162 4649 4617 4301 4960 4375 4094 3469 3992 2643 3244 4226 3616
2 16 30 29 4 37 25 0 16 37 15 14 21 1 10 17 7 31 16 22 27 4 1 27 6 4905 3753 4146 3460 3085 4791 3841 2850 2804 3031 4294 3504 4182 3353 3616 2724 2521 3926 2650 3893 4204 4769 4231 3281 3938
36 32 5 13 38 22 10 3 0 4 22 33 2 14 9 28 18 8 21 32 5 5 18 6 31 3647 3069 4674 4157 3147 2763 3580 4069 3946 3930 3853 8 2833 3047 2603 4311 4047 2952 3180 2893 3673 4081 2559 4151 2822
25 28 17 15 10 20 23 32 34 0 11 35 6 23 38 24 35 17 35 26 19 24 2 7 29 2754 4602 3155 13 2746 4962 4784 2755 2520 4564 3377 3108 2892 2956 3667 4445 4767 3107 4268 4847 3400 3939 2966 4668 4262
34 31 18 38 12 2 8 32 4 14 0 18 26 25 36 27 10 2 39 32 2 2 5 1 19 4163 13 3188 4300 4445 2612 3443 2932 3947 3299 2770 3666 2855 3923 4273 3905 3682 3857 3975 3915 3027 3543 3262 3197 2941
19 29 7 37 3 34 19 38 6 18 22 0 16 2 23 30 27 26 36 6 24 27 36 38 17 3795 2978 2804 4967 4373 2503 4882 3566 2635 4614 8 3338 3059 3615 3341 3232 2583 4464 4922 3466 3905 3623 2703 3099 3303
1 31 34 39 29 4 38 28 38 36 29 35 0 21 35 32 11 23 16 11 20 34 38 8 11 3527 4943 6 2650 4469 4794 3360 3198 2501 2694 3929 4061 3107 4740 4362 3416 4051 3366 2637 3155 3918 3278 3697 2668 4683
10 26 29 30 30 6 14 34 2 20 32 38 6 0 35 5 37 7 8 12 33 21 34 2 37 3763 4667 3353 4087 2915 4709 4305 4800 4733 3204 4517 3198 2838 3605 4783 4632 3522 4612 4786 4651 2709 3191 4959 4706 2741
29 26 14 15 17 23 30 7 33 39 27 29 33 14 0 14 36 5 28 32 13 14 37 8 13 2557 4363 3576 4286 4729 4392 3545 3111 4606 4369 7 3782 2746 2617 3570 2743 4183 3200 4998 4618 3292 3563 4753 3185 4867
28 13 29 2 15 28 36 5 21 2 8 26 20 38 33 0 3 34 30 9 9 34 34 1 1 3837 2690 3325 2893 3270 4333 2995 3568 3378 4982 2914 3008 3935 3013 3442 2891 2598 4073 3040 2941 3696 3712 3195 3142 4705
1 8 39 39 33 23 17 6 26 1 38 16 21 17 37 21 0 32 27 33 7 14 13 4 3 5 17 2834 4119 4653 4652 4850 4802 4058 3710 2820 3507 3197 2589 3152 3661 3252 4124 3372 3345 4835 2904 3193 3676 4999
14 39 29 17 32 27 4 12 23 6 15 8 6 1 16 27 26 0 39 5 4 4 7 19 32 18 3461 3894 2677 3642 3487 4987 3936 2907 12 4088 4672 2998 2953 3546 2669 4368 4777 3742 4136 3401 4865 11 3788 4680
25 25 11 37 38 15 23 17 12 12 37 32 33 8 17 15 37 26 0 31 36 1 32 22 4 2610 3456 3453 2736 4472 3357 2559 2966 4571 4362 3667 4096 4089 3762 4407 2540 4483 4915 3853 2533 4513 3818 2694 3579 2656
37 34 28 31 16 19 34 22 36 18 11 3 39 13 6 36 15 24 38 0 4 38 22 21 25 3154 3995 4724 4975 3357 3369 3912 4316 2826 3447 2631 4224 4600 3995 14 3603 2838 4147 4142 3434 3037 2764 4452 3064 2686
23 32 39 23 1 8 26 38 6 12 7 29 33 27 35 37 24 30 5 16 0 9 2 20 26 4596 2577 3870 3448 3720 4667 4375 2836 3857 2513 2795 3705 3483 3622 3763 3594 2909 3074 2852 4275 4541 4629 4115 6 3201
29 1 12 3 15 1 38 23 8 31 24 3 27 13 5 15 1 36 3 26 28 0 16 20 36 4814 3285 4291 3483 2691 2770 4851 4854 3482 4535 4070 7 2938 4515 3803 3702 3051 4551 9 3522 3264 3711 4992 2822 2772
31 27 24 27 12 28 5 22 18 19 24 38 31 23 14 16 33 4 34 8 19 39 0 38 38 2548 13 3935 2958 19 3238 4764 4650 4059 3753 2945 2722 4558 4321 4713 3610 3880 2706 3947 3711 2976 3613 4354 3959 2982
26 1 20 4 7 27 36 9 29 26 25 9 37 16 20 13 33 10 10 31 38 12 14 0 36 3585 4630 4002 4019 11 2784 4973 4966 3894 2731 3601 3042 4280 4971 4784 4444 2557 4667 2590 3814 4943 4591 3865 4562 2629
1 8 18 35 1 6 3 12 7 39 19 2 3 33 28 7 38 21 32 38 19 5 37 15 0 3444 4150 3374 2741 3712 2765 3642 3506 4169 4159 4200 4550 3642 4634 2626 3466 3358 4950 2589 2848 3792 4176 2616 3079 2574
4873 3233 3484 3743 3552 4605 4339 4905 3647 2754 4163 3795 3527 3763 2557 3837 5 18 2610 3154 4596 4814 2548 3585 3444 0 20 20 17 26 22 14 13 10 2 36 25 1 2 39 39 6 37 10 37 29 10 30 36 21
3587 3625 3181 3825 3146 4345 3223 3753 3069 4602 13 2978 4943 4667 4363 2690 17 3461 3456 3995 2577 3285 13 4630 4150 27 0 1 38 9 17 9 38 35 6 18 2 30 35 36 25 16 39 37 38 27 21 24 14 18
4442 2964 2585 4549 8 3609 3115 4146 4674 3155 3188 2804 6 3353 3576 3325 2834 3894 3453 4724 3870 4291 3935 4002 3374 16 18 0 2 13 1 11 20 19 8 16 15 11 30 3 2 38 24 23 21 14 13 33 15 19
2918 4838 3583 4729 2741 2736 3051 3460 4157 13 4300 4967 2650 4087 4286 2893 4119 2677 2736 4975 3448 3483 2958 4019 2741 36 33 11 0 7 39 6 21 10 31 34 27 30 20 13 1 37 22 34 15 16 13 24 14 39
4295 2991 2902 3739 2979 3583 4211 3085 3147 2746 4445 4373 4469 2915 4729 3270 4653 3642 4472 3357 3720 2691 19 11 3712 16 28 12 8 0 19 24 28 35 24 21 19 19 2 30 39 18 14 25 18 1 26 30 11 38
3312 4892 2831 2516 2950 3279 2626 4791 2763 4962 2612 2503 4794 4709 4392 4333 4652 3487 3357 3369 4667 2770 3238 2784 2765 16 33 29 32 24 0 19 25 29 33 20 31 5 12 2 18 14 31 33 13 19 34 5 24 2
3823 3447 3242 3256 4684 2577 3699 3841 3580 4784 3443 4882 3360 4305 3545 2995 4850 4987 2559 3912 4375 4851 4764 4973 3642 1 21 38 10 26 25 0 27 12 23 18 15 6 11 16 4 23 18 21 11 4 4 34 5 28
3326 3623 4979 3067 3136 4551 4558 2850 4069 2755 2932 3566 3198 4800 3111 3568 4802 3936 2966 4316 2836 4854 4650 4966 3506 35 6 37 5 6 7 7 0 16 6 10 15 9 5 25 24 5 7 9 22 36 17 5 2 9
4678 3340 3932 3169 3693 3044 3073 2804 3946 2520 3947 2635 2501 4733 4606 3378 4058 2907 4571 2826 3857 3482 4059 3894 4169 22 36 3 31 20 18 14 38 0 16 13 18 24 10 8 34 18 18 10 38 29 38 8 2 35
4019 4740 3874 4339 4598 4864 4930 3031 3930 4564 3299 4614 2694 3204 4369 4982 3710 12 4362 3447 2513 4535 3753 2731 4159 33 35 11 30 2 35 39 12 15 0 3 20 36 20 23 36 2 15 31 26 13 21 38 34 39
3945 4852 2894 3269 3467 4287 4514 4294 3853 3377 2770 8 3929 4517 7 2914 2820 4088 3667 2631 2795 4070 2945 3601 4200 3 24 38 36 24 14 2 11 30 29 0 9 22 29 1 10 14 37 1 4 13 37 19 7 15
3822 3561 2747 3902 3053 4458 2813 3504 8 3108 3666 3338 4061 3198 3782 3008 3507 4672 4096 4224 3705 7 2722 3042 4550 25 21 9 2 27 38 30 9 1 4 30 0 24 21 27 20 13 3 36 24 7 27 7 37 33
2721 4012 2562 3680 2918 2776 4162 4182 2833 2892 2855 3059 3107 2838 2746 3935 3197 2998 4089 4600 3483 2938 4558 4280 3642 5 18 4 22 31 30 16 19 25 35 3 9 0 5 20 1 7 18 10 17 24 30 24 31 15
4891 3098 4628 4793 4570 2965 4649 3353 3047 2956 3923 3615 4740 3605 2617 3013 2589 2953 3762 3995 3622 4515 4321 4971 4634 24 1 36 18 5 11 2 39 26 23 17 35 17 0 27 28 4 9 20 22 38 37 21 13 6
4910 9 4591 3160 3475 4979 4617 3616 2603 3667 4273 3341 4362 4783 3570 3442 3152 3546 4407 14 3763 3803 4713 4784 2626 24 30 25 31 36 29 31 26 32 34 25 17 26 14 0 2 35 21 4 8 38 32 7 17 14
4519 2977 3575 3941 4358 3851 4301 2724 4311 4445 3905 3232 3416 4632 2743 2891 3661 2669 2540 3603 3594 3702 3610 4444 3466 35 32 10 5 37 15 3 26 35 13 27 33 27 12 31 0 24 7 14 38 5 22 11 8 32
4125 2746 4254 2577 19 2554 4960 2521 4047 4767 3682 2583 4051 3522 4183 2598 3252 4368 4483 2838 2909 3051 3880 2557 3358 12 13 20 14 1 35 27 36 23 23 39 5 33 11 31 31 0 8 15 16 37 38 15 1 39
4358 3105 4087 3264 4935 2741 4375 3926 2952 3107 3857 4464 3366 4612 3200 4073 4124 4777 4915 4147 3074 4551 2706 4667 4950 30 26 18 11 29 22 32 32 27 10 37 12 36 17 19 15 25 0 37 2 26 9 24 28 37
3023 2597 3600 2998 2619 4977 4094 2650 3180 4268 3975 4922 2637 4786 4998 3040 3372 3742 3853 4142 2852 9 3947 2590 2589 20 16 33 27 38 7 26 33 26 13 29 19 21 2 17 6 29 32 0 32 27 7 1 30 30
3241 2844 2893 2815 4383 2793 3469 3893 2893 4847 3915 3466 3155 4651 4618 2941 3345 4136 2533 3434 4275 3522 3711 3814 2848 21 25 17 37 14 37 20 17 22 5 14 17 15 16 24 20 34 10 31 0 13 2 3 27 30
3272 4584 2521 3945 3922 3240 3992 4204 3673 3400 3027 3905 3918 2709 3292 3696 4835 3401 4513 3037 4541 3264 2976 4943 3792 34 11 8 27 16 11 15 33 1 10 31 5 2 31 30 9 22 7 28 23 0 31 3 17 22
3257 3434 3488 4692 2787 2816 2643 4769 4081 3939 3543 3623 3278 3191 3563 3712 2904 4865 3818 2764 4629 3711 3613 4591 4176 4 1 36 17 38 17 38 4 30 4 1 23 15 1 37 29 13 15 5 11 17 0 38 35 1
3487 3593 3069 3176 4047 3652 3244 4231 2559 2966 3262 2703 3697 4959 4753 3195 3193 11 2694 4452 4115 4992 4354 3865 2616 19 25 12 1 29 15 6 13 19 4 22 31 20 23 26 4 4 39 12 5 17 20 0 17 2
17 3490 3744 3217 4850 8 4226 3281 4151 4668 3197 3099 2668 4706 3185 3142 3676 3788 3579 3064 6 2822 3959 4562 3079 23 16 34 20 37 34 11 27 13 14 21 8 28 2 17 13 12 3 2 7 17 26 7 0 8
2527 19 3014 3329 3509 3863 3616 3938 2822 4262 2941 3303 4683 2741 4867 4705 4999 4680 2656 2686 3201 2772 2982 2629 2574 37 15 5 1 34 36 32 33 20 4 4 27 32 20 27 33 34 7 8 8 14 38 29 9 0
EOF
