NAME: family_A_random_n125_s0
TYPE: TSP
COMMENT: family_A_random generated explicit tsp
DIMENSION: 125
EDGE_WEIGHT_TYPE: EXPLICIT
EDGE_WEIGHT_FORMAT: FULL_MATRIX
EDGE_WEIGHT_SECTION
0 3638 3919 5900 1961 3970 969 1517 3643 4916 7982 8865 6356 7993 5027 5116 6872 7070 4573 6348 4234 5750 5635 335 3061 4395 6125 3198 4825 8403 6201 5689 2501 5127 207 5972 4085 5571 7336 6254 6573 1133 2346 1334 506 7103 7502 8198 5729 5313 8350 5636 3953 6272 4044 5213 2490 4905 7894 7587 6441 4077 4339 4792 7193 1035 3263 7162 5661 3068 5586 4185 2273 7180 8310 7453 4812 8171 3690 6206 6765 6180 2723 3273 8493 6063 4457 6407 5678 4797 2848 6448 2065 3517 7236 4602 1804 3227 1987 6757 4470 7750 2266 5999 5103 7308 4875 4591 6864 4601 7787 4497 4484 4310 6726 5295 4426 5661 7241 3178 3807 4318 7803 4497 7934
3638 0 4110 7382 3402 8452 6988 6750 1404 8628 5530 4374 3062 3367 2584 6754 3211 5598 8064 6569 3278 2810 8105 5214 2740 5065 3604 7317 4997 6205 6338 5525 9630 2006 5120 8691 4397 6780 6894 4396 6315 3077 6254 4207 5156 4406 4614 5352 4378 5624 5703 3780 2732 2039 8337 7966 6806 6621 9193 4790 2741 2654 8472 3350 7923 6661 7170 3013 1472 7423 7771 6022 5074 4058 4346 3320 7085 3152 3188 8323 8435 937 7376 6699 3057 4999 3096 7887 7166 4865 6571 3867 3906 6424 4584 4903 6320 4309 3289 4889 7147 6085 223 2034 5180 2224 3129 7889 9163 3713 2133 4066 5484 6803 1161 7920 4140 3427 6874 6233 7470 1248 3210 5433 1411
3919 4110 0 7247 3636 3325 2146 1769 4818 2191 4965 7382 5545 2850 8108 7451 2886 4553 7100 4525 5270 5378 5645 7889 6585 4246 6455 8150 5132 1959 581 6056 4363 5759 3000 5107 9528 2543 6390 3465 3800 9273 4874 2603 7540 8669 5294 2519 6979 8765 1838 1836 5366 5334 2794 428 5971 4681 2940 3108 7785 7277 4064 7243 6847 4948 1203 5281 4042 1994 2419 6446 6807 6628 1572 3724 7343 7693 8333 8624 2511 5455 8799 1736 4243 9147 4434 8916 1022 5807 5171 4671 3370 7877 7114 4465 5286 4663 5565 5628 4597 5113 5510 3703 6015 5671 7797 9236 6400 4597 5847 9158 9083 5600 6185 3213 2184 6048 1184 6869 5927 5636 8105 2752 4771
5900 7382 7247 0 4519 6806 1385 6432 7006 8483 6063 2512 4308 6780 9380 1016 6995 6626 3890 2843 4544 6229 9393 3783 6231 6964 3816 6546 5578 4235 5528 4819 1276 3652 3806 9596 3260 7553 9479 3511 999 5380 6060 6399 5127 5805 3634 4754 5915 8269 3539 3926 5957 4514 5195 3217 6785 7269 4626 5339 5550 4556 8848 1451 6391 6563 8595 5111 4337 4086 1347 3570 4950 1441 8390 3384 4148 5812 5850 1873 4271 4075 3562 3371 4963 1634 7928 907 2946 7191 6817 8264 6255 5314 759 544 7030 4292 5784 4029 4520 4773 7437 3722 5362 5854 1815 1728 8078 4098 8035 6187 7252 7080 8361 2410 5365 5687 3656 6355 6629 8922 3360 7591 7826
1961 3402 3636 4519 0 7912 3296 7382 2800 3037 1299 4663 1603 6242 6644 3965 7962 8204 5629 8624 6354 6836 6873 2755 6668 5023 5389 2731 6890 4946 4279 3258 6037 4992 5958 2755 4988 4287 2635 2304 4095 5574 2077 5977 4889 3515 4109 6157 6329 6050 290 9074 1379 6781 2136 6096 5454 8268 6943 7666 2127 3722 3278 7829 6893 7687 3436 5285 6214 7701 4413 3961 8214 6339 2240 4027 4070 5173 4853 2327 5071 3365 6430 1933 6116 5652 110 5876 7582 2533 2768 4484 9510 1750 2609 8505 4168 7460 4920 4778 7264 5006 5495 4077 6268 2245 749 8132 4320 3736 1859 7786 7351 5554 4372 8705 2614 9273 2528 6507 7503 3580 2941 3926 7877
3970 8452 3325 6806 7912 0 2401 5518 8339 5919 3179 9682 4739 9530 8613 2165 5303 1727 4415 7126 8466 5889 1688 5171 3540 5791 2347 3227 2773 6420 4037 5718 6403 5216 3127 3463 7935 5918 4205 3021 7286 7415 1018 4231 3260 3687 5483 5812 4814 1756 3310 3942 5698 6228 2848 6736 293 4514 6359 5581 7600 8818 7521 8488 5352 6326 4681 5851 4709 2240 4140 4805 6813 7065 6406 5064 4725 3640 1676 4196 5360 5691 4196 7272 2828 4671 3100 4001 6127 3730 7462 2287 4902 4584 3929 8750 4442 2049 4975 8707 4955 5393 2480 1209 3285 5441 4659 2370 5265 4105 1563 3085 9304 9880 1848 6751 6932 3018 3608 6044 2251 7679 6966 2865 7575
969 6988 2146 1385 3296 2401 0 6077 4625 2516 8993 971 6620 2642 6316 8128 2304 5460 4747 4568 4850 5609 4029 6262 1712 6795 4824 8697 883 3493 4260 6868 5271 8762 8803 6385 3884 6078 6721 5531 1199 1520 3084 4480 9679 1938 7418 3244 8864 4340 6970 3074 5269 8023 5727 1734 5445 2161 8732 3107 6948 8953 4971 5222 6120 7978 4789 1536 5909 3129 4492 9004 7568 8388 8659 7510 4924 7733 5703 6253 2520 6674 6114 7000 4588 6741 4865 7021 3597 5411 5295 5662 9887 2822 3158 6987 5914 1488 5500 4034 3262 5396 3256 4065 2936 4947 5744 606 1585 5968 5849 6459 2871 6978 7232 7147 5198 7268 5253 7207 5785 7508 5083 6137 5990
1517 6750 1769 6432 7382 5518 6077 0 2287 6302 9434 4319 7585 5519 5324 3142 6385 5662 3028 8781 3138 6460 6258 1604 1043 2985 5587 6937 9155 4623 8347 2052 3241 4726 7180 5256 3820 1626 9123 6706 4497 4046 4088 6738 8589 6376 7584 1674 2545 5845 1467 4919 3299 572 5666 1028 7854 4997 1268 5467 1777 4953 5723 3962 8423 4407 3806 3282 4251 5412 5726 1444 5211 6644 2903 5586 7542 5764 7602 7930 5389 6307 2992 5351 5987 3812 3925 5138 6048 6877 5157 6835 2096 6569 7116 5143 4142 5489 3822 3624 2812 5349 3773 4138 3137 7423 4012 7097 6020 2414 4358 6912 7177 7237 3876 7884 2899 4945 4237 7289 9670 1863 5337 5458 7178
3643 1404 4818 7006 2800 8339 4625 2287 0 2732 6575 3543 5218 2941 5293 8696 5322 8489 7037 7529 4792 5357 4285 2637 6220 6457 1570 4034 4665 3153 4999 5279 3358 3013 4147 5877 3729 4785 7082 1817 5072 4188 2669 7336 4536 1390 3340 3546 3249 2820 4773 7219 2310 5933 1662 3652 3531 7789 6861 3888 4966 5469 5800 6088 4002 8465 6037 2562 8796 4765 3104 3075 1753 3746 4783 6354 2769 5057 1758 4080 1835 6788 1131 4051 6043 3064 3947 6941 2437 4016 6621 3624 4581 3037 3986 6557 4547 3246 6442 8867 9107 4242 6516 4237 5575 4408 4643 2895 2883 4573 5180 4853 5697 6267 4747 2004 4400 6462 6409 4950 6757 3693 7968 6340 6636
4916 8628 2191 8483 3037 5919 2516 6302 2732 0 4586 2156 4719 1557 2001 6772 4882 3196 6455 5091 2783 4460 1969 2237 1230 4204 4252 5552 7911 5667 4834 3001 2319 4622 5562 4236 5114 7526 5149 2747 3650 6039 3569 5086 4132 2227 8876 6939 3589 6569 1386 5270 5267 6666 3807 7746 5106 7020 6481 3647 4772 3699 6112 6126 7788 5619 6901 4190 7908 1667 3065 4099 7625 2794 4895 6398 4046 6065 5726 7045 7561 4676 3530 5393 5313 3122 6797 6877 1419 5242 6280 6407 2888 5019 1424 7975 6675 6718 5239 6471 4960 1663 5399 3935 4590 6280 5789 8937 5060 3006 1483 7527 1689 1784 4783 4762 6150 7599 5778 4499 3568 6000 5661 6783 4417
7982 5530 4965 6063 1299 3179 8993 9434 6575 4586 0 3636 5825 9036 4609 524 8262 2905 6997 2320 879 5499 1272 3602 9688 6159 3773 1973 4751 5345 4457 4175 5817 4413 2724 8495 8493 5545 1992 8647 9164 4043 3428 5232 5527 5650 6154 3934 3478 5229 7852 4651 4175 4988 7936 7598 2803 1966 4579 6261 6610 8302 9466 3723 3380 1804 2982 5116 7744 4998 3974 8035 9656 5048 3008 8121 3719 2432 4963 3759 5665 2625 2842 2562 3618 5018 5966 2245 7252 2525 4201 8112 3193 7171 7413 6806 8702 368 5262 5294 4737 1509 4843 3820 7932 2909 4804 4366 7767 7124 6211 2268 6420 5863 3799 7110 4309 6375 3256 1197 7239 1479 3510 4266 3435
8865 4374 7382 2512 4663 9682 971 4319 3543 2156 3636 0 7997 5047 6816 5516 5621 3576 5507 2454 2243 4617 5487 6997 5009 8723 6838 5280 1467 6706 4085 6620 5115 5425 2940 1110 5604 4584 9631 6116 1071 4914 6787 6035 5842 4011 6519 1486 6213 5905 7001 5843 3192 1333 6789 4759 7410 5627 8430 6277 8029 6890 7961 6703 2875 4650 3259 8913 4015 9407 2245 5108 4648 5025 4338 8143 8058 7579 9018 5813 1330 8781 6946 5565 2707 3601 8077 4774 2426 7403 8307 4897 4516 2075 9066 2770 6727 4844 8651 6591 4624 8593 1807 5649 7997 8246 5587 5577 5271 7927 3609 3544 1596 3889 3305 6825 5471 5418 7859 5117 4899 6550 6057 5471 4691
6356 3062 5545 4308 1603 4739 6620 7585 5218 4719 5825 7997 0 4540 6077 2159 5806 7962 3570 7736 8203 2800 4605 5649 1938 9489 4317 8813 6175 1851 1391 7436 1677 1445 7177 7316 3656 3875 4026 4377 5215 5482 4688 2979 1620 2751 6973 7945 3184 4093 5335 1813 9433 6004 7464 185 2128 1863 3387 2569 4785 3985 5087 3003 5550 6680 6309 2744 5171 5505 7398 5286 4118 5761 5142 3259 4832 2423 4154 3150 2623 6027 6335 4679 2630 4950 5184 4936 5492 6808 2974 2121 4354 1068 6665 5055 7757 4586 5683 6609 9059 4408 3189 3764 3281 2383 6986 7002 4511 4673 4134 5363 4541 2140 3654 5910 4994 3447 6167 3922 4735 1967 3916 5048 4585
7993 3367 2850 6780 6242 9530 2642 5519 2941 1557 9036 5047 4540 0 7961 6406 4334 5081 5581 1316 5919 2499 6521 8654 7158 5620 1572 3401 3386 4996 4885 2449 9026 3197 5660 3169 4811 5474 8654 1676 1818 3022 4222 2817 5043 6404 4626 4915 3434 4362 4415 256 3109 4761 3976 4253 3046 1549 3492 4457 5446 4255 4771 3740 1324 7888 7603 4114 8113 3919 5267 4693 7262 7948 7485 3491 989 5855 6778 2997 7211 7215 5740 2142 6192 6475 666 1886 4315 4293 5290 6097 3525 6541 2061 5307 2878 3476 6389 7822 5280 4759 2108 7200 4622 4209 6009 6046 7746 886 6281 8045 5373 4750 5752 2344 6783 2027 4582 6039 1478 5804 891 5281 5056
5027 2584 8108 9380 6644 8613 6316 5324 5293 2001 4609 6816 6077 7961 0 7688 6805 6497 9870 6975 2886 3021 6828 5461 7814 6410 4639 4079 8394 8125 6347 4758 6870 2519 4430 2690 6530 1666 6088 5325 4742 7720 3348 2473 5924 6353 4982 6493 3931 4672 6082 7300 7133 3288 6624 7181 2582 6008 7324 7260 4739 7837 5924 4445 4074 5445 4763 5552 8727 3162 7697 6937 5417 6336 7681 4911 7154 4577 6566 2364 4526 2917 6322 3235 5750 4328 8868 6689 7230 5112 1063 5203 5003 3190 6672 3492 7210 3747 8326 2288 4773 1277 8007 5991 8484 7124 5654 2870 5455 8275 4691 5566 2866 7860 5546 2828 7694 3801 7606 7630 5264 608 8839 3905 6271
5116 6754 7451 1016 3965 2165 8128 3142 8696 6772 524 5516 2159 6406 7688 0 3122 5846 7784 1831 4123 6563 6727 3423 736 5039 8149 3955 4618 6991 5557 1434 3843 5150 4682 1228 7607 5944 5479 6223 4317 3766 5517 4490 2717 2220 8673 6491 2901 5762 8280 7348 6286 3974 1839 5007 4791 9278 2504 2637 6706 3495 4230 2606 4849 4471 4634 4611 5183 5749 3231 5194 7353 4225 4772 4819 6227 5484 6201 5452 7440 1528 8083 4927 2744 7745 6065 4841 5780 5108 8891 7583 2744 3903 1777 2165 6990 5193 2630 8055 3808 2834 3770 4688 4800 4897 7002 4347 2659 2167 4372 4617 1143 2699 5994 4776 4866 4734 5012 3819 2742 4221 3710 2327 4968
6872 3211 2886 6995 7962 5303 2304 6385 5322 4882 8262 5621 5806 4334 6805 3122 0 878 2940 2563 3575 592 2298 867 4415 7382 1922 3718 7089 3231 4165 4627 7944 4481 6826 4851 6062 7463 3048 7477 9071 6628 2716 4105 5089 3321 8628 8015 8919 6437 6745 6786 7187 1118 8686 1173 5662 4401 4728 4959 3466 2667 2487 3966 6088 4928 3483 3683 4477 3515 3297 2027 6110 4526 5441 4120 6846 7640 5647 4890 5868 4621 3810 2284 9278 2072 3376 4681 3365 6821 7570 5507 3279 6268 2623 3424 8935 4682 4709 5532 6744 4258 6428 2510 1534 2352 6963 5180 5082 4643 5393 8895 7691 3179 4803 7966 6492 4635 4579 8460 7303 4935 2267 5787 3028
7070 5598 4553 6626 8204 1727 5460 5662 8489 3196 2905 3576 7962 5081 6497 5846 878 0 7768 7850 8295 1291 5310 5998 5929 9342 6164 6019 4959 7755 4517 5660 2810 8585 4655 4949 5030 5290 1080 2258 2120 5110 8919 4215 5918 5020 3635 1928 2603 6186 7162 6579 6272 3245 9466 7029 3092 6446 5146 5919 5472 4432 5797 5139 1832 3197 4742 8299 2512 4625 7687 6220 6050 5679 2597 5238 3715 8861 5494 4948 3648 9565 1832 3025 8351 6621 5256 7994 747 2658 6323 9307 4688 5495 3103 3481 4448 7485 2835 4621 8270 5826 6788 7109 3530 4893 4374 3191 4293 4407 4717 3918 4917 3587 5696 7276 2909 4948 3579 7200 3157 1258 3968 7219 6000
4573 8064 7100 3890 5629 4415 4747 3028 7037 6455 6997 5507 3570 5581 9870 7784 2940 7768 0 8832 5446 1180 533 3042 1118 3889 9373 8201 6311 5188 4987 473 3551 3152 4645 5720 8286 4430 2367 6138 4879 3860 7228 4951 5294 4730 4803 1623 3856 4803 2566 3150 6102 2100 5359 3359 5643 6711 4953 3279 4009 3836 8595 3591 5583 4937 4339 7253 6668 1001 5736 6611 7020 5602 1937 3845 7811 5980 4386 5387 7529 3747 5142 2578 5818 5458 7472 1824 3464 4674 1132 6896 4297 5566 4995 5118 2444 5677 5627 4256 6892 3481 2219 9064 5612 2406 4088 5673 3114 5918 8187 8375 4354 365 7726 1586 5473 3952 4981 8716 6954 3865 3572 5285 4925
6348 6569 4525 2843 8624 7126 4568 8781 7529 5091 2320 2454 7736 1316 6975 1831 2563 7850 8832 0 5696 7319 6636 7935 2552 4988 2282 3269 3347 858 4262 6301 2896 6595 5071 7735 4215 5259 8433 7180 1678 5425 2727 3256 2195 2260 5228 3445 7511 4333 7568 4825 6326 3094 4704 3613 4265 4658 4115 7181 3543 4866 8207 4927 4707 4748 757 3334 3972 4184 6792 3835 4850 2172 7712 3648 3823 5601 4263 5282 5475 6182 3849 3756 5251 5272 5932 2207 2092 5679 6313 4001 7015 4331 8603 7991 6818 7460 6009 6299 5767 4577 4870 3599 4134 7408 6657 4321 4440 6726 6155 6270 3300 4909 6694 7149 2515 1923 517 3690 5385 8035 3640 5081 1548
4234 3278 5270 4544 6354 8466 4850 3138 4792 2783 879 2243 8203 5919 2886 4123 3575 8295 5446 5696 0 4054 5915 3349 4373 5484 5751 6290 4601 8378 5024 7547 6507 4526 1718 4145 6512 2931 5909 4327 8719 5599 4651 1198 6275 5455 580 818 2522 6030 2150 3929 4702 972 5504 5813 1294 4450 6011 2681 5795 5420 5466 5162 6632 4248 8447 8043 6698 2423 206 5451 7590 4650 6592 9464 1543 3871 2615 3104 8665 3298 2412 3571 2743 3366 7807 9717 4664 2690 5828 4924 7988 5313 4067 7148 3903 6500 3312 6402 3624 4021 1730 2355 9814 5772 2143 6485 4144 4334 7393 1955 3674 6988 7133 4440 2555 3730 8020 3656 8002 5389 7540 9321 4745
5750 2810 5378 6229 6836 5889 5609 6460 5357 4460 5499 4617 2800 2499 3021 6563 592 1291 1180 7319 4054 0 5606 6628 5122 2895 2418 7322 3273 4775 2000 5771 1721 5915 7177 5206 6150 8042 4372 1893 3563 6746 7324 3480 3606 5009 8034 1952 6797 7021 6798 5591 4327 5093 3221 4237 5466 5591 3527 7727 5519 7661 7086 1180 479 5136 3945 8793 5640 3830 2936 5153 2871 2176 2198 3800 7475 8321 688 4191 5610 5120 6284 4444 5124 5438 1647 4532 3707 5353 4435 7669 4139 7142 1853 4499 3110 3580 4406 7154 2348 5645 4053 4574 7630 7875 6361 4686 8244 3767 2655 4457 4722 1988 7793 7165 4620 2482 7351 3851 5142 4881 6833 4171 3887
5635 8105 5645 9393 6873 1688 4029 6258 4285 1969 1272 5487 4605 6521 6828 6727 2298 5310 533 6636 5915 5606 0 4379 3110 4285 807 7399 6147 4013 4384 7976 3104 7405 7106 7744 6296 4270 1616 8605 7054 7751 7431 2084 9196 3617 4969 6447 3949 5803 3753 8579 4876 3286 7834 5684 2421 6826 8621 6966 1412 6175 3456 7121 4106 4497 5420 4578 5602 5807 660 4779 4222 5153 2956 8590 1614 8350 3839 1158 4130 7663 6192 7634 3011 9617 6955 8247 6739 3099 6414 5390 4188 5221 6878 6845 6804 5010 8349 5232 3076 6316 799 5075 5938 3342 4339 8573 1965 4660 8240 5132 4923 4018 4716 4759 5864 2885 5475 2810 5423 6125 4551 5198 8530
335 5214 7889 3783 2755 5171 6262 1604 2637 2237 3602 6997 5649 8654 5461 3423 867 5998 3042 7935 3349 6628 4379 0 5895 6035 4271 4435 2584 3841 4082 1964 603 4316 7901 4040 5158 5326 5109 1687 2298 4021 5036 2924 987 3336 3618 5227 4952 7736 5514 3674 4909 3385 1075 2927 4913 5325 4566 4205 7373 7608 2381 6064 6072 4064 5667 8600 4513 6469 4994 6588 3091 6890 7626 4995 6309 3466 8079 3683 2971 7018 5701 3802 8056 6426 6758 7379 2855 8955 2631 2838 615 8240 3176 5562 6998 4312 4771 6875 2427 7223 4191 6168 6403 5081 8948 7231 7884 2605 2237 7968 8124 3705 4921 4338 5533 5900 6738 7656 6656 6404 3988 889 4177
3061 2740 6585 6231 6668 3540 1712 1043 6220 1230 9688 5009 1938 7158 7814 736 4415 5929 1118 2552 4373 5122 3110 5895 0 4234 3229 5729 7053 5896 4102 6237 5819 7921 1537 6748 5770 5108 6331 8900 4017 6678 2809 4812 5180 4997 7029 1149 5267 7335 5751 6709 6494 423 7313 2197 4893 6157 9125 3139 5618 4575 4891 5272 8834 3663 3282 5982 4648 2867 2705 8195 8100 6123 5380 5489 4309 5108 3074 9022 2717 5093 3386 1902 1081 7900 3459 854 3202 5587 6957 3990 7516 4043 4591 9244 3332 1578 8720 5446 6521 7177 2730 7808 3902 3317 2128 4603 4353 8710 4295 4030 4336 9827 6838 4649 4748 4433 5531 5851 1682 4255 6691 5389 8037
4395 5065 4246 6964 5023 5791 6795 2985 6457 4204 6159 8723 9489 5620 6410 5039 7382 9342 3889 4988 5484 2895 4285 6035 4234 0 3671 567 6091 4622 4912 3222 4565 2076 3483 5428 1480 538 7263 4779 6616 5227 3447 2737 5907 2845 4761 5693 7327 1722 2448 5198 2901 5996 4735 4567 8657 7980 7374 5645 3278 3239 5249 5932 5246 5114 2789 2486 7300 4361 9489 4838 6668 5124 4448 6752 3928 5401 7695 7203 5531 4461 5573 3361 8191 7715 4968 2080 3782 6051 2371 4236 5753 5767 5467 5141 4406 6725 6165 6402 4275 3932 6881 7312 4577 4880 3527 6059 3083 4164 6421 7754 8468 5415 5474 8667 3517 7341 524 2279 3127 4853 2086 6589 6310
6125 3604 6455 3816 5389 2347 4824 5587 1570 4252 3773 6838 4317 1572 4639 8149 1922 6164 9373 2282 5751 2418 807 4271 3229 3671 0 3672 2066 1296 3176 4276 7376 2509 5064 2516 7540 8284 4811 4095 657 2818 4189 4879 561 6720 3370 3459 1848 9434 3356 4188 2883 3799 6099 2089 6491 4979 3872 4206 5918 5634 8688 4220 4301 5750 9115 7260 5090 5913 2331 8927 7304 2000 4198 2997 6402 7702 3265 5614 4536 3704 4486 4919 7672 3824 7453 7061 8595 8396 1648 5349 8792 6939 4801 2345 4982 6081 4588 6951 5348 5350 6897 2109 5608 2071 7630 1930 3090 2592 6349 5964 5268 5479 4107 4583 3956 3038 6024 7743 6175 5482 3537 3459 8638
3198 7317 8150 6546 2731 3227 8697 6937 4034 5552 1973 5280 8813 3401 4079 3955 3718 6019 8201 3269 6290 7322 7399 4435 5729 567 3672 0 4085 5138 5288 6493 4775 5736 6014 5977 5723 6879 427 6587 5567 1171 4993 2140 9152 7136 7207 4065 8849 7029 5456 5281 1694 3210 3334 3770 6623 5510 3627 1949 4059 7725 5490 6725 8411 9035 4472 6787 7064 7480 8808 4123 6345 7989 3394 4320 6431 3997 1454 1938 7841 6133 2618 5572 5045 7891 7251 1486 2920 4940 3076 898 5180 6715 4366 4910 8038 7616 6471 6665 4813 5732 6238 5945 3275 5422 5621 3043 7763 2493 2245 3377 2985 200 7934 3932 6007 5299 3155 6562 2787 8756 5301 3856 6390
4825 4997 5132 5578 6890 2773 883 9155 4665 7911 4751 1467 6175 3386 8394 4618 7089 4959 6311 3347 4601 3273 6147 2584 7053 6091 2066 4085 0 4978 7953 8049 5699 2483 7172 5868 8686 1843 4906 8458 8153 6319 6122 2732 4414 3979 4996 3806 7567 7941 8260 6188 3047 3552 7346 6150 4500 5801 3722 6443 3821 7978 6586 3417 3661 5290 1812 3386 5333 4297 7114 3572 6980 5893 7223 4424 901 4155 4458 4395 5147 4960 3228 6398 6306 1401 2384 4888 2687 3638 8367 3635 3686 4584 4073 1259 4722 1234 7135 3230 6716 2014 3282 5089 4899 397 8693 6475 8106 6090 7376 5381 5043 3274 1775 5591 5364 237 6911 5522 5049 2087 1665 3080 6927
8403 6205 1959 4235 4946 6420 3493 4623 3153 5667 5345 6706 1851 4996 8125 6991 3231 7755 5188 858 8378 4775 4013 3841 5896 4622 1296 5138 4978 0 4937 5917 5112 5270 6906 4186 3614 3348 2416 6069 4180 5897 6050 5981 715 2411 2121 3370 5601 4941 2837 7694 5773 2204 1524 6174 4921 5841 4456 6516 1087 2008 8337 5313 3075 6613 4111 8321 948 4432 4223 6508 8375 6614 2641 6565 5858 5273 1031 3910 2655 6993 3537 9325 5940 7800 5523 4734 9229 5867 5724 6475 7983 2448 5361 5413 3448 2990 3856 1686 4932 6777 2175 7225 3074 5922 4496 4975 3585 4656 7713 5822 6468 2855 5962 2157 680 4615 1051 1305 8996 3322 2922 3343 6187
6201 6338 581 5528 4279 4037 4260 8347 4999 4834 4457 4085 1391 4885 6347 5557 4165 4517 4987 4262 5024 2000 4384 4082 4102 4912 3176 5288 7953 4937 0 2040 5554 3053 4247 6378 3008 6699 7261 3007 5300 2387 1682 2271 1916 6187 5339 2362 2377 5497 5706 4200 6461 605 2499 2950 7693 2185 7076 8550 4946 4635 2744 6579 2907 3722 4425 7198 3722 8482 4694 2915 5926 5057 5254 6128 5370 4257 1132 2904 5919 2023 4243 1524 8829 6075 5210 2623 4432 8419 7567 1626 3394 8637 997 2740 3534 5965 6083 4567 5097 5269 6084 4995 5591 4408 6358 8618 1627 8792 8304 1288 7855 7299 8444 5104 8774 5218 5700 6784 5730 1103 5252 7043 6423
5689 5525 6056 4819 3258 5718 6868 2052 5279 3001 4175 6620 7436 2449 4758 1434 4627 5660 473 6301 7547 5771 7976 1964 6237 3222 4276 6493 8049 5917 2040 0 6750 3013 7808 2748 4439 2414 3076 2634 7432 5638 5899 4613 5371 6097 4072 2862 4419 2204 1706 4678 4134 7573 5487 9492 8959 4704 4080 8947 4239 5266 1485 2258 3943 8352 6463 2105 5540 6195 4030 6588 3824 6623 5632 4582 5572 6346 4131 4697 1004 4097 4243 7890 4825 4617 3090 4511 4382 4364 4814 6716 5651 3368 5683 3226 6739 1938 5394 4004 5663 4643 1701 5244 8093 2245 6389 3050 1550 7965 5984 2997 3905 3230 2926 3638 1190 7447 8518 2326 5769 3869 799 4225 5829
2501 9630 4363 1276 6037 6403 5271 3241 3358 2319 5817 5115 1677 9026 6870 3843 7944 2810 3551 2896 6507 1721 3104 603 5819 4565 7376 4775 5699 5112 5554 6750 0 5399 6341 6245 2664 4916 2649 6364 8698 2475 6464 6776 6811 4878 2062 5112 6130 947 2469 7761 3609 6516 5053 6256 4577 5101 5139 6798 2531 6003 4205 4914 3166 1493 6316 1525 5217 8817 5849 3017 6808 5035 8303 5573 818 2554 3732 6229 8152 4909 6064 5568 6354 2321 5612 6474 5480 4608 3999 2706 4712 1470 3461 4144 4621 2664 2010 7807 4553 3918 3097 5827 4578 4511 4932 9338 3247 3462 1990 3220 6090 2366 4853 5260 3761 4043 3769 3867 8177 3553 3841 3614 9426
5127 2006 5759 3652 4992 5216 8762 4726 3013 4622 4413 5425 1445 3197 2519 5150 4481 8585 3152 6595 4526 5915 7405 4316 7921 2076 2509 5736 2483 5270 3053 3013 5399 0 6512 5590 4975 5891 4418 7168 406 4236 6097 5379 2218 6744 5896 5187 4828 3780 4845 3215 5121 5756 6131 5796 6661 3870 1456 6297 3729 4918 4420 3734 2238 4090 2335 5049 7373 5359 1357 742 4483 2448 3459 7031 4255 4558 1970 6276 7477 4533 5369 5126 4124 1850 2904 2649 6965 6175 3219 1308 5097 5545 4855 6689 4657 7330 5139 5695 8775 4686 7673 4130 1934 5410 6619 5004 5109 5874 4498 2060 2472 9013 5302 2738 3665 4793 6484 5845 6228 5186 6095 3467 4487
207 5120 3000 3806 5958 3127 8803 7180 4147 5562 2724 2940 7177 5660 4430 4682 6826 4655 4645 5071 1718 7177 7106 7901 1537 3483 5064 6014 7172 6906 4247 7808 6341 6512 0 4068 5413 6454 6709 4617 4333 2295 8481 2815 6130 5403 7063 5547 4494 794 2758 5341 3223 2229 6909 5199 4857 4031 7325 6965 4657 8257 3738 6422 4267 6853 4063 7127 1769 1159 3312 6241 1913 1898 1626 8198 6833 6224 7651 530 6687 4089 7621 5192 6103 1570 2757 4269 7216 3328 5512 3370 8798 4117 5131 3614 7974 2583 4552 8301 3726 8314 4557 5999 7178 3680 4091 4638 8731 4969 1735 347 7642 8301 3255 3741 2467 7107 6336 5136 3098 7335 2661 8738 5602
5972 8691 5107 9596 2755 3463 6385 5256 5877 4236 8495 1110 7316 3169 2690 1228 4851 4949 5720 7735 4145 5206 7744 4040 6748 5428 2516 5977 5868 4186 6378 2748 6245 5590 4068 0 3569 7654 7391 4557 4452 870 4111 5002 7170 5599 4203 7722 6502 4886 3888 1244 2470 1611 5749 3455 6171 6520 8132 7663 4930 3261 1969 3422 5436 9076 7296 7247 5848 3258 7000 4647 6599 7363 5805 5025 4462 3743 5291 6777 2541 4401 5036 458 4462 4006 4305 5062 5920 7622 6209 4918 2846 5953 3364 7530 6256 4432 6449 7019 6548 4254 1709 5180 2617 2394 2502 5658 3957 5599 6084 1315 6289 4992 3586 6171 6294 6986 6528 3264 2908 7574 3050 1955 3796
4085 4397 9528 3260 4988 7935 3884 3820 3729 5114 8493 5604 3656 4811 6530 7607 6062 5030 8286 4215 6512 6150 6296 5158 5770 1480 7540 5723 8686 3614 3008 4439 2664 4975 5413 3569 0 4794 6143 7003 7092 5508 8831 4159 3425 3525 3493 8126 3916 4966 1899 4070 3468 8211 8813 4169 7514 6513 4192 1028 3474 7545 2919 5298 4082 4297 6312 6979 2851 3818 566 4416 6411 2099 7092 3702 6352 4101 7215 5127 5493 6551 7209 4335 6609 4755 2722 6072 4575 8222 2989 4004 2692 4254 6879 3621 1477 3198 6946 4324 7065 6587 3435 7808 4917 2607 5868 5034 4196 2857 8166 6588 1559 7149 3824 4016 3345 4688 5023 5431 5714 5257 7023 3551 5300
5571 6780 2543 7553 4287 5918 6078 1626 4785 7526 5545 4584 3875 5474 1666 5944 7463 5290 4430 5259 2931 8042 4270 5326 5108 538 8284 6879 1843 3348 6699 2414 4916 5891 6454 7654 4794 0 6640 1392 4971 3567 6768 6194 2191 2531 7065 749 3674 5166 5103 7414 847 2909 4683 6305 5236 3116 3992 3981 1007 4614 6076 2391 2476 4917 5864 5912 6129 8148 7556 6886 5337 9167 8733 3808 5310 6596 7433 6754 1152 7018 5130 5160 5592 4125 5546 8738 8437 3088 5282 4590 2215 4935 5058 8578 4864 5686 6982 4708 8908 6235 7912 6819 3351 9116 6030 4668 8096 2118 4942 6039 3554 5245 5370 2455 5982 4547 5234 3929 5041 1669 6924 5699 5025
7336 6894 6390 9479 2635 4205 6721 9123 7082 5149 1992 9631 4026 8654 6088 5479 3048 1080 2367 8433 5909 4372 1616 5109 6331 7263 4811 427 4906 2416 7261 3076 2649 4418 6709 7391 6143 6640 0 6414 5988 1757 6676 4674 8029 4235 1544 3987 9337 4981 6612 2414 3341 4732 6058 3536 1463 7831 6468 2401 2809 8348 3842 6579 2230 4576 4767 2826 2748 3569 6165 3906 4532 1911 5550 4926 7323 2871 2519 1890 4480 8191 3603 6940 5551 6404 4536 1325 3211 7938 3099 3890 5094 6263 4258 7946 8538 5119 4927 2856 4934 4232 2305 3905 5687 6820 3435 6836 5796 3291 5087 6047 5723 8803 7458 6062 6038 7049 5808 2681 4279 2223 6090 5086 7262
6254 4396 3465 3511 2304 3021 5531 6706 1817 2747 8647 6116 4377 1676 5325 6223 7477 2258 6138 7180 4327 1893 8605 1687 8900 4779 4095 6587 8458 6069 3007 2634 6364 7168 4617 4557 7003 1392 6414 0 4778 1788 4761 1217 8800 4516 7591 4135 5478 6147 5884 6088 5775 5211 6801 3046 4103 5136 5739 4484 5912 6960 5979 6151 3876 6150 7957 8335 4970 5978 5559 7057 4671 4175 8443 3348 2746 8528 5401 3848 4661 4763 2022 4910 8189 6637 8406 7939 4431 5172 2412 7620 5950 6486 4905 2709 5744 3119 8108 7116 8934 4692 7025 4049 8011 3635 6322 7489 2749 5228 5329 5548 4823 4485 4674 6822 7226 6160 2502 6023 7289 6866 4820 4358 1844
6573 6315 3800 999 4095 7286 1199 4497 5072 3650 9164 1071 5215 1818 4742 4317 9071 2120 4879 1678 8719 3563 7054 2298 4017 6616 657 5567 8153 4180 5300 7432 8698 406 4333 4452 7092 4971 5988 4778 0 5132 4385 9312 3764 6989 4711 9249 5245 6285 9172 7061 3720 915 4972 854 3291 7011 1624 3176 2133 4329 7557 6043 4982 6426 4389 5119 4968 2550 1230 4963 1100 5328 5811 5870 3985 5735 6019 4423 4613 2770 4998 5601 5520 3177 5398 4541 3137 2889 6306 1593 3619 4645 6263 6561 5902 7568 6952 5452 4569 2190 2980 5715 5991 3429 5707 5056 5354 4931 5137 5784 3299 5743 4156 3221 4933 2877 1895 6231 5656 7220 4181 2585 6555
1133 3077 9273 5380 5574 7415 1520 4046 4188 6039 4043 4914 5482 3022 7720 3766 6628 5110 3860 5425 5599 6746 7751 4021 6678 5227 2818 1171 6319 5897 2387 5638 2475 4236 2295 870 5508 3567 1757 1788 5132 0 6291 5326 1357 1459 4055 5302 4908 6090 5056 5142 3492 5132 3721 5577 3954 1350 1424 2955 2237 6071 280 6489 4226 7631 7492 7129 2758 3941 6034 2314 7215 3767 5753 4036 5881 8716 5415 4823 4869 6675 7023 7838 6391 7681 7767 1980 6179 7129 5272 764 3202 5863 7112 4388 5990 5907 8665 2330 8031 1290 5567 3097 2052 3241 2741 2292 3397 3224 4186 3783 6905 3815 4985 7201 4475 5190 3766 4705 6296 7450 4666 3736 5782
2346 6254 4874 6060 2077 1018 3084 4088 2669 3569 3428 6787 4688 4222 3348 5517 2716 8919 7228 2727 4651 7324 7431 5036 2809 3447 4189 4993 6122 6050 1682 5899 6464 6097 8481 4111 8831 6768 6676 4761 4385 6291 0 2222 8119 4575 7162 4435 6276 2637 5407 6388 7539 2803 3831 3017 5159 6353 5794 6848 5171 6201 5583 7005 9020 5640 5961 5234 141 3041 8287 5727 4509 4797 2184 3972 2304 3021 5595 7381 3965 7573 8609 2967 2776 4725 4710 5717 6327 6942 7138 8246 1990 614 4767 8283 6645 4022 7441 4770 2524 6890 7363 4885 5863 4108 7214 4431 8655 2045 2443 7413 1735 5385 2174 4418 6043 6351 5483 4648 4522 916 6296 2998 4864
1334 4207 2603 6399 5977 4231 4480 6738 7336 5086 5232 6035 2979 2817 2473 4490 4105 4215 4951 3256 1198 3480 2084 2924 4812 2737 4879 2140 2732 5981 2271 4613 6776 5379 2815 5002 4159 6194 4674 1217 9312 5326 2222 0 6398 5710 5182 4157 3998 3283 6652 5004 4771 5967 5504 1927 5367 4293 4815 4260 8486 6270 2745 6445 6864 2482 7404 2521 3959 5250 2643 3681 7100 9136 5866 5529 5577 7604 7590 3741 5357 5731 2094 5396 8751 3622 5783 3690 1583 4361 2072 6300 7553 6730 4726 5027 3755 9681 5102 3812 4726 7152 424 4587 6316 7262 4962 4195 3827 9210 6368 6624 5358 1084 7809 2517 2409 5691 3237 4277 4403 6920 5957 8706 7564
506 5156 7540 5127 4889 3260 9679 8589 4536 4132 5527 5842 1620 5043 5924 2717 5089 5918 5294 2195 6275 3606 9196 987 5180 5907 561 9152 4414 715 1916 5371 6811 2218 6130 7170 3425 2191 8029 8800 3764 1357 8119 6398 0 4833 6916 4228 634 6537 5666 5633 5887 6165 7040 3338 2477 2778 5885 2245 2710 6552 4927 4400 1000 2901 6506 1680 1486 8643 701 6601 9355 3449 2660 4512 2387 4926 4509 5166 3473 6115 4206 7219 2751 4430 2261 4336 8285 5357 3916 5148 5598 7403 4070 8975 5158 4461 4188 4838 2367 6600 6174 3726 2346 4053 7891 6594 2903 7346 2762 2498 4714 5106 5234 5382 4406 3809 1564 3427 7218 3961 4842 9624 7663
7103 4406 8669 5805 3515 3687 1938 6376 1390 2227 5650 4011 2751 6404 6353 2220 3321 5020 4730 2260 5455 5009 3617 3336 4997 2845 6720 7136 3979 2411 6187 6097 4878 6744 5403 5599 3525 2531 4235 4516 6989 1459 4575 5710 4833 0 831 5982 5860 2787 8178 3725 7025 2573 3432 5127 5589 7665 2558 2006 5028 6435 5690 5071 7102 5963 5066 8356 3085 4041 8898 3430 8951 9788 6060 3127 3256 5910 6403 4029 4473 5349 5930 5959 8393 3775 1496 1866 6113 5088 4957 2201 6912 5459 3671 271 3969 3573 6643 5160 1411 6442 8087 6394 8352 3538 4720 3974 7481 4800 5174 764 4681 4864 5055 2886 4582 6065 3595 5577 5631 5639 4502 8296 6562
7502 4614 5294 3634 4109 5483 7418 7584 3340 8876 6154 6519 6973 4626 4982 8673 8628 3635 4803 5228 580 8034 4969 3618 7029 4761 3370 7207 4996 2121 5339 4072 2062 5896 7063 4203 3493 7065 1544 7591 4711 4055 7162 5182 6916 831 0 7360 6062 5282 5313 1478 6422 5944 7244 7781 5795 3104 4060 6333 3159 3747 2855 7212 5558 4152 4948 6139 1466 8855 7025 1822 4956 3763 2961 4362 3820 7414 1597 4314 5654 3945 5251 2302 4269 7018 4899 5789 7103 7449 4152 5463 2315 4678 7752 6147 3984 6132 6516 5542 4042 3778 6131 7586 6017 320 8891 5197 5819 2814 4811 5380 4399 5693 7327 4525 5059 9603 5948 1039 2767 6906 7343 6335 1817
8198 5352 2519 4754 6157 5812 3244 1674 3546 6939 3934 1486 7945 4915 6493 6491 8015 1928 1623 3445 818 1952 6447 5227 1149 5693 3459 4065 3806 3370 2362 2862 5112 5187 5547 7722 8126 749 3987 4135 9249 5302 4435 4157 4228 5982 7360 0 4935 5902 4117 8892 5372 5137 6587 3109 6144 4408 2287 6756 5837 786 2491 5410 6454 4851 2662 6270 1949 5202 4862 3924 4112 2475 4085 7349 5401 7617 8601 8311 4321 7752 2287 6554 4453 4682 2706 3778 6280 5178 6550 5658 2832 3710 3896 7814 9426 5583 745 2447 2392 5892 7082 4185 5266 7220 2381 4624 5072 7208 4644 8829 6071 5282 4990 4078 2336 4385 7338 5118 2721 3062 3825 2003 4831
5729 4378 6979 5915 6329 4814 8864 2545 3249 3589 3478 6213 3184 3434 3931 2901 8919 2603 3856 7511 2522 6797 3949 4952 5267 7327 1848 8849 7567 5601 2377 4419 6130 4828 4494 6502 3916 3674 9337 5478 5245 4908 6276 3998 634 5860 6062 4935 0 3056 5778 7103 3781 2607 4228 3696 7282 4445 1705 6496 5147 6580 7584 3771 6700 5826 5342 3005 4830 538 7127 7913 4846 9456 4624 5488 2891 2786 3181 2664 5481 1385 1740 3885 4828 4222 5086 8403 3880 4600 4753 9716 5104 4430 4124 7290 2364 4521 1646 5525 4767 8885 5168 1699 2379 5879 6013 3272 7707 3797 7264 7214 5027 3363 5692 4227 8853 8214 3578 4558 3894 8275 6001 2688 4536
5313 5624 8765 8269 6050 1756 4340 5845 2820 6569 5229 5905 4093 4362 4672 5762 6437 6186 4803 4333 6030 7021 5803 7736 7335 1722 9434 7029 7941 4941 5497 2204 947 3780 794 4886 4966 5166 4981 6147 6285 6090 2637 3283 6537 2787 5282 5902 3056 0 4821 4873 932 2142 6369 4977 5295 3447 2161 2968 6643 2568 3773 6972 3294 6873 3828 3635 4993 3894 2177 5054 3422 4457 5973 9762 3410 4034 3771 7997 3959 3736 1505 3249 5410 6637 7450 5599 9887 5749 3814 4302 4798 3781 7844 4126 4039 5873 1402 3797 1513 5375 1434 5506 6351 6515 8390 8620 6975 4979 5711 6319 5324 3383 5300 1956 5042 3673 6323 3117 4980 7291 8086 5987 9075
8350 5703 1838 3539 290 3310 6970 1467 4773 1386 7852 7001 5335 4415 6082 8280 6745 7162 2566 7568 2150 6798 3753 5514 5751 2448 3356 5456 8260 2837 5706 1706 2469 4845 2758 3888 1899 5103 6612 5884 9172 5056 5407 6652 5666 8178 5313 4117 5778 4821 0 2558 5199 8128 7676 5193 7261 6651 8009 5002 2511 2229 6974 4272 4043 8222 2523 1248 5349 6520 4017 7834 4448 5331 2330 5596 6226 4536 6348 4785 3910 5746 8528 4801 8561 3728 5218 3114 8659 5528 6021 5404 5304 6676 2642 2292 5428 2961 5989 4147 7821 5004 4011 5216 4690 1673 5372 4343 2901 9008 5022 4664 3682 3115 2748 5158 4685 6562 7992 3789 6850 7081 1756 914 3053
5636 3780 1836 3926 9074 3942 3074 4919 7219 5270 4651 5843 1813 256 7300 7348 6786 6579 3150 4825 3929 5591 8579 3674 6709 5198 4188 5281 6188 7694 4200 4678 7761 3215 5341 1244 4070 7414 2414 6088 7061 5142 6388 5004 5633 3725 1478 8892 7103 4873 2558 0 5408 3863 5850 380 4524 6093 2871 4759 9590 1054 5164 5745 3062 6914 1887 3188 9014 6176 7112 8864 8051 5183 6032 6625 3880 4864 3719 5633 3407 3857 4877 4670 3297 7281 3837 1470 8005 4148 4496 3728 5062 3581 7490 7969 6357 3275 2706 2942 9134 8936 5601 7513 3960 8716 4123 742 5361 6575 3135 3919 4137 4692 4507 3109 1278 2804 9822 4796 4914 6494 3232 2250 6302
3953 2732 5366 5957 1379 5698 5269 3299 2310 5267 4175 3192 9433 3109 7133 6286 7187 6272 6102 6326 4702 4327 4876 4909 6494 2901 2883 1694 3047 5773 6461 4134 3609 5121 3223 2470 3468 847 3341 5775 3720 3492 7539 4771 5887 7025 6422 5372 3781 932 5199 5408 0 5181 1992 4623 3419 4601 3867 6047 2742 4931 4744 4664 4138 1077 1162 2508 8615 7654 9862 6141 4105 5390 9916 6414 4835 6160 4564 4959 8156 6059 2844 2281 4248 6413 1460 6046 5554 5833 7144 7200 1952 1942 5894 3569 1394 3285 2805 5278 4371 7117 6810 4921 4643 5375 1994 3570 908 669 7938 6129 5811 6978 3139 2428 4160 3530 3986 3085 2696 4668 6445 6229 3131
6272 2039 5334 4514 6781 6228 8023 572 5933 6666 4988 1333 6004 4761 3288 3974 1118 3245 2100 3094 972 5093 3286 3385 423 5996 3799 3210 3552 2204 605 7573 6516 5756 2229 1611 8211 2909 4732 5211 915 5132 2803 5967 6165 2573 5944 5137 2607 2142 8128 3863 5181 0 2793 4823 4964 5373 6469 4636 5166 5493 4930 4035 9590 8327 9105 5707 4475 4225 3332 4526 1832 5436 1523 1249 3118 7356 9328 3907 6183 5141 7521 6942 749 5081 5180 9615 6235 3354 5586 4695 4215 5346 1864 5968 5093 4227 5483 3043 4988 3953 3631 5460 2762 3862 3472 4349 5426 6323 7413 9122 2314 5942 5700 2889 7754 3507 7082 7416 4699 5920 5417 5197 9467
4044 8337 2794 5195 2136 2848 5727 5666 1662 3807 7936 6789 7464 3976 6624 1839 8686 9466 5359 4704 5504 3221 7834 1075 7313 4735 6099 3334 7346 1524 2499 5487 5053 6131 6909 5749 8813 4683 6058 6801 4972 3721 3831 5504 7040 3432 7244 6587 4228 6369 7676 5850 1992 2793 0 2753 5410 3291 405 5070 1869 5748 3475 5263 4583 3880 2326 5378 1690 1957 3972 2705 5256 6881 3948 2588 4707 7628 4089 6351 4855 6001 3759 9096 3444 3508 6317 6674 5344 3681 6408 7834 1790 8904 5711 5066 5501 4732 5192 8017 1552 7244 7320 2883 6732 4876 5351 7910 380 8999 2031 4607 2295 7523 3537 5843 6501 4097 7540 4400 4752 6437 4540 2740 6597
5213 7966 428 3217 6096 6736 1734 1028 3652 7746 7598 4759 185 4253 7181 5007 1173 7029 3359 3613 5813 4237 5684 2927 2197 4567 2089 3770 6150 6174 2950 9492 6256 5796 5199 3455 4169 6305 3536 3046 854 5577 3017 1927 3338 5127 7781 3109 3696 4977 5193 380 4623 4823 2753 0 8696 2622 6929 3600 7689 3900 6138 8107 7433 2945 4963 5745 6431 4999 4592 7110 5419 1754 5905 6522 9333 6201 7062 2121 4666 4605 2779 3418 5050 4952 4937 6697 5333 4882 9050 2472 2335 2382 6188 5169 5830 3127 8634 5149 7417 3361 7308 3431 5936 4689 6675 3836 602 5194 2678 4749 4908 4825 8112 3080 6920 7915 5783 1213 4866 5480 7402 4640 634
2490 6806 5971 6785 5454 293 5445 7854 3531 5106 2803 7410 2128 3046 2582 4791 5662 3092 5643 4265 1294 5466 2421 4913 4893 8657 6491 6623 4500 4921 7693 8959 4577 6661 4857 6171 7514 5236 1463 4103 3291 3954 5159 5367 2477 5589 5795 6144 7282 5295 7261 4524 3419 4964 5410 8696 0 5163 4678 5097 4323 3282 3200 1742 4335 6044 2237 5688 3533 4531 3634 3051 4883 1500 6186 6098 3641 3793 4936 9192 8051 6683 5658 3534 6784 2281 8005 3309 4355 6243 4078 4126 7313 2666 8147 4793 2150 5780 4639 6358 5558 3615 9438 3860 2652 7249 7553 3749 4104 6072 5980 7453 4440 3534 7142 4496 2419 6138 6859 7036 8140 5012 5126 2731 3062
4905 6621 4681 7269 8268 4514 2161 4997 7789 7020 1966 5627 1863 1549 6008 9278 4401 6446 6711 4658 4450 5591 6826 5325 6157 7980 4979 5510 5801 5841 2185 4704 5101 3870 4031 6520 6513 3116 7831 5136 7011 1350 6353 4293 2778 7665 3104 4408 4445 3447 6651 6093 4601 5373 3291 2622 5163 0 8517 3918 4363 7747 4710 7643 7031 5977 6516 5433 9075 2894 4523 5676 3374 7545 3883 8110 4554 2960 2237 4866 6596 4727 3825 6789 5271 3225 8671 6701 2427 8201 2425 5363 924 6490 3791 3094 4116 2945 1774 5009 2890 2950 6530 8678 7056 3370 8493 3680 7135 8576 5531 6676 4165 5560 9269 5208 8071 2783 784 7556 5457 4159 848 8848 5074
7894 9193 2940 4626 6943 6359 8732 1268 6861 6481 4579 8430 3387 3492 7324 2504 4728 5146 4953 4115 6011 3527 8621 4566 9125 7374 3872 3627 3722 4456 7076 4080 5139 1456 7325 8132 4192 3992 6468 5739 1624 1424 5794 4815 5885 2558 4060 2287 1705 2161 8009 2871 3867 6469 405 6929 4678 8517 0 5421 1760 8017 8940 6193 4124 3746 2781 3668 5252 4909 6112 5062 4758 6551 4943 5990 5847 4551 3907 5239 6251 2399 5761 2461 2659 2551 7123 2129 6099 4593 7662 5161 8013 501 4999 4140 6401 1173 5466 1977 4091 3977 6224 1465 7380 2307 6770 5544 2942 2121 8513 4784 7259 4953 3224 5634 4474 3512 3134 5173 2744 5927 6947 3957 4649
7587 4790 3108 5339 7666 5581 3107 5467 3888 3647 6261 6277 2569 4457 7260 2637 4959 5919 3279 7181 2681 7727 6966 4205 3139 5645 4206 1949 6443 6516 8550 8947 6798 6297 6965 7663 1028 3981 2401 4484 3176 2955 6848 4260 2245 2006 6333 6756 6496 2968 5002 4759 6047 4636 5070 3600 5097 3918 5421 0 8106 1596 5962 6432 2318 6368 5703 7020 7403 4337 3926 3116 981 5201 724 4758 5337 3730 7450 2940 4713 6391 7662 5335 4658 3461 5723 6883 1901 5772 7574 5701 4375 6549 1210 2180 5307 4872 8244 4804 1955 5716 2776 1076 4670 3228 5926 6640 6131 8112 1025 6513 5410 6211 3297 4216 5122 7557 8018 7081 4835 7399 4509 7046 5266
6441 2741 7785 5550 2127 7600 6948 1777 4966 4772 6610 8029 4785 5446 4739 6706 3466 5472 4009 3543 5795 5519 1412 7373 5618 3278 5918 4059 3821 1087 4946 4239 2531 3729 4657 4930 3474 1007 2809 5912 2133 2237 5171 8486 2710 5028 3159 5837 5147 6643 2511 9590 2742 5166 1869 7689 4323 4363 1760 8106 0 6948 5779 5857 8880 4574 5265 5506 1640 5157 3423 5190 3584 4422 4798 5644 7025 3521 7238 8962 4191 1057 4374 2025 3868 5762 4528 8688 4782 5913 6224 7914 2732 7771 3804 1495 5743 7673 9622 5771 2610 5692 8145 6621 3570 6362 8038 4067 3488 7344 2067 2822 2123 7306 2894 7777 8653 6494 2811 4785 1636 4967 5676 1931 5767
4077 2654 7277 4556 3722 8818 8953 4953 5469 3699 8302 6890 3985 4255 7837 3495 2667 4432 3836 4866 5420 7661 6175 7608 4575 3239 5634 7725 7978 2008 4635 5266 6003 4918 8257 3261 7545 4614 8348 6960 4329 6071 6201 6270 6552 6435 3747 786 6580 2568 2229 1054 4931 5493 5748 3900 3282 7747 8017 1596 6948 0 5538 2401 4771 3310 2664 4851 5378 5962 2163 8274 3728 6332 7300 5060 3590 8145 6906 4334 4667 5172 5406 2635 8032 5799 638 2070 4355 5450 6500 418 6948 5622 4572 6988 6360 4892 5838 6226 7781 4108 7168 7086 1760 5384 6027 4060 3788 2754 5073 7263 4916 5494 6267 4896 2915 5582 2961 5944 7731 4636 7484 4737 4976
4339 8472 4064 8848 3278 7521 4971 5723 5800 6112 9466 7961 5087 4771 5924 4230 2487 5797 8595 8207 5466 7086 3456 2381 4891 5249 8688 5490 6586 8337 2744 1485 4205 4420 3738 1969 2919 6076 3842 5979 7557 280 5583 2745 4927 5690 2855 2491 7584 3773 6974 5164 4744 4930 3475 6138 3200 4710 8940 5962 5779 5538 0 5139 6962 5173 8707 1377 4305 6257 3901 5269 1337 4699 2788 8033 9728 6750 2986 3496 5697 2329 4196 5957 9114 5103 4387 4305 2934 4810 6377 7381 7430 1674 8627 2531 7329 6945 2057 7553 4209 2119 5841 1496 8188 6499 3539 6248 5257 2169 7058 5021 5420 2000 437 2448 5651 9377 1261 6681 5141 5182 2797 8347 6903
4792 3350 7243 1451 7829 8488 5222 3962 6088 6126 3723 6703 3003 3740 4445 2606 3966 5139 3591 4927 5162 1180 7121 6064 5272 5932 4220 6725 3417 5313 6579 2258 4914 3734 6422 3422 5298 2391 6579 6151 6043 6489 7005 6445 4400 5071 7212 5410 3771 6972 4272 5745 4664 4035 5263 8107 1742 7643 6193 6432 5857 2401 5139 0 5714 4284 3741 4116 5343 4704 5881 2504 5203 2971 5747 1821 5504 6364 4054 6541 6402 6747 5300 225 6207 1640 4827 4805 929 4586 2465 6830 1502 8796 6451 7588 1871 5721 8159 4847 5722 5135 3598 6145 8048 6402 4551 3311 8549 6114 3287 5115 631 5397 2425 4819 3967 4436 4980 7836 5300 3090 3528 2353 5740
7193 7923 6847 6391 6893 5352 6120 8423 4002 7788 3380 2875 5550 1324 4074 4849 6088 1832 5583 4707 6632 479 4106 6072 8834 5246 4301 8411 3661 3075 2907 3943 3166 2238 4267 5436 4082 2476 2230 3876 4982 4226 9020 6864 1000 7102 5558 6454 6700 3294 4043 3062 4138 9590 4583 7433 4335 7031 4124 2318 8880 4771 6962 5714 0 3739 5230 7199 4362 6087 5333 4910 3027 5581 7757 8811 8209 5128 6059 8888 5412 2685 5188 2337 7172 5167 8715 3830 2210 1904 3447 4573 3021 6204 6451 5376 4219 4575 6002 5257 6763 6975 5690 1874 4968 4806 4974 4297 7024 6671 4946 7293 550 5628 5184 3304 1610 8131 2431 8214 5095 2936 3887 4400 5497
1035 6661 4948 6563 7687 6326 7978 4407 8465 5619 1804 4650 6680 7888 5445 4471 4928 3197 4937 4748 4248 5136 4497 4064 3663 5114 5750 9035 5290 6613 3722 8352 1493 4090 6853 9076 4297 4917 4576 6150 6426 7631 5640 2482 2901 5963 4152 4851 5826 6873 8222 6914 1077 8327 3880 2945 6044 5977 3746 6368 4574 3310 5173 4284 3739 0 4610 4410 4357 6167 5196 2951 5679 6554 5513 3193 8599 4533 5766 1325 1440 2390 3919 6226 5173 3973 3782 6545 7416 3120 5193 4425 3667 5713 5953 5416 3406 5782 5406 4075 3615 4353 3796 3449 3210 5049 6915 8506 3991 7581 3300 7013 2882 7455 7749 4565 7813 4917 4690 667 7682 6149 6661 5411 4485
3263 7170 1203 8595 3436 4681 4789 3806 6037 6901 2982 3259 6309 7603 4763 4634 3483 4742 4339 757 8447 3945 5420 5667 3282 2789 9115 4472 1812 4111 4425 6463 6316 2335 4063 7296 6312 5864 4767 7957 4389 7492 5961 7404 6506 5066 4948 2662 5342 3828 2523 1887 1162 9105 2326 4963 2237 6516 2781 5703 5265 2664 8707 3741 5230 4610 0 2049 3892 9278 4083 4998 4957 2082 3288 7060 3529 4686 4178 3010 1014 4573 5973 4512 6090 2862 4097 4607 8195 9662 6264 4240 6174 9289 5206 6625 997 6088 4716 1180 2369 5587 5221 5543 7032 2593 5623 2279 3073 3051 5900 7351 378 4133 3148 5477 6236 5032 4734 7109 4559 4580 7794 7613 6561
7162 3013 5281 5111 5285 5851 1536 3282 2562 4190 5116 8913 2744 4114 5552 4611 3683 8299 7253 3334 8043 8793 4578 8600 5982 2486 7260 6787 3386 8321 7198 2105 1525 5049 7127 7247 6979 5912 2826 8335 5119 7129 5234 2521 1680 8356 6139 6270 3005 3635 1248 3188 2508 5707 5378 5745 5688 5433 3668 7020 5506 4851 1377 4116 7199 4410 2049 0 7693 5123 9905 2170 9313 9277 3195 4444 6249 2685 6828 5441 3339 5317 5733 7991 4060 2263 4113 5142 5215 3202 1210 3390 5322 4818 5931 6059 4838 3083 7394 5346 5728 7548 5278 6183 4020 8778 5341 3282 9293 8041 4934 5564 4360 8976 7103 2120 8397 8444 7406 2508 1574 5597 4346 1663 4024
5661 1472 4042 4337 6214 4709 5909 4251 8796 7908 7744 4015 5171 8113 8727 5183 4477 2512 6668 3972 6698 5640 5602 4513 4648 7300 5090 7064 5333 948 3722 5540 5217 7373 1769 5848 2851 6129 2748 4970 4968 2758 141 3959 1486 3085 1466 1949 4830 4993 5349 9014 8615 4475 1690 6431 3533 9075 5252 7403 1640 5378 4305 5343 4362 4357 3892 7693 0 5745 5140 3919 1776 5338 4299 8797 8475 4673 6287 707 2700 6097 6502 5413 7447 3786 1283 6750 6813 3540 6015 7379 6056 3906 6871 3885 3368 7110 2376 5693 4164 7004 3925 8467 6224 4722 4349 2473 2914 3788 2836 2121 4683 8589 5024 6700 6924 5800 3024 8987 5665 4280 6425 1702 1494
3068 7423 1994 4086 7701 2240 3129 5412 4765 1667 4998 9407 5505 3919 3162 5749 3515 4625 1001 4184 2423 3830 5807 6469 2867 4361 5913 7480 4297 4432 8482 6195 8817 5359 1159 3258 3818 8148 3569 5978 2550 3941 3041 5250 8643 4041 8855 5202 538 3894 6520 6176 7654 4225 1957 4999 4531 2894 4909 4337 5157 5962 6257 4704 6087 6167 9278 5123 5745 0 5913 6594 6071 3014 2727 7390 6836 3267 7482 3114 6448 8745 5956 4393 6352 3613 6696 7058 9294 6937 5265 4549 3294 6095 7622 7162 4458 489 4207 8475 7452 7287 6614 4598 5829 6235 7847 6598 2649 4871 9571 4893 8738 3728 7941 4570 6958 3741 5129 3260 6893 2632 5680 4712 8449
5586 7771 2419 1347 4413 4140 4492 5726 3104 3065 3974 2245 7398 5267 7697 3231 3297 7687 5736 6792 206 2936 660 4994 2705 9489 2331 8808 7114 4223 4694 4030 5849 1357 3312 7000 566 7556 6165 5559 1230 6034 8287 2643 701 8898 7025 4862 7127 2177 4017 7112 9862 3332 3972 4592 3634 4523 6112 3926 3423 2163 3901 5881 5333 5196 4083 9905 5140 5913 0 6488 2815 7226 6628 8770 5311 1791 5259 5422 5312 3723 5238 5929 3016 1220 4563 7499 5011 3301 7194 2950 4806 3479 2204 7152 6593 7159 4245 4062 4026 3912 4520 3493 2597 5862 4383 4774 568 8014 4522 1586 7577 5091 5422 1085 315 5412 3013 7925 2920 6663 7686 6933 8849
4185 6022 6446 3570 3961 4805 9004 1444 3075 4099 8035 5108 5286 4693 6937 5194 2027 6220 6611 3835 5451 5153 4779 6588 8195 4838 8927 4123 3572 6508 2915 6588 3017 742 6241 4647 4416 6886 3906 7057 4963 2314 5727 3681 6601 3430 1822 3924 7913 5054 7834 8864 6141 4526 2705 7110 3051 5676 5062 3116 5190 8274 5269 2504 4910 2951 4998 2170 3919 6594 6488 0 3519 6852 2699 4834 6170 6825 5920 3656 5477 5749 5145 1611 6596 5625 5248 3426 7276 6056 6105 5431 4303 5182 3500 4600 2527 6700 5691 2720 5665 2238 6700 9010 5629 2418 2481 7612 8767 5195 5002 1569 5598 3772 2110 7238 9429 6508 1206 3904 3807 3805 7670 2656 5213
2273 5074 6807 4950 8214 6813 7568 5211 1753 7625 9656 4648 4118 7262 5417 7353 6110 6050 7020 4850 7590 2871 4222 3091 8100 6668 7304 6345 6980 8375 5926 3824 6808 4483 1913 6599 6411 5337 4532 4671 1100 7215 4509 7100 9355 8951 4956 4112 4846 3422 4448 8051 4105 1832 5256 5419 4883 3374 4758 981 3584 3728 1337 5203 3027 5679 4957 9313 1776 6071 2815 3519 0 5856 4550 3623 1478 8110 2979 4851 4874 3022 4957 8280 4495 8378 6000 9306 7648 4595 873 2027 4842 6184 8712 6307 8272 5866 3994 2057 1995 3953 9276 5807 6642 4380 5698 6657 7762 6496 7190 5592 6914 3282 1827 7956 2222 581 4011 8636 6335 7033 3342 1771 942
7180 4058 6628 1441 6339 7065 8388 6644 3746 2794 5048 5025 5761 7948 6336 4225 4526 5679 5602 2172 4650 2176 5153 6890 6123 5124 2000 7989 5893 6614 5057 6623 5035 2448 1898 7363 2099 9167 1911 4175 5328 3767 4797 9136 3449 9788 3763 2475 9456 4457 5331 5183 5390 5436 6881 1754 1500 7545 6551 5201 4422 6332 4699 2971 5581 6554 2082 9277 5338 3014 7226 6852 5856 0 1633 5545 5211 3288 8370 6182 4354 7227 3094 6045 5065 4062 7127 5146 5470 5557 3763 5825 1989 3085 4622 1772 9895 4975 7668 5181 2893 7874 7006 9049 2820 4159 5370 4360 8542 3609 1737 5720 5628 5077 2235 6501 686 4620 5441 5555 3265 2329 8444 4773 6233
8310 4346 1572 8390 2240 6406 8659 2903 4783 4895 3008 4338 5142 7485 7681 4772 5441 2597 1937 7712 6592 2198 2956 7626 5380 4448 4198 3394 7223 2641 5254 5632 8303 3459 1626 5805 7092 8733 5550 8443 5811 5753 2184 5866 2660 6060 2961 4085 4624 5973 2330 6032 9916 1523 3948 5905 6186 3883 4943 724 4798 7300 2788 5747 7757 5513 3288 3195 4299 2727 6628 2699 4550 1633 0 3005 7316 7445 7835 5023 3825 7184 7977 1039 5763 4973 3972 4943 7452 3190 1319 2374 7554 3591 6100 3853 6584 1658 7814 5651 4726 948 6605 3845 2529 4335 3197 4769 5120 5477 4845 8398 9398 6104 2069 4399 6223 2991 2827 1433 3228 8813 6266 3630 5892
7453 3320 3724 3384 4027 5064 7510 5586 6354 6398 8121 8143 3259 3491 4911 4819 4120 5238 3845 3648 9464 3800 8590 4995 5489 6752 2997 4320 4424 6565 6128 4582 5573 7031 8198 5025 3702 3808 4926 3348 5870 4036 3972 5529 4512 3127 4362 7349 5488 9762 5596 6625 6414 1249 2588 6522 6098 8110 5990 4758 5644 5060 8033 1821 8811 3193 7060 4444 8797 7390 8770 4834 3623 5545 3005 0 1731 7094 9605 6635 3845 4271 5020 6268 6211 3564 4763 5324 6043 2876 4996 4461 5377 2813 4308 6224 842 7059 6889 7852 3496 6926 5795 6690 3498 3921 8082 4159 5601 2007 4391 7517 3451 1943 6738 6179 7262 4938 6462 2097 5685 5973 4667 6456 5984
4812 7085 7343 4148 4070 4725 4924 7542 2769 4046 3719 8058 4832 989 7154 6227 6846 3715 7811 3823 1543 7475 1614 6309 4309 3928 6402 6431 901 5858 5370 5572 818 4255 6833 4462 6352 5310 7323 2746 3985 5881 2304 5577 2387 3256 3820 5401 2891 3410 6226 3880 4835 3118 4707 9333 3641 4554 5847 5337 7025 3590 9728 5504 8209 8599 3529 6249 8475 6836 5311 6170 1478 5211 7316 1731 0 4350 4717 6013 4734 2526 6190 8440 3900 7792 6787 2641 3371 3383 2857 4139 1823 4220 6421 4576 6256 6093 2962 8597 6112 6619 2521 4608 7691 9071 6120 3049 8063 7724 1886 7555 9364 6301 5140 1637 8075 6332 5067 2731 4935 3321 7551 2179 947
8171 3152 7693 5812 5173 3640 7733 5764 5057 6065 2432 7579 2423 5855 4577 5484 7640 8861 5980 5601 3871 8321 8350 3466 5108 5401 7702 3997 4155 5273 4257 6346 2554 4558 6224 3743 4101 6596 2871 8528 5735 8716 3021 7604 4926 5910 7414 7617 2786 4034 4536 4864 6160 7356 7628 6201 3793 2960 4551 3730 3521 8145 6750 6364 5128 4533 4686 2685 4673 3267 1791 6825 8110 3288 7445 7094 4350 0 7023 1655 4640 4317 8962 4804 8080 1890 6472 5676 7862 2565 4145 5602 6126 5831 3091 7586 2147 5088 7536 7463 1982 7535 1589 3470 4818 4068 4130 2719 2948 6623 6218 4977 1392 3422 5508 6415 7169 2252 5042 5609 2081 1506 1136 5659 6270
3690 3188 8333 5850 4853 1676 5703 7602 1758 5726 4963 9018 4154 6778 6566 6201 5647 5494 4386 4263 2615 688 3839 8079 3074 7695 3265 1454 4458 1031 1132 4131 3732 1970 7651 5291 7215 7433 2519 5401 6019 5415 5595 7590 4509 6403 1597 8601 3181 3771 6348 3719 4564 9328 4089 7062 4936 2237 3907 7450 7238 6906 2986 4054 6059 5766 4178 6828 6287 7482 5259 5920 2979 8370 7835 9605 4717 7023 0 6853 2819 1669 2747 4331 3892 4831 4556 6785 1291 1011 7084 2990 8480 5559 1473 2920 6667 8013 4603 4684 6056 2925 4548 1182 4151 3591 2965 5024 4532 4907 1818 5885 6857 3032 4481 5514 1429 3665 2892 5288 4683 6426 7484 8739 2634
6206 8323 8624 1873 2327 4196 6253 7930 4080 7045 3759 5813 3150 2997 2364 5452 4890 4948 5387 5282 3104 4191 1158 3683 9022 7203 5614 1938 4395 3910 2904 4697 6229 6276 530 6777 5127 6754 1890 3848 4423 4823 7381 3741 5166 4029 4314 8311 2664 7997 4785 5633 4959 3907 6351 2121 9192 4866 5239 2940 8962 4334 3496 6541 8888 1325 3010 5441 707 3114 5422 3656 4851 6182 5023 6635 6013 1655 6853 0 4536 4077 2717 4028 1720 5355 3475 8878 2228 8253 1857 1158 6107 9387 704 7073 3702 8389 3812 7305 3973 3412 474 3201 7864 6331 8385 3552 4174 6548 2853 4997 4149 8476 6373 3403 6811 2816 2527 7106 6221 6548 2814 8146 5007
6765 8435 2511 4271 5071 5360 2520 5389 1835 7561 5665 1330 2623 7211 4526 7440 5868 3648 7529 5475 8665 5610 4130 2971 2717 5531 4536 7841 5147 2655 5919 1004 8152 7477 6687 2541 5493 1152 4480 4661 4613 4869 3965 5357 3473 4473 5654 4321 5481 3959 3910 3407 8156 6183 4855 4666 8051 6596 6251 4713 4191 4667 5697 6402 5412 1440 1014 3339 2700 6448 5312 5477 4874 4354 3825 3845 4734 4640 2819 4536 0 6669 1894 7416 8494 3552 5138 3526 5893 4544 7443 4295 5916 7857 3806 3418 5836 5164 6399 3548 7989 4639 4445 5694 3412 5620 7997 5082 3517 3071 5722 8877 8921 6557 8296 2613 4655 9325 4824 5181 8637 9284 6182 8092 4831
6180 937 5455 4075 3365 5691 6674 6307 6788 4676 2625 8781 6027 7215 2917 1528 4621 9565 3747 6182 3298 5120 7663 7018 5093 4461 3704 6133 4960 6993 2023 4097 4909 4533 4089 4401 6551 7018 8191 4763 2770 6675 7573 5731 6115 5349 3945 7752 1385 3736 5746 3857 6059 5141 6001 4605 6683 4727 2399 6391 1057 5172 2329 6747 2685 2390 4573 5317 6097 8745 3723 5749 3022 7227 7184 4271 2526 4317 1669 4077 6669 0 2920 7638 6401 6232 4624 6033 2401 5732 4574 7583 5383 4330 6664 8255 6061 7151 4817 6084 5182 4408 4969 4217 3447 6107 4561 1053 4843 2991 2793 3095 4228 4593 6744 3656 5305 4873 5945 4524 6023 5981 4433 6100 793
2723 7376 8799 3562 6430 4196 6114 2992 1131 3530 2842 6946 6335 5740 6322 8083 3810 1832 5142 3849 2412 6284 6192 5701 3386 5573 4486 2618 3228 3537 4243 4243 6064 5369 7621 5036 7209 5130 3603 2022 4998 7023 8609 2094 4206 5930 5251 2287 1740 1505 8528 4877 2844 7521 3759 2779 5658 3825 5761 7662 4374 5406 4196 5300 5188 3919 5973 5733 6502 5956 5238 5145 4957 3094 7977 5020 6190 8962 2747 2717 1894 2920 0 7523 969 6838 7869 3897 7216 3760 5314 3626 4216 3728 7011 5459 5883 4987 4067 9307 4396 1419 3080 2242 5207 4834 2025 4272 5087 4779 3447 2324 4302 5254 5037 4400 7743 7140 4868 7174 1389 7580 4327 4939 5642
3273 6699 1736 3371 1933 7272 7000 5351 4051 5393 2562 5565 4679 2142 3235 4927 2284 3025 2578 3756 3571 4444 7634 3802 1902 3361 4919 5572 6398 9325 1524 7890 5568 5126 5192 458 4335 5160 6940 4910 5601 7838 2967 5396 7219 5959 2302 6554 3885 3249 4801 4670 2281 6942 9096 3418 3534 6789 2461 5335 2025 2635 5957 225 2337 6226 4512 7991 5413 4393 5929 1611 8280 6045 1039 6268 8440 4804 4331 4028 7416 7638 7523 0 6710 7668 3071 2197 5428 3640 4819 3315 4758 4633 7794 5669 3435 2646 3072 7947 6357 6528 9787 3711 5932 5330 2050 8273 6926 7948 8334 1429 3999 3692 8935 5105 3715 500 6734 4698 6379 2231 3923 5474 4972
8493 3057 4243 4963 6116 2828 4588 5987 6043 5313 3618 2707 2630 6192 5750 2744 9278 8351 5818 5251 2743 5124 3011 8056 1081 8191 7672 5045 6306 5940 8829 4825 6354 4124 6103 4462 6609 5592 5551 8189 5520 6391 2776 8751 2751 8393 4269 4453 4828 5410 8561 3297 4248 749 3444 5050 6784 5271 2659 4658 3868 8032 9114 6207 7172 5173 6090 4060 7447 6352 3016 6596 4495 5065 5763 6211 3900 8080 3892 1720 8494 6401 969 6710 0 8577 4679 4246 4075 6195 2331 3344 5609 8417 7323 4329 6015 5700 4329 3876 4361 3683 3790 7368 1312 7572 6222 1072 6157 3462 681 8888 6154 3520 6435 3751 2352 4767 6303 5049 7613 8584 3016 5388 5750
6063 4999 9147 1634 5652 4671 6741 3812 3064 3122 5018 3601 4950 6475 4328 7745 2072 6621 5458 5272 3366 5438 9617 6426 7900 7715 3824 7891 1401 7800 6075 4617 2321 1850 1570 4006 4755 4125 6404 6637 3177 7681 4725 3622 4430 3775 7018 4682 4222 6637 3728 7281 6413 5081 3508 4952 2281 3225 2551 3461 5762 5799 5103 1640 5167 3973 2862 2263 3786 3613 1220 5625 8378 4062 4973 3564 7792 1890 4831 5355 3552 6232 6838 7668 8577 0 8157 4176 8057 8247 5224 3166 2025 2281 7133 3813 4381 3935 6435 4593 4397 2389 2143 3779 5815 8476 5793 5472 384 2742 3696 6690 4502 3005 4210 6377 1910 3087 6779 1989 1525 3685 3594 3608 5853
4457 3096 4434 7928 110 3100 4865 3925 3947 6797 5966 8077 5184 666 8868 6065 3376 5256 7472 5932 7807 1647 6955 6758 3459 4968 7453 7251 2384 5523 5210 3090 5612 2904 2757 4305 2722 5546 4536 8406 5398 7767 4710 5783 2261 1496 4899 2706 5086 7450 5218 3837 1460 5180 6317 4937 8005 8671 7123 5723 4528 638 4387 4827 8715 3782 4097 4113 1283 6696 4563 5248 6000 7127 3972 4763 6787 6472 4556 3475 5138 4624 7869 3071 4679 8157 0 1080 1818 1586 4394 4918 3130 5496 9468 5838 5475 5012 3185 3130 2073 5364 6587 8352 6744 6045 6705 6497 7222 4265 5290 3705 2947 4079 5685 6335 5825 4611 5670 1580 5983 5656 5034 3520 4875
6407 7887 8916 907 5876 4001 7021 5138 6941 6877 2245 4774 4936 1886 6689 4841 4681 7994 1824 2207 9717 4532 8247 7379 854 2080 7061 1486 4888 4734 2623 4511 6474 2649 4269 5062 6072 8738 1325 7939 4541 1980 5717 3690 4336 1866 5789 3778 8403 5599 3114 1470 6046 9615 6674 6697 3309 6701 2129 6883 8688 2070 4305 4805 3830 6545 4607 5142 6750 7058 7499 3426 9306 5146 4943 5324 2641 5676 6785 8878 3526 6033 3897 2197 4246 4176 1080 0 2852 3956 3339 4145 5395 4307 2550 2070 5959 3616 1571 3118 1862 4532 1626 5478 7458 6126 6827 8603 5069 3017 5347 9428 3369 4263 1920 4932 942 3939 6352 3598 4263 1122 3576 8577 4411
5678 7166 1022 2946 7582 6127 3597 6048 2437 1419 7252 2426 5492 4315 7230 5780 3365 747 3464 2092 4664 3707 6739 2855 3202 3782 8595 2920 2687 9229 4432 4382 5480 6965 7216 5920 4575 8437 3211 4431 3137 6179 6327 1583 8285 6113 7103 6280 3880 9887 8659 8005 5554 6235 5344 5333 4355 2427 6099 1901 4782 4355 2934 929 2210 7416 8195 5215 6813 9294 5011 7276 7648 5470 7452 6043 3371 7862 1291 2228 5893 2401 7216 5428 4075 8057 1818 2852 0 4924 7966 6135 1986 1653 5312 4618 4741 4626 3144 6307 2644 4611 5511 3792 9138 2308 8663 2384 2736 5322 4882 7227 2045 6800 4873 2826 3062 4463 3301 4823 1456 5558 3550 5368 1183
4797 4865 5807 7191 2533 3730 5411 6877 4016 5242 2525 7403 6808 4293 5112 5108 6821 2658 4674 5679 2690 5353 3099 8955 5587 6051 8396 4940 3638 5867 8419 4364 4608 6175 3328 7622 8222 3088 7938 5172 2889 7129 6942 4361 5357 5088 7449 5178 4600 5749 5528 4148 5833 3354 3681 4882 6243 8201 4593 5772 5913 5450 4810 4586 1904 3120 9662 3202 3540 6937 3301 6056 4595 5557 3190 2876 3383 2565 1011 8253 4544 5732 3760 3640 6195 8247 1586 3956 4924 0 5050 8519 2075 3911 5772 4808 5025 3831 4656 6270 5504 4298 8527 4702 4356 4947 4114 7648 6187 3598 4634 983 5678 6682 9385 5434 4881 5427 5075 4213 7937 5239 4758 4348 7624
2848 6571 5171 6817 2768 7462 5295 5157 6621 6280 4201 8307 2974 5290 1063 8891 7570 6323 1132 6313 5828 4435 6414 2631 6957 2371 1648 3076 8367 5724 7567 4814 3999 3219 5512 6209 2989 5282 3099 2412 6306 5272 7138 2072 3916 4957 4152 6550 4753 3814 6021 4496 7144 5586 6408 9050 4078 2425 7662 7574 6224 6500 6377 2465 3447 5193 6264 1210 6015 5265 7194 6105 873 3763 1319 4996 2857 4145 7084 1857 7443 4574 5314 4819 2331 5224 4394 3339 7966 5050 0 5889 3034 2686 2343 7302 5723 3193 3801 4957 1069 1892 4074 1901 8846 4652 1963 1231 4215 5819 5662 3151 2049 4720 4803 4580 3172 2716 990 1939 6560 6324 5156 4336 1511
6448 3867 4671 8264 4484 2287 5662 6835 3624 6407 8112 4897 2121 6097 5203 7583 5507 9307 6896 4001 4924 7669 5390 2838 3990 4236 5349 898 3635 6475 1626 6716 2706 1308 3370 4918 4004 4590 3890 7620 1593 764 8246 6300 5148 2201 5463 5658 9716 4302 5404 3728 7200 4695 7834 2472 4126 5363 5161 5701 7914 418 7381 6830 4573 4425 4240 3390 7379 4549 2950 5431 2027 5825 2374 4461 4139 5602 2990 1158 4295 7583 3626 3315 3344 3166 4918 4145 6135 8519 5889 0 3000 4689 6015 7296 2685 7798 6295 4815 6896 1521 2038 4995 3313 5599 5668 274 2847 7132 5869 2608 1760 6009 8914 4560 8985 3517 9402 5384 7706 4464 4726 3980 6820
2065 3906 3370 6255 9510 4902 9887 2096 4581 2888 3193 4516 4354 3525 5003 2744 3279 4688 4297 7015 7988 4139 4188 615 7516 5753 8792 5180 3686 7983 3394 5651 4712 5097 8798 2846 2692 2215 5094 5950 3619 3202 1990 7553 5598 6912 2315 2832 5104 4798 5304 5062 1952 4215 1790 2335 7313 924 8013 4375 2732 6948 7430 1502 3021 3667 6174 5322 6056 3294 4806 4303 4842 1989 7554 5377 1823 6126 8480 6107 5916 5383 4216 4758 5609 2025 3130 5395 1986 2075 3034 3000 0 6872 7121 604 9162 7981 2292 3298 5395 5648 4784 3946 2513 2794 8578 6181 5713 4846 4953 8852 2722 4620 3828 2684 8664 5393 5957 3860 2944 3956 9055 4933 2514
3517 6424 7877 5314 1750 4584 2822 6569 3037 5019 7171 2075 1068 6541 3190 3903 6268 5495 5566 4331 5313 7142 5221 8240 4043 5767 6939 6715 4584 2448 8637 3368 1470 5545 4117 5953 4254 4935 6263 6486 4645 5863 614 6730 7403 5459 4678 3710 4430 3781 6676 3581 1942 5346 8904 2382 2666 6490 501 6549 7771 5622 1674 8796 6204 5713 9289 4818 3906 6095 3479 5182 6184 3085 3591 2813 4220 5831 5559 9387 7857 4330 3728 4633 8417 2281 5496 4307 1653 3911 2686 4689 6872 0 3508 3445 6154 7424 6803 4328 4670 2000 5400 8083 5862 6731 7043 2572 5438 3892 2663 4015 7056 4961 6460 3810 4722 2129 2457 5847 5547 4591 4114 2175 6158
7236 4584 7114 759 2609 3929 3158 7116 3986 1424 7413 9066 6665 2061 6672 1777 2623 3103 4995 8603 4067 1853 6878 3176 4591 5467 4801 4366 4073 5361 997 5683 3461 4855 5131 3364 6879 5058 4258 4905 6263 7112 4767 4726 4070 3671 7752 3896 4124 7844 2642 7490 5894 1864 5711 6188 8147 3791 4999 1210 3804 4572 8627 6451 6451 5953 5206 5931 6871 7622 2204 3500 8712 4622 6100 4308 6421 3091 1473 704 3806 6664 7011 7794 7323 7133 9468 2550 5312 5772 2343 6015 7121 3508 0 3085 3104 5597 4974 3605 4179 4616 4294 5490 1683 2429 4423 3535 8472 5825 6734 4200 8175 4992 5442 5752 2640 8294 8940 4729 2064 4366 1488 8288 4476
4602 4903 4465 544 8505 8750 6987 5143 6557 7975 6806 2770 5055 5307 3492 2165 3424 3481 5118 7991 7148 4499 6845 5562 9244 5141 2345 4910 1259 5413 2740 3226 4144 6689 3614 7530 3621 8578 7946 2709 6561 4388 8283 5027 8975 271 6147 7814 7290 4126 2292 7969 3569 5968 5066 5169 4793 3094 4140 2180 1495 6988 2531 7588 5376 5416 6625 6059 3885 7162 7152 4600 6307 1772 3853 6224 4576 7586 2920 7073 3418 8255 5459 5669 4329 3813 5838 2070 4618 4808 7302 7296 604 3445 3085 0 2521 3944 5407 8693 4140 4353 4564 6658 922 4186 6704 3887 5419 6630 5064 5654 4872 5293 3886 3765 2357 5393 3985 4156 6999 6412 5287 6568 8557
1804 6320 5286 7030 4168 4442 5914 4142 4547 6675 8702 6727 7757 2878 7210 6990 8935 4448 2444 6818 3903 3110 6804 6998 3332 4406 4982 8038 4722 3448 3534 6739 4621 4657 7974 6256 1477 4864 8538 5744 5902 5990 6645 3755 5158 3969 3984 9426 2364 4039 5428 6357 1394 5093 5501 5830 2150 4116 6401 5307 5743 6360 7329 1871 4219 3406 997 4838 3368 4458 6593 2527 8272 9895 6584 842 6256 2147 6667 3702 5836 6061 5883 3435 6015 4381 5475 5959 4741 5025 5723 2685 9162 6154 3104 2521 0 6270 1635 5383 4402 2333 6557 6343 819 5417 5623 7375 2214 4647 2393 4829 2765 6219 7623 7621 7282 2884 4440 2402 3484 5919 3302 1983 4882
3227 4309 4663 4292 7460 2049 1488 5489 3246 6718 368 4844 4586 3476 3747 5193 4682 7485 5677 7460 6500 3580 5010 4312 1578 6725 6081 7616 1234 2990 5965 1938 2664 7330 2583 4432 3198 5686 5119 3119 7568 5907 4022 9681 4461 3573 6132 5583 4521 5873 2961 3275 3285 4227 4732 3127 5780 2945 1173 4872 7673 4892 6945 5721 4575 5782 6088 3083 7110 489 7159 6700 5866 4975 1658 7059 6093 5088 8013 8389 5164 7151 4987 2646 5700 3935 5012 3616 4626 3831 3193 7798 7981 7424 5597 3944 6270 0 5276 4626 2064 2504 4933 6754 8343 7696 5460 5830 882 2191 2663 797 4544 8034 7116 3195 6869 6670 2500 5092 8414 1010 5017 7058 7729
1987 3289 5565 5784 4920 4975 5500 3822 6442 5239 5262 8651 5683 6389 8326 2630 4709 2835 5627 6009 3312 4406 8349 4771 8720 6165 4588 6471 7135 3856 6083 5394 2010 5139 4552 6449 6946 6982 4927 8108 6952 8665 7441 5102 4188 6643 6516 745 1646 1402 5989 2706 2805 5483 5192 8634 4639 1774 5466 8244 9622 5838 2057 8159 6002 5406 4716 7394 2376 4207 4245 5691 3994 7668 7814 6889 2962 7536 4603 3812 6399 4817 4067 3072 4329 6435 3185 1571 3144 4656 3801 6295 2292 6803 4974 5407 1635 5276 0 1831 6695 5710 1546 6656 4977 7283 7624 5315 8022 4979 6297 6085 1458 1894 7422 4585 7127 7469 6911 6699 1608 2090 513 1906 1069
6757 4889 5628 4029 4778 8707 4034 3624 8867 6471 5294 6591 6609 7822 2288 8055 5532 4621 4256 6299 6402 7154 5232 6875 5446 6402 6951 6665 3230 1686 4567 4004 7807 5695 8301 7019 4324 4708 2856 7116 5452 2330 4770 3812 4838 5160 5542 2447 5525 3797 4147 2942 5278 3043 8017 5149 6358 5009 1977 4804 5771 6226 7553 4847 5257 4075 1180 5346 5693 8475 4062 2720 2057 5181 5651 7852 8597 7463 4684 7305 3548 6084 9307 7947 3876 4593 3130 3118 6307 6270 4957 4815 3298 4328 3605 8693 5383 4626 1831 0 8487 3776 2546 3073 4015 7932 8391 7758 5977 3944 3544 5272 9759 5489 4851 5099 4907 6911 6017 6270 4668 6230 4440 6191 2392
4470 7147 4597 4520 7264 4955 3262 2812 9107 4960 4737 4624 9059 5280 4773 3808 6744 8270 6892 5767 3624 2348 3076 2427 6521 4275 5348 4813 6716 4932 5097 5663 4553 8775 3726 6548 7065 8908 4934 8934 4569 8031 2524 4726 2367 1411 4042 2392 4767 1513 7821 9134 4371 4988 1552 7417 5558 2890 4091 1955 2610 7781 4209 5722 6763 3615 2369 5728 4164 7452 4026 5665 1995 2893 4726 3496 6112 1982 6056 3973 7989 5182 4396 6357 4361 4397 2073 1862 2644 5504 1069 6896 5395 4670 4179 4140 4402 2064 6695 8487 0 2926 3679 3029 5862 1368 7142 3797 4246 4981 5878 3613 2929 4163 6844 6125 3153 5910 5224 5846 3385 2326 8619 2544 6405
7750 6085 5113 4773 5006 5393 5396 5349 4242 1663 1509 8593 4408 4759 1277 2834 4258 5826 3481 4577 4021 5645 6316 7223 7177 3932 5350 5732 2014 6777 5269 4643 3918 4686 8314 4254 6587 6235 4232 4692 2190 1290 6890 7152 6600 6442 3778 5892 8885 5375 5004 8936 7117 3953 7244 3361 3615 2950 3977 5716 5692 4108 2119 5135 6975 4353 5587 7548 7004 7287 3912 2238 3953 7874 948 6926 6619 7535 2925 3412 4639 4408 1419 6528 3683 2389 5364 4532 4611 4298 1892 1521 5648 2000 4616 4353 2333 2504 5710 3776 2926 0 5040 2662 4454 6932 4442 5130 1029 5355 6386 6009 2530 5283 6841 2806 4734 4893 4983 6590 3989 7887 2864 5663 2423
2266 223 5510 7437 5495 2480 3256 3773 6516 5399 4843 1807 3189 2108 8007 3770 6428 6788 2219 4870 1730 4053 799 4191 2730 6881 6897 6238 3282 2175 6084 1701 3097 7673 4557 1709 3435 7912 2305 7025 2980 5567 7363 424 6174 8087 6131 7082 5168 1434 4011 5601 6810 3631 7320 7308 9438 6530 6224 2776 8145 7168 5841 3598 5690 3796 5221 5278 3925 6614 4520 6700 9276 7006 6605 5795 2521 1589 4548 474 4445 4969 3080 9787 3790 2143 6587 1626 5511 8527 4074 2038 4784 5400 4294 4564 6557 4933 1546 2546 3679 5040 0 7971 5441 2362 5651 4227 7071 2874 7158 1976 3778 6528 4090 2378 8083 1988 6992 2187 2187 7356 2589 3516 5013
5999 2034 3703 3722 4077 1209 4065 4138 4237 3935 3820 5649 3764 7200 5991 4688 2510 7109 9064 3599 2355 4574 5075 6168 7808 7312 2109 5945 5089 7225 4995 5244 5827 4130 5999 5180 7808 6819 3905 4049 5715 3097 4885 4587 3726 6394 7586 4185 1699 5506 5216 7513 4921 5460 2883 3431 3860 8678 1465 1076 6621 7086 1496 6145 1874 3449 5543 6183 8467 4598 3493 9010 5807 9049 3845 6690 4608 3470 1182 3201 5694 4217 2242 3711 7368 3779 8352 5478 3792 4702 1901 4995 3946 8083 5490 6658 6343 6754 6656 3073 3029 2662 7971 0 5641 7807 5421 3404 4055 5097 4583 4216 4287 5435 6353 5347 6367 2964 6011 4461 3552 5703 7467 8067 5689
5103 5180 6015 5362 6268 3285 2936 3137 5575 4590 7932 7997 3281 4622 8484 4800 1534 3530 5612 4134 9814 7630 5938 6403 3902 4577 5608 3275 4899 3074 5591 8093 4578 1934 7178 2617 4917 3351 5687 8011 5991 2052 5863 6316 2346 8352 6017 5266 2379 6351 4690 3960 4643 2762 6732 5936 2652 7056 7380 4670 3570 1760 8188 8048 4968 3210 7032 4020 6224 5829 2597 5629 6642 2820 2529 3498 7691 4818 4151 7864 3412 3447 5207 5932 1312 5815 6744 7458 9138 4356 8846 3313 2513 5862 1683 922 819 8343 4977 4015 5862 4454 5441 5641 0 8307 9761 305 3807 7391 3418 3631 2981 1488 2346 905 3796 5992 5787 3089 5150 7417 5054 8678 6204
7308 2224 5671 5854 2245 5441 4947 7423 4408 6280 2909 8246 2383 4209 7124 4897 2352 4893 2406 7408 5772 7875 3342 5081 3317 4880 2071 5422 397 5922 4408 2245 4511 5410 3680 2394 2607 9116 6820 3635 3429 3241 4108 7262 4053 3538 320 7220 5879 6515 1673 8716 5375 3862 4876 4689 7249 3370 2307 3228 6362 5384 6499 6402 4806 5049 2593 8778 4722 6235 5862 2418 4380 4159 4335 3921 9071 4068 3591 6331 5620 6107 4834 5330 7572 8476 6045 6126 2308 4947 4652 5599 2794 6731 2429 4186 5417 7696 7283 7932 1368 6932 2362 7807 8307 0 6770 8271 1783 1236 2645 3920 7156 6778 7420 6165 3430 5047 2464 4366 3359 1685 3491 2316 3490
4875 3129 7797 1815 749 4659 5744 4012 4643 5789 4804 5587 6986 6009 5654 7002 6963 4374 4088 6657 2143 6361 4339 8948 2128 3527 7630 5621 8693 4496 6358 6389 4932 6619 4091 2502 5868 6030 3435 6322 5707 2741 7214 4962 7891 4720 8891 2381 6013 8390 5372 4123 1994 3472 5351 6675 7553 8493 6770 5926 8038 6027 3539 4551 4974 6915 5623 5341 4349 7847 4383 2481 5698 5370 3197 8082 6120 4130 2965 8385 7997 4561 2025 2050 6222 5793 6705 6827 8663 4114 1963 5668 8578 7043 4423 6704 5623 5460 7624 8391 7142 4442 5651 5421 9761 6770 0 5752 4684 5252 3041 6197 6277 6122 7049 2980 4725 3614 8418 2933 4901 5497 5203 5480 3062
4591 7889 9236 1728 8132 2370 606 7097 2895 8937 4366 5577 7002 6046 2870 4347 5180 3191 5673 4321 6485 4686 8573 7231 4603 6059 1930 3043 6475 4975 8618 3050 9338 5004 4638 5658 5034 4668 6836 7489 5056 2292 4431 4195 6594 3974 5197 4624 3272 8620 4343 742 3570 4349 7910 3836 3749 3680 5544 6640 4067 4060 6248 3311 4297 8506 2279 3282 2473 6598 4774 7612 6657 4360 4769 4159 3049 2719 5024 3552 5082 1053 4272 8273 1072 5472 6497 8603 2384 7648 1231 274 6181 2572 3535 3887 7375 5830 5315 7758 3797 5130 4227 3404 305 8271 5752 0 8331 5299 3256 8022 4114 4082 3749 6800 6931 4941 6584 6883 5705 7041 5509 4167 6362
6864 9163 6400 8078 4320 5265 1585 6020 2883 5060 7767 5271 4511 7746 5455 2659 5082 4293 3114 4440 4144 8244 1965 7884 4353 3083 3090 7763 8106 3585 1627 1550 3247 5109 8731 3957 4196 8096 5796 2749 5354 3397 8655 3827 2903 7481 5819 5072 7707 6975 2901 5361 908 5426 380 602 4104 7135 2942 6131 3488 3788 5257 8549 7024 3991 3073 9293 2914 2649 568 8767 7762 8542 5120 5601 8063 2948 4532 4174 3517 4843 5087 6926 6157 384 7222 5069 2736 6187 4215 2847 5713 5438 8472 5419 2214 882 8022 5977 4246 1029 7071 4055 3807 1783 4684 8331 0 7716 5525 8526 6538 3306 8577 2608 5273 3833 6142 5071 5511 3576 6403 5662 5916
4601 3713 4597 4098 3736 4105 5968 2414 4573 3006 7124 7927 4673 886 8275 2167 4643 4407 5918 6726 4334 3767 4660 2605 8710 4164 2592 2493 6090 4656 8792 7965 3462 5874 4969 5599 2857 2118 3291 5228 4931 3224 2045 9210 7346 4800 2814 7208 3797 4979 9008 6575 669 6323 8999 5194 6072 8576 2121 8112 7344 2754 2169 6114 6671 7581 3051 8041 3788 4871 8014 5195 6496 3609 5477 2007 7724 6623 4907 6548 3071 2991 4779 7948 3462 2742 4265 3017 5322 3598 5819 7132 4846 3892 5825 6630 4647 2191 4979 3944 4981 5355 2874 5097 7391 1236 5252 5299 7716 0 1131 2949 5522 2772 286 3344 5395 2333 4072 6588 2820 4867 7439 2225 4980
7787 2133 5847 8035 1859 1563 5849 4358 5180 1483 6211 3609 4134 6281 4691 4372 5393 4717 8187 6155 7393 2655 8240 2237 4295 6421 6349 2245 7376 7713 8304 5984 1990 4498 1735 6084 8166 4942 5087 5329 5137 4186 2443 6368 2762 5174 4811 4644 7264 5711 5022 3135 7938 7413 2031 2678 5980 5531 8513 1025 2067 5073 7058 3287 4946 3300 5900 4934 2836 9571 4522 5002 7190 1737 4845 4391 1886 6218 1818 2853 5722 2793 3447 8334 681 3696 5290 5347 4882 4634 5662 5869 4953 2663 6734 5064 2393 2663 6297 3544 5878 6386 7158 4583 3418 2645 3041 3256 5525 1131 0 6584 4941 2680 7909 4779 3396 2439 6460 2831 6859 4220 6747 2524 4726
4497 4066 9158 6187 7786 3085 6459 6912 4853 7527 2268 3544 5363 8045 5566 4617 8895 3918 8375 6270 1955 4457 5132 7968 4030 7754 5964 3377 5381 5822 1288 2997 3220 2060 347 1315 6588 6039 6047 5548 5784 3783 7413 6624 2498 764 5380 8829 7214 6319 4664 3919 6129 9122 4607 4749 7453 6676 4784 6513 2822 7263 5021 5115 7293 7013 7351 5564 2121 4893 1586 1569 5592 5720 8398 7517 7555 4977 5885 4997 8877 3095 2324 1429 8888 6690 3705 9428 7227 983 3151 2608 8852 4015 4200 5654 4829 797 6085 5272 3613 6009 1976 4216 3631 3920 6197 8022 8526 2949 6584 0 6281 4322 7028 6081 6890 8350 7431 2024 3287 1608 1630 4690 3479
4484 5484 9083 7252 7351 9304 2871 7177 5697 1689 6420 1596 4541 5373 2866 1143 7691 4917 4354 3300 3674 4722 4923 8124 4336 8468 5268 2985 5043 6468 7855 3905 6090 2472 7642 6289 1559 3554 5723 4823 3299 6905 1735 5358 4714 4681 4399 6071 5027 5324 3682 4137 5811 2314 2295 4908 4440 4165 7259 5410 2123 4916 5420 631 550 2882 378 4360 4683 8738 7577 5598 6914 5628 9398 3451 9364 1392 6857 4149 8921 4228 4302 3999 6154 4502 2947 3369 2045 5678 2049 1760 2722 7056 8175 4872 2765 4544 1458 9759 2929 2530 3778 4287 2981 7156 6277 4114 6538 5522 4941 6281 0 2938 3998 6061 967 8587 5621 7912 2093 8225 9260 4738 7108
4310 6803 5600 7080 5554 9880 6978 7237 6267 1784 5863 3889 2140 4750 7860 2699 3179 3587 365 4909 6988 1988 4018 3705 9827 5415 5479 200 3274 2855 7299 3230 2366 9013 8301 4992 7149 5245 8803 4485 5743 3815 5385 1084 5106 4864 5693 5282 3363 3383 3115 4692 6978 5942 7523 4825 3534 5560 4953 6211 7306 5494 2000 5397 5628 7455 4133 8976 8589 3728 5091 3772 3282 5077 6104 1943 6301 3422 3032 8476 6557 4593 5254 3692 3520 3005 4079 4263 6800 6682 4720 6009 4620 4961 4992 5293 6219 8034 1894 5489 4163 5283 6528 5435 1488 6778 6122 4082 3306 2772 2680 4322 2938 0 4279 7113 6922 4177 4507 3440 8445 5275 5550 5468 8413
6726 1161 6185 8361 4372 1848 7232 3876 4747 4783 3799 3305 3654 5752 5546 5994 4803 5696 7726 6694 7133 7793 4716 4921 6838 5474 4107 7934 1775 5962 8444 2926 4853 5302 3255 3586 3824 5370 7458 4674 4156 4985 2174 7809 5234 5055 7327 4990 5692 5300 2748 4507 3139 5700 3537 8112 7142 9269 3224 3297 2894 6267 437 2425 5184 7749 3148 7103 5024 7941 5422 2110 1827 2235 2069 6738 5140 5508 4481 6373 8296 6744 5037 8935 6435 4210 5685 1920 4873 9385 4803 8914 3828 6460 5442 3886 7623 7116 7422 4851 6844 6841 4090 6353 2346 7420 7049 3749 8577 286 7909 7028 3998 4279 0 4777 5851 5924 4205 4825 4983 1507 5974 2776 3533
5295 7920 3213 2410 8705 6751 7147 7884 2004 4762 7110 6825 5910 2344 2828 4776 7966 7276 1586 7149 4440 7165 4759 4338 4649 8667 4583 3932 5591 2157 5104 3638 5260 2738 3741 6171 4016 2455 6062 6822 3221 7201 4418 2517 5382 2886 4525 4078 4227 1956 5158 3109 2428 2889 5843 3080 4496 5208 5634 4216 7777 4896 2448 4819 3304 4565 5477 2120 6700 4570 1085 7238 7956 6501 4399 6179 1637 6415 5514 3403 2613 3656 4400 5105 3751 6377 6335 4932 2826 5434 4580 4560 2684 3810 5752 3765 7621 3195 4585 5099 6125 2806 2378 5347 905 6165 2980 6800 2608 3344 4779 6081 6061 7113 4777 0 5227 5245 8081 4789 2829 3096 5495 6258 3586
4426 4140 2184 5365 2614 6932 5198 2899 4400 6150 4309 5471 4994 6783 7694 4866 6492 2909 5473 2515 2555 4620 5864 5533 4748 3517 3956 6007 5364 680 8774 1190 3761 3665 2467 6294 3345 5982 6038 7226 4933 4475 6043 2409 4406 4582 5059 2336 8853 5042 4685 1278 4160 7754 6501 6920 2419 8071 4474 5122 8653 2915 5651 3967 1610 7813 6236 8397 6924 6958 315 9429 2222 686 6223 7262 8075 7169 1429 6811 4655 5305 7743 3715 2352 1910 5825 942 3062 4881 3172 8985 8664 4722 2640 2357 7282 6869 7127 4907 3153 4734 8083 6367 3796 3430 4725 6931 5273 5395 3396 6890 967 6922 5851 5227 0 3648 4554 7839 5388 4715 4787 5746 1573
5661 3427 6048 5687 9273 3018 7268 4945 6462 7599 6375 5418 3447 2027 3801 4734 4635 4948 3952 1923 3730 2482 2885 5900 4433 7341 3038 5299 237 4615 5218 7447 4043 4793 7107 6986 4688 4547 7049 6160 2877 5190 6351 5691 3809 6065 9603 4385 8214 3673 6562 2804 3530 3507 4097 7915 6138 2783 3512 7557 6494 5582 9377 4436 8131 4917 5032 8444 5800 3741 5412 6508 581 4620 2991 4938 6332 2252 3665 2816 9325 4873 7140 500 4767 3087 4611 3939 4463 5427 2716 3517 5393 2129 8294 5393 2884 6670 7469 6911 5910 4893 1988 2964 5992 5047 3614 4941 3833 2333 2439 8350 8587 4177 5924 5245 3648 0 5649 5167 5495 8773 6108 548 8658
7241 6874 1184 3656 2528 3608 5253 4237 6409 5778 3256 7859 6167 4582 7606 5012 4579 3579 4981 517 8020 7351 5475 6738 5531 524 6024 3155 6911 1051 5700 8518 3769 6484 6336 6528 5023 5234 5808 2502 1895 3766 5483 3237 1564 3595 5948 7338 3578 6323 7992 9822 3986 7082 7540 5783 6859 784 3134 8018 2811 2961 1261 4980 2431 4690 4734 7406 3024 5129 3013 1206 4011 5441 2827 6462 5067 5042 2892 2527 4824 5945 4868 6734 6303 6779 5670 6352 3301 5075 990 9402 5957 2457 8940 3985 4440 2500 6911 6017 5224 4983 6992 6011 5787 2464 8418 6584 6142 4072 6460 7431 5621 4507 4205 8081 4554 5649 0 3156 8411 7651 8540 4450 2030
3178 6233 6869 6355 6507 6044 7207 7289 4950 4499 1197 5117 3922 6039 7630 3819 8460 7200 8716 3690 3656 3851 2810 7656 5851 2279 7743 6562 5522 1305 6784 2326 3867 5845 5136 3264 5431 3929 2681 6023 6231 4705 4648 4277 3427 5577 1039 5118 4558 3117 3789 4796 3085 7416 4400 1213 7036 7556 5173 7081 4785 5944 6681 7836 8214 667 7109 2508 8987 3260 7925 3904 8636 5555 1433 2097 2731 5609 5288 7106 5181 4524 7174 4698 5049 1989 1580 3598 4823 4213 1939 5384 3860 5847 4729 4156 2402 5092 6699 6270 5846 6590 2187 4461 3089 4366 2933 6883 5071 6588 2831 2024 7912 3440 4825 4789 7839 5167 3156 0 4491 7185 1557 5491 1357
3807 7470 5927 6629 7503 2251 5785 9670 6757 3568 7239 4899 4735 1478 5264 2742 7303 3157 6954 5385 8002 5142 5423 6656 1682 3127 6175 2787 5049 8996 5730 5769 8177 6228 3098 2908 5714 5041 4279 7289 5656 6296 4522 4403 7218 5631 2767 2721 3894 4980 6850 4914 2696 4699 4752 4866 8140 5457 2744 4835 1636 7731 5141 5300 5095 7682 4559 1574 5665 6893 2920 3807 6335 3265 3228 5685 4935 2081 4683 6221 8637 6023 1389 6379 7613 1525 5983 4263 1456 7937 6560 7706 2944 5547 2064 6999 3484 8414 1608 4668 3385 3989 2187 3552 5150 3359 4901 5705 5511 2820 6859 3287 2093 8445 4983 2829 5388 5495 8411 4491 0 4128 4431 3357 2062
4318 1248 5636 8922 3580 7679 7508 1863 3693 6000 1479 6550 1967 5804 608 4221 4935 1258 3865 8035 5389 4881 6125 6404 4255 4853 5482 8756 2087 3322 1103 3869 3553 5186 7335 7574 5257 1669 2223 6866 7220 7450 916 6920 3961 5639 6906 3062 8275 7291 7081 6494 4668 5920 6437 5480 5012 4159 5927 7399 4967 4636 5182 3090 2936 6149 4580 5597 4280 2632 6663 3805 7033 2329 8813 5973 3321 1506 6426 6548 9284 5981 7580 2231 8584 3685 5656 1122 5558 5239 6324 4464 3956 4591 4366 6412 5919 1010 2090 6230 2326 7887 7356 5703 7417 1685 5497 7041 3576 4867 4220 1608 8225 5275 1507 3096 4715 8773 7651 7185 4128 0 5328 674 3628
7803 3210 8105 3360 2941 6966 5083 5337 7968 5661 3510 6057 3916 891 8839 3710 2267 3968 3572 3640 7540 6833 4551 3988 6691 2086 3537 5301 1665 2922 5252 799 3841 6095 2661 3050 7023 6924 6090 4820 4181 4666 6296 5957 4842 4502 7343 3825 6001 8086 1756 3232 6445 5417 4540 7402 5126 848 6947 4509 5676 7484 2797 3528 3887 6661 7794 4346 6425 5680 7686 7670 3342 8444 6266 4667 7551 1136 7484 2814 6182 4433 4327 3923 3016 3594 5034 3576 3550 4758 5156 4726 9055 4114 1488 5287 3302 5017 513 4440 8619 2864 2589 7467 5054 3491 5203 5509 6403 7439 6747 1630 9260 5550 5974 5495 4787 6108 8540 1557 4431 5328 0 3938 2648
4497 5433 2752 7591 3926 2865 6137 5458 6340 6783 4266 5471 5048 5281 3905 2327 5787 7219 5285 5081 9321 4171 5198 889 5389 6589 3459 3856 3080 3343 7043 4225 3614 3467 8738 1955 3551 5699 5086 4358 2585 3736 2998 8706 9624 8296 6335 2003 2688 5987 914 2250 6229 5197 2740 4640 2731 8848 3957 7046 1931 4737 8347 2353 4400 5411 7613 1663 1702 4712 6933 2656 1771 4773 3630 6456 2179 5659 8739 8146 8092 6100 4939 5474 5388 3608 3520 8577 5368 4348 4336 3980 4933 2175 8288 6568 1983 7058 1906 6191 2544 5663 3516 8067 8678 2316 5480 4167 5662 2225 2524 4690 4738 5468 2776 6258 5746 548 4450 5491 3357 674 3938 0 3017
7934 1411 4771 7826 7877 7575 5990 7178 6636 4417 3435 4691 4585 5056 6271 4968 3028 6000 4925 1548 4745 3887 8530 4177 8037 6310 8638 6390 6927 6187 6423 5829 9426 4487 5602 3796 5300 5025 7262 1844 6555 5782 4864 7564 7663 6562 1817 4831 4536 9075 3053 6302 3131 9467 6597 634 3062 5074 4649 5266 5767 4976 6903 5740 5497 4485 6561 4024 1494 8449 8849 5213 942 6233 5892 5984 947 6270 2634 5007 4831 793 5642 4972 5750 5853 4875 4411 1183 7624 1511 6820 2514 6158 4476 8557 4882 7729 1069 2392 6405 2423 5013 5689 6204 3490 3062 6362 5916 4980 4726 3479 7108 8413 3533 3586 1573 8658 2030 1357 2062 3628 2648 3017 0
EOF
