NAME: family_B_clustered_n400_s0
TYPE: TSP
COMMENT: family_B_clustered generated explicit tsp
DIMENSION: 400
EDGE_WEIGHT_TYPE: EXPLICIT
EDGE_WEIGHT_FORMAT: FULL_MATRIX
EDGE_WEIGHT_SECTION
0 85 64 51 27 31 5 8 2 18 81 65 91 50 61 97 73 63 54 56 93 28 81 67 1 40 85 55 4 76 73 84 18 9 86 3 54 8 30 48 42 40 3 1 13 1 67 53 65 26 61 76 38 46 99 80 98 38 68 95 65 84 69 70 39 87 14 58 72 84 53 38 31 42 49 72 89 8 93 53 36 67 57 26 32 72 59 50 34 76 39 33 89 27 23 71 62 5 9 38 3581 2502 3467 2291 2098 3479 3691 1698 1646 3178 2340 2934 1875 3650 2625 3737 3490 3263 2076 3417 1630 2925 2511 3991 1996 3866 1726 3057 2950 3747 2246 3755 3179 3725 1998 3395 3855 1621 2412 3091 1763 2775 3072 3409 3817 2524 2600 2685 3886 1989 2749 1624 2563 3863 3050 2374 3987 3009 3872 1540 2650 3587 3394 2518 2743 2550 2823 2075 3464 1694 2536 2204 3336 3373 3277 3811 3830 1961 1787 1830 3322 3925 3818 3170 3919 3678 1536 1798 3659 1705 3952 3568 3893 2400 1871 2792 3931 2418 3724 2459 3555 2073 2699 2317 2080 3731 3504 1849 3808 3927 2165 2566 2847 3142 2606 1871 3827 3230 1601 3535 3330 1958 3035 2754 1570 3818 3298 2275 1539 1728 3394 1873 2781 3746 3822 2169 1665 2737 3603 3061 1666 3125 2360 2065 2575 3683 3915 1852 2905 3403 2147 2181 2104 2024 3720 2046 2064 1813 1811 3446 2220 3504 2965 3646 2885 3410 3524 1652 2901 2636 2221 2631 2532 2729 3545 3563 3066 3275 3897 3092 2423 1705 2881 2078 2984 1564 3620 3861 1863 3547 2516 1604 3774 3852 1607 2983 3556 3474 2538 3649 3574 1783 1524 1755 2412 1774 1696 2146 3131 2810 2184 3876 3256 3086 3859 3463 1817 1592 3661 2519 1648 2691 2451 2577 2574 2285 2722 2728 3941 3231 3439 1520 2272 3959 2174 2774 3657 3096 3703 1910 2776 3089 2360 2935 3987 3341 2289 1659 1956 2180 3700 2177 3530 2184 3169 2817 3896 2915 3814 3904 3370 3070 3651 3991 2117 2906 1853 1762 3175 1618 3286 3552 1917 3200 2488 3733 3775 2943 2903 3276 2945 3364 1985 3455 2815 3379 2808 2266 1722 2813 3954 1589 2928 2617 1516 2858 3431 3353 3945 2822
85 0 59 96 32 80 19 36 67 58 20 66 58 92 60 88 96 9 8 50 50 55 74 32 18 68 39 93 7 71 72 27 9 32 40 97 87 23 47 60 91 14 76 92 91 28 13 59 8 13 7 21 87 67 63 98 50 4 17 26 67 36 32 12 71 3 46 74 51 69 79 23 10 6 58 27 20 73 81 95 49 52 98 50 19 26 96 5 80 65 48 83 81 44 60 76 65 49 91 88 1663 2867 3587 1711 2454 2771 2313 3238 3985 2409 3452 1792 2713 1513 2556 1535 3693 3923 1717 3545 3271 2251 3472 3905 3497 3231 2305 3016 3491 3286 2063 2530 2405 3236 2543 2548 2853 2948 1781 3812 2517 1938 1500 2587 3360 2240 3629 1999 1847 2477 3259 2248 3552 1552 3954 1617 3609 1508 2560 2273 3949 3137 3934 2536 2759 2755 3383 2772 3784 1979 2690 2116 3659 1843 3253 3779 2234 2197 3419 2978 2926 3710 1734 2182 2478 3793 1684 2631 2690 1536 2571 3121 2559 2264 2965 3952 1806 2215 3834 2241 3210 2378 3559 2963 3742 3093 2958 2721 1600 1801 3278 3098 2922 1792 3564 3490 2830 2135 3533 2804 3992 2201 2376 3509 1927 2304 2479 3315 3382 3471 2598 3038 2970 3430 1818 2295 3315 2004 2200 3946 1976 3995 3657 1890 2911 2309 2711 3024 3747 3828 1715 1947 3240 2015 2319 2963 1938 3986 3186 2068 2407 3120 2324 3054 3859 2413 1998 2214 2780 2889 1560 3107 1908 3074 3708 1983 3473 1585 2892 3167 2056 3453 2894 2544 1530 1836 3282 2517 3291 3902 3115 3354 3028 2250 1684 3032 2116 1802 2935 3025 2485 3074 3980 3395 3809 1669 1880 2396 2974 3238 3240 3766 1841 1928 2281 1919 3289 2529 3752 2209 2354 2247 2097 3601 3554 2239 2962 3696 2691 3756 2140 2064 1681 3078 1544 1945 2949 2601 1977 2781 3938 3958 1768 3382 2630 2664 2486 3592 2080 2961 3371 2535 3109 1796 3314 2259 1707 2238 2381 3111 2799 3582 2566 3716 1601 2312 1985 2455 3862 1838 1906 2520 3630 1520 3555 3448 2478 1607 2666 3253 3560 1896 3201 2887 3592 3275 3393 3637 3228 2485 3782 2891 3557 1757 1947 2868 3370 3877 1716 3650
64 59 0 43 95 40 92 21 34 93 98 10 15 1 93 32 53 99 84 27 37 83 49 18 94 59 77 95 61 71 86 98 54 57 67 98 45 83 28 78 12 88 34 63 14 36 10 53 98 23 27 77 19 17 22 58 50 54 3 67 32 76 83 11 30 62 18 41 35 61 74 69 32 58 80 73 79 52 58 46 61 29 46 23 50 69 78 69 18 20 38 97 3 67 30 53 9 84 87 49 3449 2689 3317 2145 2295 1890 2635 3279 3453 3610 1977 3194 2175 2422 2426 2939 2970 2908 1662 3841 3630 2469 2929 1911 3086 3692 3820 3736 1637 1620 3342 1995 1972 3090 1649 3472 1947 3016 3076 1978 2502 1794 3952 2764 1870 3538 3349 2042 2347 1687 2891 2877 1632 1979 2636 1668 3354 3433 3274 3553 3502 2495 2623 2235 1925 2192 3308 2402 3991 2942 3163 2819 3492 2388 3030 3093 3664 3189 2995 2895 1637 2468 2280 3059 2289 2979 2746 2350 2767 2258 2041 2864 3971 3030 3042 3026 3705 2457 2559 2914 2896 3964 1949 2570 2026 3607 2883 1703 1962 3688 2606 3854 1729 2154 2868 1530 2477 2707 2094 1956 3816 3929 2750 3744 2715 3901 1608 3009 1605 2787 3708 3581 2034 3130 1917 2121 2567 3835 3177 2599 2013 3433 2976 2752 3134 1958 3784 2239 2695 2936 1937 1857 2687 1534 3010 2584 2097 3405 2315 3035 2024 2310 3066 3293 3100 2711 2129 3998 3777 3440 2228 3576 2946 2148 3452 1880 2948 1998 1684 2580 2617 2780 1514 1986 1705 3449 1623 3671 2032 2290 2341 2770 2413 2985 2445 3305 3973 1868 1798 2202 2007 3326 3313 2920 3982 3749 3954 2619 2884 2516 2205 2266 3358 2078 1866 3126 2843 2161 2258 3655 1601 2176 2896 3183 2934 2920 3433 3071 3071 3738 3397 1924 3918 1874 3862 1804 3955 1691 3716 2835 2908 1914 1828 3517 2110 1556 2637 2436 2628 2683 1663 2041 2174 2389 2558 2056 3503 2204 2595 3817 3993 2542 2469 2464 2388 3027 3098 3160 3450 3150 2174 1711 2530 2954 3790 3339 2295 3488 3138 2971 3640 1826 2732 1709 3353 2307 3432 3818 3640 2681 3051 3738 1787 2649 2232 3387 3969 2712 2633 3271
51 96 43 0 26 32 17 89 51 27 62 1 37 72 96 67 13 66 71 69 14 59 39 12 98 67 84 1 42 19 90 42 66 38 93 12 13 43 58 62 86 38 94 71 57 23 74 15 6 75 25 67 56 43 46 14 31 66 38 75 94 17 19 69 26 36 91 91 92 75 5 28 63 93 26 3 70 19 88 24 13 73 21 53 97 46 30 23 49 75 73 12 59 25 37 80 82 45 25 87 3636 3004 2545 3473 2484 1968 3876 2290 3223 2441 3931 2735 2923 2681 3708 3556 2847 1932 2347 3628 3939 3722 3900 1688 2550 1523 1666 2231 2947 2501 2518 3926 3994 1678 2370 3453 2404 2688 2792 1824 2625 2415 2532 2452 1506 2108 3231 2235 3974 2549 2405 3905 1999 2647 3517 3875 3826 1576 2755 1665 2564 1569 2208 3164 3609 2050 2520 2941 3427 3488 3989 2329 2872 2114 1515 3313 2650 2689 2782 1873 3317 1718 1669 3342 2449 3651 3565 3725 1989 2775 3895 1883 3590 2064 2249 2633 2731 3629 3602 3125 2625 2185 2176 3389 2416 2588 2242 3956 2512 2571 3678 3592 1815 1536 3667 3295 3805 2496 2039 2747 1927 1997 3282 3823 2204 1999 3677 2903 3177 2993 3293 3646 1717 2666 3554 3574 3603 2809 2128 3890 3843 3291 2589 3780 2267 3855 3319 3505 3298 1805 1759 1811 3889 3040 3798 2178 2825 2462 3304 1934 3455 3405 3161 3636 3996 1832 3579 2792 3591 2487 1666 3475 1863 2662 3280 3327 1618 2915 1719 3945 2790 2549 2504 3969 3351 2538 3319 1956 2499 3455 3521 2179 2734 2914 3640 3115 2805 1999 2731 1586 3128 3967 2980 3543 2485 1809 2466 3619 3082 2145 3419 2118 2126 3431 2266 3393 3997 3614 3514 1841 2833 3368 3708 2674 2040 2314 2578 3335 1890 3612 3943 2306 3748 1887 1967 3979 2968 3797 2737 2224 2132 3536 1730 1724 3030 3781 2091 3436 3212 1992 3248 2239 2790 2988 1937 2389 3259 3340 1992 2980 1786 2017 3825 3025 3815 1535 1815 1779 2331 1903 2618 2384 3196 1529 2599 3824 3631 2098 1995 2176 3743 2439 1836 3851 3478 2379 3074 2577 1540 2246 2574 3940 2785 2412 1856 1708 3001 3144 3064 3291
27 32 95 26 0 15 37 52 21 67 41 86 44 27 99 98 85 51 62 20 20 81 69 50 76 18 8 51 38 23 33 23 57 44 65 3 18 37 47 81 99 4 2 83 37 90 34 81 41 7 87 17 44 24 88 36 57 5 43 17 25 14 82 89 64 50 22 56 13 46 13 15 90 46 40 43 82 48 89 28 23 21 4 1 18 32 77 37 2 40 56 2 19 95 76 66 48 23 55 76 2233 2600 2641 3168 1614 3086 3523 1639 3768 3014 3381 2331 2739 3346 3609 2998 1509 2858 3164 2203 3418 3438 2316 2209 3641 3224 1500 2173 3080 3058 2252 3755 3071 2337 2128 2456 2024 2451 3065 3475 2742 2649 1968 2771 3715 3155 3705 2791 2873 1767 3265 3757 2628 2922 3503 2355 3584 2363 3410 3435 2107 3199 1561 3381 3145 1586 2528 3643 3735 2398 3649 3702 2834 1829 2443 3161 3282 3998 3273 3120 3205 3388 3606 3998 2943 2069 2790 3700 2792 3924 3722 3606 2416 3673 3604 2582 2762 3073 1713 1501 2622 3005 2227 3696 2819 1550 3633 2745 1948 2970 2688 1622 2956 3231 3424 2082 3852 3561 2876 2545 3804 2624 2341 2738 3410 2993 3409 2462 2878 2370 1934 2588 2465 3688 2227 3862 3917 1891 3111 3298 3772 3926 2240 2925 2572 2826 2918 3077 2386 2156 2641 3852 2998 3428 1570 1748 2349 1513 1500 2966 2706 2666 3020 3555 1732 3391 2105 3249 3509 3964 3600 3157 2469 2254 3535 1945 2192 2182 3265 3984 2863 3716 2600 3695 3141 3484 1533 3705 1906 2359 2234 3602 3201 1918 3265 2192 3201 2853 3419 3749 1698 3132 1764 3803 3638 3865 2392 3029 2920 1673 2758 2805 3066 2147 1692 1560 3424 3277 1808 3766 3203 1992 2505 3905 2730 1518 3179 3909 2427 3612 1615 1674 3910 2329 2806 2145 3355 2447 2828 3817 3549 3935 2911 1580 1806 2210 3104 3802 1931 1778 3559 2980 3202 2307 3849 3056 3072 3585 2062 3233 2892 2755 3429 2188 3279 3512 2355 2098 3138 2121 3838 1712 3212 2623 2418 2890 3776 1864 3569 2544 3637 3393 1767 2051 2227 1714 3475 2800 2187 3355 1684 1595 3208 3382 3498 2971 3104 1972 2362 1847
31 80 40 32 15 0 56 68 3 18 56 57 85 73 8 10 38 8 17 26 38 74 2 52 82 77 50 33 44 56 60 95 85 73 29 60 27 47 5 27 27 65 7 29 5 20 55 26 19 74 8 14 91 96 15 81 10 46 97 47 67 91 72 3 56 12 7 82 84 84 42 43 39 84 14 90 12 32 52 1 57 1 52 19 61 51 87 52 50 37 38 63 26 23 31 54 56 45 79 14 2602 3248 1601 1925 1970 3673 1726 2987 2333 2901 3210 3492 2976 3124 3155 2060 2636 3855 1774 1848 2240 2790 2777 3260 2742 2137 2109 3161 3563 3962 2583 3420 3613 3007 2163 1832 3854 3026 1779 2541 3422 2747 1550 2199 2090 2592 3676 2388 2375 3695 3831 1553 3823 2148 3500 1969 2490 2610 3645 3922 2642 2893 1815 1653 3629 3899 3540 2026 1838 2848 3666 3782 2797 2544 3358 3764 2170 2904 2038 3515 3620 2174 3000 2074 1869 1589 2414 2384 3647 3290 2670 2045 2342 1804 2352 2577 3561 3720 2635 2231 3870 3821 2280 3621 3391 2485 2214 1714 3419 2614 1543 1854 1824 3516 2148 3011 3675 2554 2306 2095 2708 3520 1767 3519 2916 3703 1739 3968 1854 2361 3502 2925 2109 3741 1653 2824 3004 3919 1866 1903 1632 1770 3576 2827 2492 2078 3663 2705 3360 2697 2002 1904 1712 1550 1928 3092 2736 3172 2394 2175 3579 3656 2673 3680 2886 3265 2468 1542 3387 2717 3222 2386 3214 3913 3428 3562 2496 2853 1797 3803 3544 2793 2363 2894 3229 3936 3971 2298 3254 3896 3766 3062 1533 1610 3009 1767 1743 3998 3681 2317 3900 2892 1585 3138 1833 2374 3581 3966 3217 2252 3954 1536 3391 3227 2985 2145 2848 2104 1524 3332 3459 2066 2460 3827 1766 3785 2867 2796 2424 2855 3014 1566 1541 3590 1912 3850 2849 2174 3024 2362 1705 3834 3090 3850 3603 2300 2216 3144 2803 1675 3765 2842 3257 3836 2016 3855 3916 2990 2355 3109 3560 1752 2631 1764 3474 2841 3802 2716 3756 3478 3511 3322 2307 2078 3781 3753 1883 1944 2150 1628 3115 3809 3370 1817 1625 3753 2172 3516 2422 3449 3618 3691 1504 2236 3724 2982 2336 3760 3041 1562
5 19 92 17 37 56 0 93 81 7 97 54 95 22 13 70 10 81 30 25 61 86 80 18 77 48 63 13 47 31 25 38 9 69 70 32 66 53 60 65 67 78 60 30 91 6 62 24 16 55 54 87 65 66 52 61 58 4 65 50 87 33 55 35 60 95 31 17 79 9 47 31 32 64 37 27 34 70 45 69 98 44 60 83 39 33 46 62 59 54 19 8 49 35 4 56 17 97 77 78 3282 2702 2293 1991 2163 2174 3264 1606 3999 2953 2427 2560 3008 3146 3468 2828 1528 2541 3458 2380 2243 1601 1952 3957 3492 1687 3912 1563 2923 2038 3004 1840 2271 3486 3904 1879 3788 2349 1622 1533 3158 3828 2373 2302 1669 3607 2661 3904 3555 3318 3295 2151 3669 2730 2056 3456 1524 3246 3991 3568 3335 2861 1882 3143 2340 2407 3937 1978 3883 3243 2904 1507 3596 3459 1636 1518 2138 3042 2340 2986 3131 1763 3743 2980 1821 3394 2649 2839 3833 3181 3176 3271 3422 2014 3947 3816 3291 2318 1576 2959 3547 1757 3383 3991 1896 3135 2771 2654 3850 2915 1700 1567 2195 2100 3491 3936 2675 1702 3350 1854 3491 2932 2389 3434 1642 3632 1993 3653 2633 3400 2083 2369 3979 2953 2310 3532 2725 1847 3802 1703 2960 2646 2975 2275 2306 1509 3927 2792 3669 2432 3791 3707 2710 2335 1719 3156 2760 2920 2116 2249 2912 2669 3055 2419 3066 2093 2402 1720 3475 1630 1619 2056 3235 1708 3891 1876 3515 1812 2104 2433 3614 2095 3168 1511 2116 1582 2091 3975 3052 2112 3391 1602 2004 3065 3183 2879 1590 2472 3380 3333 1726 3842 3084 2490 3864 2438 2344 2785 1527 2086 2542 1934 3478 2471 2867 3192 1726 1536 3227 1845 3796 3520 1782 2330 3912 2897 2090 1638 1742 2876 3574 1569 2370 2018 3269 2619 1989 2809 3503 1813 1784 2647 1870 3451 3098 3264 2571 2422 2096 2740 2971 3497 3639 2157 3722 1850 2962 3922 2979 3682 2529 3685 3160 2692 3036 1588 1886 3357 3653 3475 2627 3912 2232 1589 1982 3532 1702 2341 2640 3166 3093 3751 3205 2129 1565 3983 3536 1594 1622 1786 1553 2701 2713 3297 1941 3816 1655 3618 2662 3926
8 36 21 89 52 68 93 0 14 44 55 41 3 59 76 69 65 90 15 59 68 90 96 42 3 77 87 99 72 8 96 71 96 90 74 89 53 87 80 28 58 41 28 51 86 96 20 27 25 66 73 76 76 15 34 87 5 51 82 95 13 89 12 94 17 19 29 83 51 86 4 94 72 65 36 37 43 59 76 16 84 99 68 72 82 34 35 91 12 71 80 33 35 93 20 33 71 32 73 3 2409 3252 3793 1770 2840 1621 1983 3140 2766 3920 3553 1660 3617 3399 2068 2071 3638 3653 1506 1530 1559 1985 3986 3937 3601 2938 2564 1829 3150 1511 3887 2522 2798 2586 3850 2832 3535 3201 3571 1884 2334 2295 1700 1632 2369 3991 3334 2559 3500 3196 1746 2213 2947 1855 2412 1983 1859 1537 2491 3220 3115 3974 1787 1729 1695 1913 2664 3504 3101 3090 2169 3869 3921 2411 2926 2570 2268 2216 3822 3510 3606 1968 2535 2449 3868 3148 3455 3783 1559 3532 2891 1712 3846 3660 3236 3478 2472 2676 3624 2884 3788 2608 2190 1638 3936 2300 1848 3782 2400 2996 3892 1745 3935 2878 2791 3046 2940 3528 3948 2953 1530 2003 3127 3924 1880 2240 1948 3313 3580 3219 3727 3808 2981 3412 1797 2469 2045 1620 2728 3140 3317 1529 2248 1631 2401 1557 3915 2932 2001 3468 2982 1675 3224 2298 1791 2447 1516 3748 1668 3115 3246 2511 2719 3805 3436 3217 3036 3180 2225 3280 1785 2854 2653 2668 2996 3931 3444 2929 2378 2515 3568 1733 3647 1980 2657 3958 3901 3904 3145 1507 2747 1694 1934 3197 3800 2045 3328 3159 3077 2024 3834 2492 2781 2314 3573 2116 2100 3437 3887 2259 2390 3786 1534 1971 2650 3737 1504 1883 1684 2239 1946 3959 2717 1618 1665 3595 3282 1909 3895 2797 3501 3895 2662 1797 3821 2442 2733 2770 2562 3130 2892 2340 2281 2121 1581 3769 3089 1520 1573 3953 3946 1873 3856 2077 3840 3329 2121 3382 3761 2782 3230 1553 3908 2056 2567 2019 3880 3730 1857 2647 1599 3418 3683 3765 3053 2482 3959 3809 3889 3201 2817 3012 2343 2626 2482 2605 1608 2309 1522 2197 2725 2712 1963 2519 2426 2155 3420 1684 1576 3933
2 67 34 51 21 3 81 14 0 60 57 54 34 33 84 37 49 90 83 28 17 97 15 52 24 78 86 67 76 51 33 2 93 54 86 37 39 32 60 34 98 40 70 29 20 47 60 71 89 61 53 47 47 4 74 97 45 35 63 46 1 64 76 28 96 41 84 74 81 61 47 63 73 84 49 77 12 30 4 45 35 78 83 33 47 85 11 60 4 1 53 96 25 66 64 67 30 58 44 36 1853 2158 2514 1750 2921 2646 2826 2189 1755 1712 3650 1806 3284 3688 1872 3819 1775 1831 1933 1894 2525 1854 2112 2436 2071 1762 3069 3020 1798 1901 2032 2871 3786 2553 1794 1575 2056 2909 3771 1670 3452 2775 2620 2336 3923 2472 2317 2602 2984 2121 2008 3666 2648 2611 2113 3915 3301 3889 1960 1577 3715 3581 3742 2192 3421 1601 3714 3965 2255 2405 1629 2766 3770 2747 2942 3762 1609 2455 3439 3115 2303 2806 3880 3655 3961 1667 3006 3925 3769 3021 2392 1616 2186 3360 3325 2076 2897 3345 1561 2094 2371 3815 1521 1703 2272 3850 2669 1940 2404 3090 2810 2013 1573 3228 3872 3397 2027 1507 1710 3390 3015 2795 3177 2777 2302 1649 3788 3014 1886 3180 1930 3825 3609 1790 2622 1699 2899 3465 3419 2516 2688 3046 3726 1646 2059 1761 2723 1507 1924 2631 2094 2572 3033 3415 3004 3482 2453 2975 1522 3771 2620 1785 2174 1578 3988 3128 2946 2579 3714 2534 3228 3264 1728 2056 2726 2870 3874 3814 2828 2299 1853 3002 3406 3057 3445 3751 3336 3485 3151 3514 3627 3055 2575 3104 2350 1588 3739 2831 1714 1992 3922 3495 1946 2563 2335 3680 3504 2113 1812 3870 2432 1652 3122 3694 2326 3178 3612 3174 2236 3433 2974 1922 2381 3898 1774 2874 2196 1949 3540 2256 2292 2757 2363 1537 3721 3230 3789 2959 2935 3954 1776 3609 2148 3423 3478 2000 2448 2473 3820 3915 2447 1545 3967 3414 3138 2639 2196 3350 2867 3523 3500 3178 2120 3838 2238 3776 2541 2662 2407 3090 3848 1596 3117 2032 2974 3247 3866 2761 2504 3566 3215 3885 1921 3116 3584 3107 2320 3313 2695 2791 1568 2549 1867 3347 3535 3515 3189 1910 1512 3420
18 58 93 27 67 18 7 44 60 0 76 51 63 43 94 35 93 50 42 55 12 34 42 36 40 59 50 87 25 78 33 5 7 68 75 86 28 20 68 39 28 36 84 2 24 78 12 4 78 74 23 54 18 71 57 79 7 44 56 8 2 90 43 96 42 96 9 76 9 3 59 36 1 93 73 32 37 11 27 43 95 89 3 49 63 29 2 73 38 14 31 47 8 54 78 49 57 64 8 9 3942 2219 1776 2586 2730 2585 1576 2937 2514 3629 2728 3811 3640 2163 3193 2307 2380 2806 1960 3266 1613 2582 2321 2221 1657 1600 1939 2581 3126 1919 2003 3825 2434 1765 1517 3621 3781 3513 3602 2780 1736 1740 3211 3533 2729 3193 3554 3661 1946 2001 1950 2391 3885 3345 2020 3873 2587 3442 1918 3295 2312 2823 2326 3678 3019 2945 2822 1721 3891 3910 3519 3125 3358 2023 2241 2272 2257 2487 2643 1527 2233 2625 1964 3838 1991 3892 2447 2623 2340 3740 3852 2561 3012 2098 3674 1977 1746 2105 1597 1844 3584 2434 2593 2490 2876 2484 2181 1585 2583 1902 1831 2242 3979 2932 2874 1894 1747 1562 3628 3591 2575 3254 3087 2600 1893 1521 2488 2069 2744 2014 2743 2825 3549 3729 2739 1516 2256 2067 2169 3339 2269 2902 2680 3793 2160 2941 1577 2264 1998 1815 2945 3692 2176 2217 2329 2552 2146 3502 1741 1979 1950 3684 2136 2693 3598 2467 2053 1918 3570 2475 3358 1840 3935 1619 3383 2922 1787 3047 3850 2509 3605 3345 2609 1736 2583 2279 1577 3551 2044 3864 3287 3458 1776 1965 3979 2851 1554 1741 3977 1793 2240 1816 2652 2952 2863 3339 2223 2115 2051 3211 1626 2699 3558 2073 3930 3514 1813 3162 3649 3617 3301 3960 3375 3094 2469 2992 1643 2244 3226 2616 3905 2753 3146 2460 2085 3791 2841 1850 1804 2031 3294 2504 3182 2353 2616 1724 1521 2926 1650 2893 3204 3769 3231 2281 2938 2647 2069 3674 3157 2147 1763 2580 3069 2946 2930 2853 2388 1833 2047 1603 3311 3047 1952 2180 1893 2673 3081 1559 3151 1822 1754 3602 2155 3778 1746 3962 3784 1755 1520 3564 2377 2108 1892 1956 2667 3445 3767 2107 3268 3847
81 20 98 62 41 56 97 55 57 76 0 36 58 19 86 70 66 54 28 72 78 5 38 18 58 32 11 47 15 57 71 56 47 54 59 57 21 42 31 28 18 52 19 13 98 75 1 95 43 6 84 78 34 23 45 34 29 4 78 96 39 56 45 9 24 32 41 97 64 6 79 91 35 28 1 8 57 62 25 89 74 37 62 35 6 26 57 31 48 7 87 51 86 34 63 17 88 72 92 89 2204 3517 2198 1838 2605 3783 3632 2522 3612 3786 3651 1709 2191 3959 3706 1741 1557 3363 2576 3286 3729 3392 2545 2111 3606 3369 2351 2782 1746 1617 2570 1743 3183 2200 3998 3618 2292 2563 3753 2185 3867 2837 1690 2325 1893 2270 3333 1995 2568 2378 3982 1914 2008 2935 2013 2442 1891 1598 3073 2040 1941 2696 2712 2195 2142 3705 3723 1645 1834 3119 3653 3652 3850 3802 3058 2710 1820 2507 2197 1589 2152 2661 2252 3124 2372 2345 3835 1904 2193 2676 3999 1905 2461 2894 1677 2642 2487 3987 2936 1907 2922 3088 3672 1998 1953 2546 1669 3368 3777 2742 3136 2401 3865 3722 2788 3680 1610 2456 2453 1736 3472 2357 1559 1966 3571 3362 2667 3096 3089 2762 3407 1540 3483 3915 2853 1533 3513 2818 1694 2579 1656 2154 2995 3724 3975 2357 2369 2912 3316 1826 2447 1631 3224 3600 2995 1822 2603 1838 3147 3142 2434 2037 1764 3452 2064 1686 3596 1577 2870 2448 2720 3667 3375 1836 2857 1513 1795 2705 2483 2622 2763 2594 1909 2074 1852 3275 3541 3629 3115 2634 2201 3814 2285 3291 2483 1691 1770 3851 3854 2482 3535 3070 2196 1938 3515 2803 2702 2051 3551 3137 2522 2264 2711 3992 1822 1772 1548 2910 2935 1958 3030 2238 3764 3650 3059 2753 1945 1722 3558 3321 3713 2610 2880 1706 2947 2711 1976 2613 3354 2959 1982 2585 3630 3002 3019 3259 1784 3973 3966 2894 1731 2601 2042 3280 3971 3784 3444 1557 3667 1590 2814 3943 3591 2865 3562 1629 2444 3150 2374 1741 2712 1765 2642 2506 3169 3159 3200 3550 2642 3634 1626 2466 2358 3950 1589 1848 2792 3176 1616 2079 1574 3270 2499 2673 3243 1575 2680 1611 2903 2239
65 66 10 1 86 57 54 41 54 51 36 0 51 10 13 69 89 46 18 64 96 66 4 5 60 42 20 68 4 90 2 94 81 38 15 58 83 93 12 5 98 97 34 46 23 85 48 17 23 93 24 77 58 65 90 18 99 44 8 58 46 40 21 89 6 55 20 9 24 87 72 31 94 17 42 64 8 80 32 29 40 49 51 96 1 44 65 37 32 55 53 71 51 64 16 4 19 94 84 46 3648 3260 2473 2996 1745 1910 1693 3986 1520 3467 3603 3181 2942 2174 2718 1978 1766 1724 3860 2894 3238 2027 1667 2552 2617 3402 3267 3016 2657 2293 1725 1732 3886 2270 2439 1993 1561 2863 1872 2556 1668 2397 3981 2465 3050 2519 2427 2565 3124 2317 2022 3399 3852 2822 3081 1528 3722 2526 1906 2062 3456 2988 3395 3598 1683 3358 2015 1807 3586 2751 2972 2663 1524 2598 3651 2422 1516 3216 3341 1804 3902 1624 1681 3108 2456 2001 1888 2396 3682 3805 2736 1854 3259 3624 3380 2514 3176 1979 3915 3962 2227 3019 3232 2055 3898 3408 3458 2426 1601 2830 2133 2391 3663 1908 2120 3569 3241 3266 2915 2151 3868 2819 1736 1531 2052 3612 2328 2055 1577 2269 2965 3726 3757 1991 3040 3190 1751 1638 2798 2930 1877 3425 1561 2916 2419 3986 2213 2977 1644 2551 3200 2240 3812 3083 3092 3300 3699 2519 2387 3876 2877 3219 2686 3024 1790 2224 3472 3958 2513 2106 2432 2733 2933 2649 1832 2675 2916 2401 3784 3282 1536 3537 3538 1838 3579 1602 3480 2611 3749 3998 1909 3167 2279 3024 2337 2617 3483 3493 2568 1663 3186 3043 2966 3536 3871 2407 3065 2626 3545 2256 2150 2640 3312 3144 2009 1500 3033 1604 2062 2805 3571 1997 2457 2057 3630 2595 2162 2885 1692 3356 3464 2000 1867 3669 2373 3619 2855 2947 3990 1827 2720 2583 1626 1663 3097 3916 3506 1882 2754 3695 1689 2813 3278 2290 3763 1700 1662 2912 2196 2483 1950 1796 2028 1702 2346 2674 1904 1839 1941 2167 2912 3951 3349 3267 2547 3308 3764 3941 1620 1961 2472 3747 3216 1704 3016 3194 2914 2190 3094 3602 3797 3761 2962 2813 1529 2477 1596 2392 3957 3851
91 58 15 37 44 85 95 3 34 63 58 51 0 95 86 20 87 65 67 78 2 82 44 77 92 33 10 97 36 90 90 31 28 64 78 5 29 29 42 25 18 98 88 46 93 35 64 78 88 76 37 15 99 12 83 34 72 14 7 18 90 21 83 30 34 67 48 54 8 34 30 53 40 9 38 35 77 53 89 28 42 91 17 36 90 73 15 11 61 87 52 52 40 64 15 76 61 13 92 82 2103 2765 3867 2318 2807 2234 3277 2836 2792 2781 1909 3771 1704 2244 1585 2129 1615 2863 2620 2249 2370 2802 3290 2446 2504 2149 2720 2837 1837 2256 3297 1778 2264 2353 3409 2716 3209 3484 3107 1950 1534 2827 3541 1824 3046 3186 3016 2607 3589 3241 2025 2272 2983 3322 3934 3012 3574 2198 3799 3695 2808 2638 1689 2786 3156 3950 3570 2647 2216 3036 2651 2295 2208 2722 1950 2198 3631 3853 3196 1636 2843 2498 3571 2539 2114 3585 3185 1942 3874 2096 3519 2379 3253 2522 3644 2768 2342 2714 2398 3176 1524 2498 3235 2069 3655 1617 2550 1643 3710 1558 3562 1610 3417 3543 2408 3409 3469 2059 3034 3624 3882 1864 1858 2744 3489 1767 2597 3851 2133 3062 1578 3136 3822 3592 1605 2752 3657 3734 2453 2239 3738 2639 2284 3629 3161 3189 2412 3703 2337 2903 3116 2734 3438 3288 1853 2923 1711 3727 2093 3318 1865 1789 2107 2137 3808 3960 3766 1830 3044 3224 3766 1721 2231 3696 1735 2642 2414 3356 3699 1672 1570 2498 3687 3168 2644 3251 3361 3589 2817 2179 1725 3778 3334 3295 1818 2460 3862 1842 2779 1751 3113 3945 1536 2359 1843 3820 3543 3756 1645 3903 1604 3476 1716 2851 1935 1564 3376 1752 3162 3969 3476 2708 3404 3716 1661 1722 2118 3630 3821 2206 2838 2584 3259 3123 3942 2973 3817 1685 3817 2643 2525 3658 2839 2316 1667 2071 1619 2517 2836 1547 2075 2217 2380 2916 2123 3383 2667 3523 3818 3083 2075 1552 1703 1584 3883 2984 3092 1652 2425 3227 2757 2581 1742 2716 2277 3229 1596 2902 1875 2792 2685 3396 1706 2940 2308 2139 2980 3061 3655 3258 2071 1673 2407 2578 2193 3286 2215 3464 3900 3284
50 92 1 72 27 73 22 59 33 43 19 10 95 0 43 81 81 54 15 13 46 7 47 5 62 41 67 52 39 68 20 39 94 57 37 92 13 24 54 79 21 12 80 40 69 68 60 67 2 18 42 67 55 23 76 51 34 12 93 74 45 51 9 6 44 2 84 8 19 30 32 54 97 66 8 19 34 98 44 88 48 79 55 65 68 28 39 26 4 18 34 30 3 58 50 55 87 57 9 69 2516 2224 3782 2919 3575 2590 3345 3924 3276 3049 1519 2447 2589 3999 3723 3314 3305 1972 2379 3760 2901 1842 3047 3137 3659 2698 2871 3466 3635 2187 3342 1580 3991 2581 2353 2624 2789 1651 3077 2326 1537 3088 2847 2470 2675 2952 2196 3947 3039 2273 3303 3578 3175 2477 3765 2659 2662 1584 3280 1797 1948 1673 3132 1638 1830 2168 3489 2553 3529 1928 1848 2797 3812 3387 2722 2420 3783 3408 3662 2025 2383 2184 3322 2747 3703 1576 3997 2619 2133 3573 3472 3547 2467 3953 1670 2069 2201 1908 1898 3983 3305 3215 2863 2663 1879 2732 3011 3384 1902 1925 2930 2007 2359 2122 3396 2599 2733 1898 3559 3711 2379 2509 2512 1504 2182 3269 3234 3544 3819 1799 1676 2581 2959 2557 2834 1541 3605 3676 2692 2616 3077 2882 2245 3068 3041 3808 3551 1536 1796 3200 3179 2767 1793 2974 3451 2709 2804 3375 3019 2044 2496 3885 2703 3490 1943 2044 3549 1902 2116 2276 3006 3485 3213 2967 2239 2207 1801 3246 1897 2905 1856 3409 2693 3312 2358 2007 1869 3282 3732 1751 2142 2839 1500 2902 2287 2916 2144 1817 2490 1569 2091 3149 2345 2049 2890 2038 1668 2491 1670 3768 2137 3126 2601 2836 2817 3544 2260 2590 1572 2049 3713 2519 2212 3591 2751 3095 1741 3231 1857 1673 3185 3834 2095 3684 3028 1505 2812 3100 2829 2951 3749 3231 2682 3076 3784 1722 3003 1697 3355 2193 2677 2162 3085 3592 3747 1875 2974 3780 3244 1512 1984 2667 1696 2342 3882 3149 1957 2783 2283 2087 2518 2454 3542 3391 2241 2656 1892 3977 2568 1554 3562 2941 1610 3465 2834 3187 3260 1514 2666 3619 3681 3341 2453 1552 3267 2683 1921 2812 1840 2066
61 60 93 96 99 8 13 76 84 94 86 13 86 43 0 63 58 43 93 54 10 62 91 28 78 49 98 84 73 9 71 57 15 82 60 3 89 71 80 20 42 33 87 1 21 34 5 83 37 8 26 91 50 43 70 49 59 29 87 93 17 20 63 78 85 53 62 32 9 68 37 79 27 87 97 7 25 2 32 27 6 33 84 27 2 19 67 28 29 73 7 36 97 59 1 55 33 81 73 66 2638 3554 3210 2882 2517 1623 1740 2407 3891 2189 1947 2020 1953 3124 2662 3571 2584 3436 2321 2265 1994 2634 2992 2236 2486 2416 3858 2623 2384 3973 1826 1701 2751 2521 1926 3789 1601 2945 2059 2397 3788 3392 1598 3952 2954 3375 2998 3778 3614 2910 1768 2252 2367 1837 1817 3856 1711 1985 3905 3488 1964 2984 3464 2516 2231 2267 2124 1540 2808 3764 2007 2907 3439 3421 2605 3148 3374 3730 2859 1758 2202 3230 1511 3258 3647 2677 1768 1982 2759 2600 2005 1548 3970 3297 2022 3968 2791 3623 2251 2737 1846 3285 3659 2302 2493 2362 2947 2456 2573 3447 3660 2385 3814 3005 3291 3484 1501 3825 3933 3247 2685 2845 2895 3539 1733 2474 2877 2666 2189 3637 3130 1644 2338 3594 1984 3453 1955 3927 1800 2222 1561 2979 2134 3733 2888 1557 3597 3558 3421 3539 1781 3126 3017 2945 1642 3892 1663 2488 3240 2477 2471 2409 2352 2759 2009 3261 3780 2598 3852 2582 3937 1970 2172 2873 2576 2033 3058 3055 1983 3949 2201 2613 3227 1880 3868 3981 3767 2475 3297 2749 1654 3683 1583 3271 2867 2663 1909 3657 2948 2121 1977 1954 1839 3129 2940 2455 2693 2837 2000 3378 3669 2680 3365 3849 3398 1867 1735 3597 2908 3472 3355 1795 2470 2878 3177 3459 3743 2537 2831 2713 1835 3363 2068 3653 3458 2484 3439 3592 1783 3530 2950 1796 3087 3172 2587 3559 2225 3592 1861 2545 3700 2038 3741 1926 1589 3631 3836 2333 3944 3514 2720 3020 2478 2043 3779 2549 2128 3516 3420 3675 3022 2381 2792 3451 3206 1643 3632 2821 3807 1846 3531 3906 3416 3245 3129 2386 3186 3903 3163 1750 2478 2622 3577 2271 2377 3981 2302 1721 2176 2818
97 88 32 67 98 10 70 69 37 35 70 69 20 81 63 0 96 23 28 69 73 47 21 85 61 71 92 76 27 32 15 16 30 39 65 4 24 25 38 61 24 20 55 4 96 56 68 78 8 19 1 92 8 34 14 53 21 63 53 55 72 58 79 11 33 50 59 75 15 15 64 92 14 7 74 78 42 39 96 30 6 85 66 82 2 61 92 38 65 79 77 15 88 40 51 42 76 16 37 40 3967 2419 3276 1858 3120 1870 3933 3913 2714 1671 2143 1809 3649 3916 2127 3875 3287 2338 3085 1756 3966 3021 3518 2595 3359 3880 3424 1820 2098 3445 2122 1562 1634 2019 2087 2251 3721 1911 2839 3487 3915 1933 3556 2651 1613 1823 1515 3440 2599 3178 1734 1622 3856 1949 1595 3061 2122 2556 1626 2255 2975 3074 1587 3710 3436 2673 1971 2058 2358 2834 1684 2990 2629 2023 3984 3330 2978 2855 3474 3141 1594 2632 3122 2596 3381 2025 2258 3729 2316 1993 2240 2123 3032 2408 2204 3932 1829 2879 3948 1865 3222 3598 3126 2225 3435 1552 2891 3330 2664 3904 2459 3737 1997 1594 2244 2654 2931 1977 1856 2258 2894 1968 3172 3460 2372 2200 2595 3914 2570 2812 1793 2930 1973 3469 2287 3201 2635 3655 3408 1818 2137 2738 3284 2868 3144 1772 3120 3331 2694 2634 2759 3050 3479 3658 1898 3271 3411 3427 2421 2232 1742 2618 2001 3808 3310 2472 2292 2677 2580 1825 2644 3172 2397 2065 2676 1911 2063 3673 3516 1942 2033 2973 3426 2165 3752 2709 1663 3793 3979 3435 3551 3419 2279 1731 3233 1767 2969 3427 2304 2696 2664 3616 2345 2438 2968 3072 2370 2168 2634 2502 1787 2745 2751 1936 2545 2466 1554 2389 1540 2101 2134 3398 2273 3016 3166 2583 3536 2935 2509 2618 1727 2330 2240 2053 1863 3248 3978 1533 1564 1753 3554 2918 1659 2223 1510 2218 3059 3421 3973 3978 3550 2830 1802 1506 2906 3003 2637 3389 3805 1953 2110 2107 3583 2021 2837 3460 2932 3827 3605 3506 3673 2459 2896 3452 3110 2864 1917 2524 2486 2640 2983 1834 3944 3929 2496 3558 3765 2021 2135 3112 1592 1763 2687 1737 3288 1866 2994 2925 3881 2297
73 96 53 13 85 38 10 65 49 93 66 89 87 81 58 96 0 98 83 92 61 29 85 10 96 23 12 19 33 28 40 84 37 72 24 47 71 18 18 35 70 80 39 97 53 59 65 76 65 32 24 85 47 34 34 63 97 70 63 82 33 77 25 46 2 75 8 20 81 26 24 13 64 62 95 43 12 47 93 33 19 76 88 12 73 91 82 76 36 51 29 98 59 50 62 91 86 17 13 69 2512 2375 2062 3539 2392 2998 2158 3054 1799 2894 2263 2558 3987 3519 3230 3024 2975 2258 3500 2354 3109 3177 2660 2543 2790 1542 1621 1884 3359 2928 2393 1690 3582 1803 2531 3486 3204 2902 2590 2318 1888 1596 2798 2738 3912 2569 2114 2621 1978 1930 3607 3049 2450 1660 2776 2376 2904 3021 2953 1736 3517 1611 2519 1876 2765 2943 1707 3984 3691 2079 3182 1667 2334 2071 1943 3971 2822 2685 1936 2952 2413 2136 2873 1594 2724 2206 2886 1920 3996 1872 2038 3435 2613 3291 1634 1735 3524 2989 2963 3721 3814 3792 3144 3231 2690 2280 2824 2826 2628 2906 2334 2555 3011 3644 2542 2146 3551 1631 3670 2681 2344 1539 3229 3659 2576 2741 2108 2040 3973 3942 2095 3579 3150 3648 3406 1644 3237 3852 1720 2347 2215 3314 3208 2113 2137 2638 3920 3512 2605 2623 2880 2192 2759 2324 2578 3927 2663 2071 3792 3277 1558 1839 3924 2163 1786 3891 2576 3005 3231 2980 3500 2223 3144 2219 2725 1936 3725 3101 2586 1838 2118 2612 3452 2727 2911 2228 1835 2237 2324 1768 1723 1557 2853 2543 1874 3385 3289 3770 2888 3740 3927 2574 1529 2529 3290 2340 2009 2064 1586 3173 3070 3252 2864 2198 2255 3639 2768 3032 1637 1679 2567 3924 2942 3954 3686 3470 3617 3990 3493 2397 3804 1826 2545 3727 2622 1771 1522 1556 2643 1884 2772 2898 2887 3998 3884 1575 1705 2835 2276 1556 2564 2546 3567 1580 3132 3580 3511 1862 1755 1986 2327 1735 1544 3061 3808 3346 3297 2036 2400 3207 2762 2875 1524 1857 3458 3338 3795 2554 2143 2188 3254 3079 2781 2660 3166 1636 2931 2979 2813 1537 2977 1500 1767 3407 1720 2390 2283 1588 1722 3202
63 9 99 66 51 8 81 90 90 50 54 46 65 54 43 23 98 0 38 60 9 68 17 42 70 34 3 60 59 16 35 25 75 52 80 20 12 38 40 32 36 22 64 70 33 1 65 52 83 36 34 51 59 53 81 5 98 64 86 32 97 92 98 22 7 42 60 29 2 38 10 14 15 60 98 13 67 54 64 88 5 66 44 93 79 52 45 91 4 72 37 44 3 67 27 53 86 1 70 56 2165 3203 2875 2992 2503 3794 3255 3743 2609 3608 3681 1525 3818 2121 3641 3833 1821 2709 2205 2378 3761 1509 3846 2622 3878 2558 1529 1901 2360 1806 2596 3259 2503 2916 1571 3766 2112 3587 3862 1894 3772 2008 1825 3960 1624 3909 3279 3928 1940 3253 2244 2269 3997 1796 3707 3742 1887 3648 2429 2634 2518 3415 1647 2989 2723 2579 1978 3444 3542 2873 3718 3576 3051 1931 2056 3154 2802 2490 2554 1604 3811 1670 3833 1975 2852 1874 2149 1578 2121 1726 1987 1849 2614 2571 3307 2176 1585 1643 3283 2026 2290 3395 2403 2278 3998 2923 1964 2655 3380 2961 2477 3126 3670 2114 3503 2854 1997 2455 1525 3243 3971 1935 3977 2985 2110 3175 2123 2766 3428 1649 3510 1649 2597 2078 3332 2565 3887 3188 3511 3022 2618 2025 3663 3611 2307 3985 1654 3057 1517 2312 3487 3823 2129 1566 2515 3440 3243 1535 1557 1972 2786 3292 1803 2693 1812 1679 2926 3591 3326 1798 2403 1821 2035 2014 2670 2465 2524 3784 2735 3528 3834 3207 3093 3956 1739 2658 1807 3585 1578 2457 3014 3716 3431 1573 2724 3934 2523 1594 3725 2642 1573 2942 3918 1675 3104 3073 3564 2842 3423 3736 3712 2130 1760 2845 2300 3888 2994 2786 2232 1859 2980 3974 3752 2145 3182 2473 1654 3619 1807 2709 3933 2399 1676 3876 3606 3237 3966 1887 1905 2386 3260 3686 3520 2181 3878 2957 3607 2584 3371 2410 3425 2860 3445 3354 1727 1704 2344 2562 3637 3870 3344 2018 3878 3663 3603 1522 3130 2536 2833 3566 1769 1796 2584 3838 3904 3453 1616 3859 3910 1699 1734 1553 3413 2248 1824 1666 2290 3534 2265 3025 2387 1825 3646 2013 1952 3511 3678 2579 2437 2462
54 8 84 71 62 17 30 15 83 42 28 18 67 15 93 28 83 38 0 8 66 87 50 76 51 45 88 65 17 68 25 40 83 55 25 40 26 48 84 70 63 42 2 41 68 77 9 29 15 35 46 43 23 23 7 87 17 40 53 33 17 7 59 23 90 60 1 5 45 97 85 99 38 14 77 5 85 42 3 27 31 17 55 11 69 49 29 87 68 98 26 34 96 40 11 65 65 39 79 90 2009 3482 3171 2977 3935 3147 1617 3282 3011 3152 3150 2377 2095 2851 2812 2238 3140 2209 2685 3185 3420 2568 2422 3601 2870 2050 3223 2152 1713 3662 3836 2395 2602 3930 1652 1830 3253 3642 2560 2881 3804 2841 1940 2833 2406 1956 3596 3438 1618 2508 2656 3065 2607 3104 2823 3669 1521 3816 2045 2843 3172 2015 3341 2813 3183 3997 3839 2230 2869 2091 2635 3350 3176 3726 2936 1988 3861 3282 3589 3883 3234 2908 2389 3712 2556 3210 3887 3169 3194 1838 3844 2065 1511 2099 2509 2429 3458 1819 3097 1987 1544 3544 3884 2157 3810 1646 3385 1924 2407 2117 1501 1885 1848 2328 1541 2240 1696 3456 3781 2529 2671 3394 2724 3288 3657 2341 2595 2123 2334 3913 3699 3145 2759 1758 3996 3420 2953 1574 3493 3043 3071 3676 1659 1629 3334 2897 3529 1654 3329 3559 2942 3434 2362 1873 3923 2320 3841 2181 2620 2730 3356 2828 3661 2191 3762 3275 2324 1985 2293 1625 3844 3519 1963 1901 3493 3884 3344 3199 2668 2380 2264 2125 3774 2578 3643 1976 2199 2289 1648 1978 3566 1549 1680 2693 1597 3360 3481 3532 2074 2214 2080 3576 3968 3314 1860 3266 2632 2665 3350 2824 2333 1819 3367 3642 1734 3139 2400 2423 2200 2493 3590 2562 3007 2545 2580 1928 3436 2073 3538 1910 3350 3307 3023 1612 2890 2579 3710 1607 3331 1861 3027 2509 3293 2098 3910 1968 3228 2635 2430 2395 3401 1986 3990 2198 3000 1855 1668 2991 2688 2595 2134 2842 3354 2933 3172 3667 1717 2369 3592 2898 3273 2246 3230 2232 1772 2501 3871 2381 1821 3219 2539 2557 3474 1625 3706 1500 3384 2559 2932 2524 3043 2990 1674 2351 3477 3676 3909 3029 3701 3323
56 50 27 69 20 26 25 59 28 55 72 64 78 13 54 69 92 60 8 0 95 15 58 24 79 41 42 61 27 18 1 78 71 33 34 75 78 66 87 9 9 67 21 80 1 99 26 34 38 4 57 36 80 58 68 54 32 4 98 4 3 44 13 87 4 8 73 83 42 54 44 88 81 36 67 81 59 56 58 16 32 20 71 97 34 31 33 5 2 44 49 58 88 69 74 1 89 19 95 1 3088 2022 3198 3095 3376 2263 3307 1986 2580 3406 2619 2833 3016 3094 1527 3508 3647 2094 3354 1647 2365 3158 2774 3489 2376 2794 3226 3521 3437 2403 2063 3287 1708 2817 2480 2318 2043 3176 2538 1806 3005 2742 1913 3233 2127 3291 1938 1800 1638 3358 1849 1771 2986 3493 2728 3151 2743 2096 3744 2923 1603 3799 2172 1624 2263 3280 2520 3193 1799 3060 3772 3073 1928 2291 3587 1555 2224 2463 1526 3650 2281 2804 1913 2182 2946 2077 3856 2807 2837 3534 2660 1606 3242 1712 2095 2702 1930 3434 2956 3175 2579 3107 1503 3496 2084 2029 2370 2879 3987 2547 2144 3533 3772 3917 1964 3565 3440 2911 2674 3797 2369 1775 2068 2948 1514 3733 3790 3123 2035 2991 1945 2769 1888 1717 3730 1817 2528 3382 2278 2101 3506 3499 1524 1735 3061 3428 3126 2608 2527 3509 1766 1536 3501 3376 2424 2528 3962 3923 2882 2128 3087 2515 3859 3163 2263 3264 3524 3219 2234 3578 1912 3842 2960 3306 2628 2783 3797 3366 2903 3953 3270 1509 1552 3410 2010 2581 1654 3209 2640 2040 2107 2071 3011 3431 1653 3401 2885 3159 1669 1609 2544 2595 1603 2155 3630 1654 3261 2004 3073 3087 3127 2289 3113 3637 2250 3283 3137 2079 2053 3681 3332 1646 2284 2411 2869 2910 1574 2937 3232 1725 2515 3301 3134 3870 2913 3304 3284 2994 3429 2195 3173 2383 1891 1573 2611 2179 3063 2972 2515 2798 2248 1807 1978 2363 3281 2878 3028 2813 2344 1843 1909 3577 1946 3642 1883 3645 1888 3096 2122 3407 3832 3475 2347 2744 3499 1912 2283 2478 3706 3205 2556 3350 2603 1778 2368 1790 3454 2338 3555 3957 2454 1850 3356 1609 2226 2005 2582 3363 2602 3855
93 50 37 14 20 38 61 68 17 12 78 96 2 46 10 73 61 9 66 95 0 94 4 95 8 15 75 35 44 54 15 64 81 10 12 50 46 41 23 80 85 98 44 67 94 89 67 89 14 29 48 64 83 27 14 49 78 97 99 57 27 82 19 25 65 93 11 82 79 16 18 28 57 85 3 86 20 79 69 10 61 66 14 90 19 87 73 39 99 57 27 99 79 71 6 9 47 83 92 20 2993 3537 2373 1927 3298 3776 2924 2969 2762 1887 3531 3890 3449 3110 2604 3830 3172 3053 2971 1702 2344 1995 1950 2955 2883 3194 2309 1863 3409 3105 3611 3116 3149 3305 2154 2122 2718 2172 3839 1871 2576 2944 2223 2291 3481 3013 3898 3287 2942 3146 3029 2962 2952 2344 3020 3319 3436 2437 2564 2727 2779 3317 1801 3232 2781 3761 3637 2530 1712 3253 3768 1591 1846 3139 2635 2764 2943 2642 3948 2215 3200 1906 2987 2785 3099 3348 2407 3682 3922 1522 3864 2155 2199 2334 1641 3123 2043 3079 1628 3740 3651 3279 2391 2101 3741 3206 2754 2076 1650 3181 3687 3428 2054 2778 3304 2129 1585 3000 1556 3777 2354 3288 2865 3239 3550 3753 3889 2460 1626 2155 1978 2908 3008 2960 2780 3673 2647 3626 3672 2772 3506 2139 2631 3175 2047 2666 1574 3272 2371 1941 3444 2894 1702 1712 3466 3582 1972 3572 3760 1950 1808 1978 2304 2012 2296 3506 3994 3479 2398 1880 3359 2107 2360 3798 2647 1959 3103 2321 2777 3127 2063 3030 1917 2036 3859 3417 3004 3494 2631 3201 2569 3852 3775 2750 2088 3154 2053 1642 3276 1580 2389 1759 2936 2467 2066 3364 3819 3830 3562 3332 3550 2345 1605 3959 1552 2590 1677 3537 2360 1641 2312 1500 3627 2489 3605 3897 3586 2165 2707 2214 2897 2988 2591 2867 2423 2389 1712 3625 3503 3332 2950 3951 2863 1555 2822 3926 1903 2280 3571 1668 3190 2463 2616 2241 2386 2243 1679 2762 3657 2468 3058 3912 3412 1854 3656 1839 2378 3566 2515 3857 3788 2178 1769 2744 2619 1886 3109 2341 1849 2763 2339 3139 2160 3766 3867 3113 1502 3730 2002 2441 3959 3678 2231 3516 2010 2938 3546 3933 3440 2518
28 55 83 59 81 74 86 90 97 34 5 66 82 7 62 47 29 68 87 15 94 0 39 33 44 55 33 56 83 66 16 74 52 34 34 50 5 70 89 25 36 82 53 58 33 82 18 34 51 34 47 54 74 18 79 72 64 7 8 18 25 90 18 20 6 39 72 50 33 85 52 77 49 72 43 67 92 18 54 23 14 53 9 56 48 80 12 58 60 88 50 91 84 62 65 34 90 8 66 87 3549 1713 2903 1684 2692 2009 3509 2738 3656 2658 2860 3072 3737 2824 2818 2523 3278 2792 2244 1937 3546 2994 1657 3276 3126 2311 3617 1859 1924 3975 1899 1567 1500 3371 2464 2974 2329 2673 3754 3736 3764 2546 3156 1671 3073 3471 3698 3066 3147 2035 1863 2544 1978 2123 2308 1901 3582 2584 3721 2198 3349 1758 3455 3408 1736 3627 3024 3973 2975 3120 2218 1643 3980 1691 1537 3205 2329 2200 3444 1606 2307 2313 1694 1575 3128 2385 2548 2378 2188 1612 1801 3876 3865 3371 3236 3330 3834 2131 3838 1886 2153 3809 1699 1752 3774 1926 3080 3632 2222 3740 2429 2521 2722 3556 3030 1568 1678 2057 2083 3719 1829 1594 3693 3467 2664 3040 3378 2301 3277 2105 1978 3362 2952 2892 1835 2293 2131 2461 3326 3567 2273 3417 3310 1719 2081 3633 3601 1994 3204 3600 3422 3477 3676 1946 2888 2908 2144 3499 2663 1945 1561 2376 2613 3384 2503 3044 1620 3575 1741 3628 3104 2563 1637 3363 2476 2234 2276 2307 1524 2858 1685 3808 3567 3027 3343 3327 2168 2991 3290 3822 1849 1918 3323 1649 1805 1693 2981 3186 3994 2036 3850 3939 1702 2259 2985 1797 2690 1777 1628 3951 3260 3315 2764 2604 3065 3871 1839 2933 1982 1767 3283 1747 3816 2060 2389 1929 3959 1725 2047 3382 1970 3868 3321 3649 2143 2110 3885 3854 1617 3813 2920 3753 3506 2233 3352 3783 3899 1565 2072 2226 3040 1747 1825 2217 1863 2501 3350 3990 3238 2101 3437 3945 3682 3924 1967 3589 3287 3675 3528 2812 2107 3972 2723 3058 2299 3464 1745 1749 3650 3352 3380 3263 1527 3241 2501 1609 3544 2295 3896 2212 2112 1592 3879 2400 2668 1566 1623 1533 1536 1949
81 74 49 39 69 2 80 96 15 42 38 4 44 47 91 21 85 17 50 58 4 39 0 10 19 55 94 99 75 83 25 96 18 93 31 89 32 81 58 61 84 69 72 94 65 65 39 9 32 53 12 79 79 12 67 8 9 85 53 9 71 16 19 52 59 56 30 78 29 72 89 8 21 56 22 69 72 98 13 79 99 90 12 33 41 52 24 6 77 80 4 59 60 70 45 99 93 81 48 23 2040 1720 3919 2348 2058 3191 2317 1598 2814 3501 1697 2997 3905 3576 1944 2353 2641 2309 2301 1794 2798 1892 3132 2227 2628 2317 2831 2535 3225 2656 3214 3857 2250 3790 3244 1730 2961 1931 3724 2874 3237 2199 1729 2337 3431 3994 1728 3897 3957 1716 3219 3154 3098 3884 2569 1990 1611 2945 1890 2630 1963 1927 2350 3425 2587 3654 3738 3659 2375 2754 1675 2212 3402 2449 1603 2575 3817 2899 2234 3195 2501 2757 3992 3627 2313 2953 2829 3797 3648 3663 3210 2070 2218 2097 3398 2941 2812 3335 1582 2184 3396 3809 3539 2509 1905 2411 2516 3539 2712 1810 3129 3990 3647 3847 1857 3705 3652 2726 2571 3711 2440 2618 1970 1857 3524 3661 3354 2953 1518 1989 3363 2134 1804 2985 1603 2239 2468 1944 2955 2252 2986 1723 1575 3168 2033 3289 1526 2137 1724 3528 2251 3782 2563 3776 3582 3161 2425 2614 3631 1641 1863 3947 1638 3511 2311 2122 2062 3499 3874 1644 1690 3964 3561 1807 3672 1758 1955 3592 3976 1673 3136 2301 2888 2051 3722 2110 2429 2427 1846 2997 3907 2813 3350 3958 3095 3744 3378 2507 2073 3090 2591 3404 2433 1767 3669 3049 3880 3318 3268 3229 1575 1578 2641 3864 2230 1502 3333 1739 2324 2046 2118 3137 3089 2754 1958 1547 1736 2273 1826 1996 1573 3222 2811 3667 1750 3608 2566 1862 2887 2341 3578 1823 1540 3640 2062 3719 2166 3413 3051 3205 3496 2816 3593 3771 2959 1726 2377 3606 2089 2539 3134 3091 2728 3203 3014 2551 2841 1872 3555 3214 2505 2766 1664 2626 3758 3660 2914 3748 2005 2035 3862 2669 3354 1944 1605 2943 2706 2656 3896 3248 2794 3777 1932 2629 2677 3902 3213 2114 1808 3626
67 32 18 12 50 52 18 42 52 36 18 5 77 5 28 85 10 42 76 24 95 33 10 0 71 61 88 36 61 10 90 55 18 88 31 52 95 22 5 41 26 98 22 70 56 89 15 1 84 5 16 57 92 30 23 81 90 66 18 41 30 60 2 81 79 56 77 7 84 37 16 43 46 30 25 56 9 70 81 64 46 33 75 80 8 57 29 49 24 19 88 95 49 14 33 33 50 64 34 73 1578 1812 3825 3799 3327 3921 3755 3626 2191 3088 3833 2861 3222 3892 3816 3247 3977 3718 2659 3250 3248 1537 1563 2096 3162 3068 2686 3597 2813 3302 2915 2945 2650 1789 2339 2897 3004 2360 3021 2881 1965 2825 1710 3464 3749 3650 2390 1503 2759 2657 2655 3210 1581 2387 3056 3477 2467 1517 2012 1912 2878 2859 1500 1652 2045 3175 2272 3806 1588 3585 2333 3250 3662 3784 2085 3306 1547 3244 2614 1508 1979 1975 3898 3186 2454 3466 3098 3917 3598 3449 1893 2168 3197 2390 3890 3493 3889 2833 1559 2100 2318 2329 3740 2361 3661 2679 2114 3963 3449 2428 3011 2174 3212 2479 1589 3526 2407 1693 2412 3382 3472 3740 2851 2318 1727 3875 2569 3739 1693 3935 3458 3903 3685 2292 1629 3845 2208 2028 3627 3056 2924 2995 3743 2198 1740 3567 1997 1685 2577 3802 3331 1743 3890 3823 2961 1678 2643 3332 2159 1869 3414 1809 3819 2370 2847 1781 1964 1579 3975 1757 3960 1709 2708 3824 3364 3863 1799 2077 3282 3133 2016 1690 3578 2632 1633 3028 3092 3499 2270 3723 3425 1711 3698 2839 2903 3522 2816 2144 2995 2049 3627 3935 2998 3242 3600 1903 2956 2008 2574 2991 2644 3457 3612 3883 3928 2894 3208 2114 1758 2129 1565 3973 2019 3750 2089 2897 3435 2733 3672 1982 3116 2639 2433 3293 2692 2054 3918 2371 3671 2343 2883 1644 3560 3146 1910 2051 2459 3766 2055 3969 3858 1617 1500 3523 1922 2222 3683 2783 2774 3283 2133 3234 2092 3133 3542 2106 2862 1589 1668 3591 2912 2460 2657 3664 3299 3229 2693 2346 3156 2299 3117 2553 3283 3042 2238 2886 2733 3425 3645 3483 2921 2300 2292 2185 2826 2783 1893 2025 2852 2738
1 18 94 98 76 82 77 3 24 40 58 60 92 62 78 61 96 70 51 79 8 44 19 71 0 1 55 98 21 52 59 34 64 89 12 38 82 7 47 80 36 38 56 74 12 89 50 67 11 28 10 62 89 98 59 15 74 68 15 76 6 71 46 59 31 11 9 62 18 33 59 64 8 63 94 57 2 80 37 13 41 62 20 25 71 52 95 99 33 18 8 97 30 17 13 33 84 69 29 47 3002 2586 2139 1510 1594 2136 2803 2438 3397 3145 3607 3616 2250 1747 1682 1897 2157 2099 2705 2187 3741 3157 3571 2041 1958 3714 2869 3571 2896 2409 2458 2128 2949 2919 3828 2854 1767 3283 3847 2034 2842 2427 3309 3888 2377 1877 1621 2874 2007 3903 1962 3081 2713 1782 2708 2286 3039 3210 2855 3804 3744 2402 3559 2003 3586 2666 3086 2962 3921 2877 3980 3515 1504 2145 2751 3591 1944 3600 3808 3658 2131 2563 3580 3124 2486 2930 1674 3348 2600 2333 3167 2406 3062 2677 2759 3131 1920 3938 3974 3496 3188 2589 3194 2668 1902 2858 3678 1939 2067 1536 2792 3512 1652 2433 3071 2803 3181 3633 3722 1786 3259 3176 3587 2488 2307 3723 3842 3942 1988 2056 1553 2620 3338 2870 3507 2455 3623 2341 1984 2650 3758 3792 3089 3761 1673 1874 3860 2018 2371 3620 1967 3434 2476 1849 3341 2339 2931 1718 3549 3917 2937 3083 3693 3797 2088 3339 2594 1570 2813 1862 1782 2684 3247 2448 3171 3781 2249 3019 2685 3710 3914 3316 3211 3523 3070 2655 2505 3933 2765 3273 3811 3158 3139 3751 3519 3222 3154 2191 1670 3612 1920 2643 1639 2251 2043 3433 1640 2446 3503 1956 3869 2422 2073 2306 1791 2839 2567 1764 2724 3545 3462 2425 2498 2020 3602 3915 3899 2639 2451 3253 3872 3483 2504 3616 3398 2127 3259 3910 2183 3987 1599 3410 2224 1626 1779 2711 2968 3493 1543 1811 3250 2258 2905 1942 2660 3150 3930 2607 3542 3617 1527 3628 1633 3069 3048 3643 3331 3911 3186 1829 1800 3586 3306 3173 3582 2428 3080 2167 3417 2193 2519 3984 1951 2408 3439 3145 1749 3825 1814 3634 3441 3434 1550 3021 1923 3059 3114 3673 2798 3452
40 68 59 67 18 77 48 77 78 59 32 42 33 41 49 71 23 34 45 41 15 55 55 61 1 0 72 66 31 86 81 98 71 59 54 62 18 98 35 76 20 19 61 42 82 36 25 44 92 6 59 58 81 8 64 15 28 64 92 57 91 35 42 92 76 47 80 70 58 50 51 86 40 42 55 94 31 60 22 50 59 60 5 12 51 66 83 34 3 60 83 38 96 14 10 36 8 20 3 43 2954 2016 2513 3935 3183 1716 1958 2680 3248 2173 2560 2689 3873 3536 3224 3357 2962 3983 2830 3517 2536 1536 1774 3001 3507 1886 3119 1884 2012 2034 1597 1829 1764 2972 1536 3581 3913 2908 2969 2010 2539 2782 2431 3240 3551 1916 2662 1936 3826 2345 3131 2755 2034 3455 3709 3017 3348 2856 2018 2752 3031 3781 2815 1561 1927 2696 2774 2775 3723 2971 3545 1959 3703 1874 3942 2952 3994 3106 3396 3800 3954 2205 1849 2511 2624 2069 1818 2449 2609 1804 1624 3057 1549 3901 2758 2013 2535 3488 3449 3395 1996 2197 1828 3208 1817 2541 3145 2755 1946 2313 2197 2291 3208 2642 2718 2881 2176 1961 2785 2330 1874 1966 2297 3816 3533 1796 3708 3430 3872 2336 2428 2701 2168 3462 1590 2614 3054 1910 2328 2295 1609 3603 2842 1770 1928 2640 1897 2724 1622 1950 3773 3570 2864 1976 1816 1658 1868 1903 3844 3417 1689 2502 3043 3160 1574 1734 2454 2361 3855 3358 2417 3280 2611 3735 1677 3444 1679 2990 2934 3144 3884 1587 3667 2923 3126 2876 3946 2917 2579 2922 3894 1994 2810 3942 1658 2055 2661 2747 3917 2490 2541 2659 3963 1955 2472 1872 1904 2055 2136 2985 2099 3807 2956 3730 1898 3223 2395 1806 3926 3774 1788 3523 3131 3846 2066 3096 2513 1879 1694 2443 3386 2862 3623 1941 3396 2456 2321 2258 2852 3823 2284 2940 3948 1628 2567 3183 3545 3915 1724 3860 3867 3200 3713 2735 3226 3352 2705 1631 3198 2293 3589 3207 1833 1736 3187 2436 2882 2685 3084 3922 2150 3482 3787 2854 2773 2853 2934 1505 2997 1903 2014 3680 1889 3742 3071 3662 2000 3358 1870 2437 2918 2725 3915 3440 3693 2097 2761 2126 3283 2809
85 39 77 84 8 50 63 87 86 50 11 20 10 67 98 92 12 3 88 42 75 33 94 88 55 72 0 23 66 23 74 57 22 87 75 94 41 87 38 22 32 91 74 21 18 62 46 78 11 28 78 71 62 52 18 65 28 74 15 40 36 62 82 63 35 17 85 35 51 9 46 75 61 57 69 38 63 4 98 55 47 54 58 46 76 82 27 2 51 92 99 97 73 15 92 87 2 61 81 91 3928 3367 2861 3161 1619 3455 2886 2203 2606 2744 3530 2723 3523 1897 3811 2073 3169 1540 2051 3708 3814 1616 3626 1733 2290 3245 2662 3662 2550 3242 2570 3281 3673 2434 2604 3459 1890 3432 2761 2399 3491 3805 1678 2642 3890 3181 3198 2502 2797 2934 3162 1715 3208 2551 2022 3407 2723 3597 1683 2352 1905 1637 2855 1921 2448 2207 2691 2737 2265 2157 1707 2425 3380 1542 2107 2535 3656 3241 2571 2622 2051 1985 2983 3825 2986 1960 3457 3670 3806 1976 3256 1877 3336 2719 3790 3150 3635 2632 3977 2770 2929 3058 2460 2708 3397 3892 1788 1878 2817 2478 1544 1819 1923 1993 2346 3050 3795 3666 2552 2386 2310 3636 1662 2450 2364 3273 2848 1777 2225 2879 3440 1596 2421 1857 3862 2260 1532 1622 1889 3681 3381 3553 3083 3829 2979 2061 1734 2615 2505 3522 3308 2190 3008 3118 2787 2363 2633 2442 1569 3188 3463 3848 3907 3524 3727 2370 2355 1673 2782 3922 3628 2350 1892 3298 1883 1643 2013 1529 3483 3103 2650 3660 2601 2581 3381 3093 2873 3257 1945 3623 2972 1727 1634 2836 3600 2605 3431 2350 2350 2426 1580 2538 3779 1930 3647 3659 1861 2221 1548 2499 2758 2962 1824 3215 2937 2726 3150 2606 1928 2416 3288 2760 2849 2083 3420 1550 1598 3787 2877 1971 2894 2501 3350 2846 2196 2339 3900 2569 2109 2480 3565 2632 2036 3421 2953 2809 2807 3673 2016 3185 3345 2790 3298 2331 2422 1693 2292 2282 2870 3054 3750 2735 2408 1828 2190 2927 1861 2230 2840 2171 2151 2272 2238 3217 3232 3160 1664 1711 3095 2019 3222 2996 3984 1717 3998 3406 2705 3356 1667 1947 2665 3965 2551 3522 2920 1791 3355 3727 3790 2224
55 93 95 1 51 33 13 99 67 87 47 68 97 52 84 76 19 60 65 61 35 56 99 36 98 66 23 0 80 47 64 14 51 45 50 82 20 56 72 8 65 32 31 54 4 45 34 48 87 99 55 49 15 98 78 6 60 88 39 42 21 86 74 92 15 54 91 11 10 37 45 8 50 81 34 97 21 68 31 38 92 74 94 99 41 47 11 10 73 59 69 85 5 69 29 79 31 47 9 77 3568 3051 2202 1938 1909 3579 3948 2363 2346 3186 3426 2572 3515 3801 3679 2438 3302 1865 2458 2454 3719 1953 3965 3673 2053 2567 2175 2752 2916 3549 1593 3732 3721 3187 3682 2950 3549 3112 2194 3548 3277 2367 3618 3605 3625 3977 2530 2472 1771 3493 1858 3559 3545 2673 2519 3486 3862 1637 3567 1749 1798 1591 2960 3648 1748 2488 2839 3334 3721 2239 3995 3641 3666 2265 3445 3222 2932 3767 2793 2541 2464 3619 2994 3244 2876 1760 3701 2529 1659 3504 2812 3882 3746 2103 2950 2169 2104 1503 2724 3231 3811 2930 3733 3336 2910 1568 1812 3161 1948 3249 1627 3797 3357 1604 2338 3056 1829 3870 2538 3054 2726 2086 2226 2522 2421 3364 3661 3686 1887 2790 3840 3045 2933 3915 2036 3135 3406 2649 1597 1761 2711 3399 3134 3765 3013 2522 3981 2309 3385 1813 2647 2583 2215 3940 3741 2990 2909 2608 3264 1508 3955 2750 3538 2246 2129 2041 3130 2353 1968 3482 3584 2991 3526 2285 1661 3591 1757 2877 1933 3142 3259 2474 2996 3563 2395 2790 3076 2514 3067 2346 2123 3178 2567 3785 1664 3905 3003 2242 1527 3008 1977 2031 3557 3722 2386 3842 1851 3026 1568 3597 1869 1699 2309 3203 3050 3406 2074 3758 2140 3623 3338 3062 2187 1888 1814 3588 2057 2081 2124 3133 3416 1643 2124 2220 3341 2770 3453 3532 1958 1549 1508 1857 2552 3446 2404 1785 3131 1891 2074 3460 1609 2045 3059 2910 1912 2333 2467 1700 2120 3687 1518 2268 3082 2560 2560 3432 2751 3563 2590 1832 3582 2255 1700 3518 3745 3116 3412 2010 3175 3702 2012 2849 3920 3121 1787 2938 2146 1878 3796 1746 2560 2596 2570 2171 2430 3764 2796 3578 2473 3933
4 7 61 42 38 44 47 72 76 25 15 4 36 39 73 27 33 59 17 27 44 83 75 61 21 31 66 80 0 36 24 5 38 35 72 53 35 14 60 80 91 75 91 65 26 73 7 6 68 92 70 77 20 8 42 46 45 56 64 9 88 98 88 53 12 68 73 99 51 4 73 14 11 7 24 61 32 6 30 89 66 54 61 3 45 25 22 90 95 80 36 45 85 90 16 38 57 16 23 74 3441 3112 3228 3072 1544 3045 3942 2311 2899 2703 3859 3800 3754 1892 3367 3081 3431 1577 3484 3965 1886 3523 2323 1768 3346 3556 3007 3256 1556 2132 3922 3482 3999 3065 1808 1671 2650 1629 1840 3645 2534 3399 3302 1840 1914 3862 3812 3571 1824 3681 3395 2017 3613 2061 2760 1594 3560 2477 3741 1826 2333 1588 3250 3981 2956 2471 2104 2466 1990 2899 3909 1749 1673 3068 2554 3794 3501 1699 3582 2880 2885 3171 3735 1960 2818 2313 2246 2019 3783 3709 2844 2760 2222 2368 3020 2947 1779 3954 2464 2087 1930 3129 2776 3444 2424 1603 2297 1995 1565 1895 2015 2323 2180 1752 2764 3197 3321 3851 3860 1527 2797 3825 2380 3093 2329 1587 1509 2688 3170 1575 2714 1952 1632 3352 2859 2437 3976 1599 1822 3669 2773 2945 3081 1772 1921 2652 1550 2682 2077 3187 2321 1781 1720 1623 2367 2656 2206 3976 1543 2935 1808 3642 2647 2805 3722 3250 2267 3726 3860 2867 3563 1814 3457 2348 3362 1776 3709 3095 1508 3250 2462 2607 3632 2567 3964 3356 3451 2878 2626 2710 2060 3606 2056 2511 1559 2434 2766 2585 1823 2463 3405 3221 3768 3440 3983 3274 3117 3225 1852 3755 3421 2379 3534 1840 2215 2310 2323 3458 3297 2087 3405 2242 1961 1819 1767 3126 3228 1568 2237 2210 3524 3723 1607 1533 2189 1625 3308 2080 1612 3715 1906 3527 2572 2388 1902 3075 2687 2397 2870 3287 1601 2875 2017 1818 2449 1852 1860 1889 1726 1814 2919 3560 3126 3234 1707 2335 3314 3275 1702 1661 1712 3421 3112 2088 3985 3009 3199 1504 1776 3112 2642 3806 2128 3689 2198 3386 3236 1600 2723 2023 3230 1908 2862 3324 2011 2829 3152 1581 3671 2663
76 71 71 19 23 56 31 8 51 78 57 90 90 68 9 32 28 16 68 18 54 66 83 10 52 86 23 47 36 0 11 52 77 64 79 82 68 5 64 33 51 77 61 15 35 28 98 71 75 48 51 54 78 27 6 13 98 7 15 70 66 42 14 14 33 24 56 5 16 96 56 41 31 28 97 91 8 56 87 68 37 80 5 4 84 13 11 66 3 38 58 81 73 11 84 68 30 99 43 24 3037 1565 2412 3047 3849 2482 2939 2977 2275 1707 3176 3524 3302 2882 3943 2103 2458 2496 3640 2119 2978 3908 2759 2336 2966 2695 3826 2619 3392 1782 3807 3292 3157 1813 3788 2563 1766 3634 1707 3196 2667 2156 2105 3732 2342 3932 2502 3108 2014 3807 3638 1980 2828 2770 2495 2756 2734 2760 1517 3010 2025 2355 3855 2780 2077 3263 1577 2573 3167 3077 3558 2760 2565 3480 3247 3533 3340 3996 2189 3222 3270 2760 1622 3773 3562 3263 3159 1542 1986 1893 2330 1588 1574 3484 1532 3946 2567 3728 3731 2061 2549 2181 2738 3857 3112 2830 2960 2065 1744 1864 2976 2942 2227 2600 1584 1756 1572 2622 2443 3997 3588 2384 1566 1966 3946 3423 2284 2252 2069 2584 2796 2876 1690 1920 1842 3164 3320 1609 2992 1618 2498 1703 2974 3914 2276 1934 3010 2924 2943 2603 3150 3830 1629 2292 3252 3398 2776 3734 3816 3410 3607 3735 2727 2228 3085 2012 2668 1796 3016 3111 2258 3675 2754 1744 1574 2408 2895 3765 2680 3083 2090 1539 3571 3695 3554 2145 2711 2552 3943 3348 2656 2182 2716 1554 3247 2348 3149 2296 2272 2863 3850 1634 3761 3335 1659 1568 1884 2927 3224 3056 2735 2284 1844 2704 2477 2824 2502 2538 2945 1772 3440 3001 2396 1902 3168 2395 3160 1943 2839 3762 2984 3055 1900 2073 2689 2976 2580 3923 2913 1524 2824 1783 1506 2583 2782 3456 2714 1501 2137 3767 2581 1966 1727 3242 3682 3397 3693 2360 3799 1950 3467 3449 3671 2305 3079 1872 3351 1749 2653 3803 3096 3976 1659 3492 2927 2597 2343 2384 1691 3988 2604 1514 3477 3384 3600 3502 1804 1688 1668 2863 2469 3470 2467 3266 3633 2955 2968 2282 3473 3488
73 72 86 90 33 60 25 96 33 33 71 2 90 20 71 15 40 35 25 1 15 16 25 90 59 81 74 64 24 11 0 16 17 6 68 95 15 3 38 69 93 41 8 42 59 95 15 67 36 81 12 31 91 2 99 32 54 81 64 25 21 22 50 35 92 42 63 80 29 16 89 45 26 64 73 25 72 42 13 14 63 25 57 57 37 38 38 44 9 88 85 10 97 63 26 52 41 16 30 38 2467 1906 3901 2103 2238 2976 1521 3429 2045 3299 3384 2503 3782 3503 2036 3240 2506 1898 3994 2818 1513 2690 2676 2951 3595 2068 3044 2344 3253 2316 2967 3938 2318 1505 3933 3094 2900 2978 3843 2309 3251 2723 3999 3716 3183 2223 3698 2700 2663 1839 2200 3341 1708 1694 3920 1892 3549 2393 3870 2722 2924 3014 2794 1509 2973 3577 3929 3295 1734 2402 1983 2688 3250 2265 2371 3948 1804 2575 3837 1637 3331 3389 2578 2267 3657 2496 2424 3810 3661 1641 2649 2693 1971 3701 2783 2860 1729 2385 3158 3020 3919 3536 1529 2103 2978 3977 2325 3514 1708 1588 3363 2598 3271 2717 3737 2289 2307 3966 3205 3150 3165 3701 1627 1810 3737 2853 3093 2697 2567 3315 2673 2491 2493 3738 3132 3678 2767 1843 1559 2353 2954 2172 3514 2401 2586 3411 3332 1961 3215 1647 2089 2867 2407 3464 2985 1754 3189 3587 3147 1901 3369 1661 2251 2919 2656 3361 2644 1503 2833 2287 1794 1830 2379 2856 1674 3438 1704 2926 2789 2152 3989 2116 3506 3136 2412 3587 3991 2896 2183 3121 2372 2612 3096 3077 3268 3918 2406 3516 3111 1520 3001 2834 3854 2778 2609 1713 2817 3560 3661 2573 2328 3248 3471 2149 2688 3869 1983 2337 3466 3181 3731 2395 2664 1783 1722 1563 1876 3699 3656 2949 2850 2978 3996 1850 3445 2277 2307 3318 2936 2464 2763 2710 2198 2039 3327 1666 1779 2792 1815 3502 1969 1593 1892 1858 3888 3725 2692 3441 3983 3458 3879 3737 2305 3522 3638 2270 1939 2954 2220 3943 2454 2243 3493 2942 1631 3418 3773 3049 1906 2951 3221 2528 1594 3004 3197 2039 2367 2075 2969 1756 3561 3139 3153 2432 3932 3726 3053 1779 2276 1559
84 27 98 42 23 95 38 71 2 5 56 94 31 39 57 16 84 25 40 78 64 74 96 55 34 98 57 14 5 52 16 0 77 25 43 35 52 67 85 27 73 90 43 72 40 98 54 96 3 81 59 88 37 34 73 40 75 81 16 47 62 40 12 9 99 32 80 24 37 39 98 70 90 77 76 46 33 18 59 13 65 17 60 11 66 85 92 30 54 50 37 12 83 87 87 3 37 14 99 33 3001 3528 3767 2284 1960 2215 2855 1721 2361 2405 2518 3232 2482 3557 3532 3464 3994 3386 2007 1577 3941 3264 1686 2558 3791 2105 2352 3773 2280 3124 3983 3568 2843 1666 3985 1881 1960 3785 3524 3814 3219 2414 3938 3019 3611 1647 1505 2949 3309 1814 3209 2716 2003 1590 3874 3406 2498 2466 2950 3825 2598 1699 3994 3810 1905 1580 3784 3764 2889 3123 3555 2984 2994 2004 2863 3799 2207 1630 2495 3601 2140 3971 3295 2394 1844 3172 2490 3650 3501 2879 3186 1544 2944 2118 1612 3029 2670 1894 3207 1680 3246 3974 3194 1500 3702 1565 2845 1720 2685 3260 2520 1518 2274 3109 2884 3681 1646 3757 2918 1762 3643 2110 2353 1931 3717 2959 2300 3601 2552 1905 3216 2580 1835 2447 2364 2945 1505 3093 1744 2933 2140 2797 3927 2998 3117 1775 1899 1819 1651 2889 2794 1990 1531 2903 2400 3374 2985 3520 1785 1818 2749 1702 3201 1607 2917 2695 2286 1853 2795 3566 3915 2082 3447 2618 1818 2199 2755 1991 3009 3853 3633 1680 2007 3330 1706 2136 3550 1755 3193 1923 1954 2451 2422 3129 2486 3217 3862 1794 2651 2549 3076 1790 2130 1968 1896 2077 1929 3840 2381 2197 2624 1978 2161 3957 2311 3233 3758 2579 2721 3890 2612 3652 1662 3825 3712 3099 3468 2135 2591 3547 2998 3557 3348 3131 3646 3943 2050 2514 2843 2474 2812 3705 1765 2368 2976 3924 3506 3758 1970 3175 3423 3762 3420 1869 2385 3216 3606 3391 3055 2161 3256 1891 1680 1513 1619 2414 3608 2982 2275 3075 2555 2002 3689 3321 1665 2209 2572 3687 1550 3073 3602 3898 3081 2524 3710 2015 2238 3173 2875 3356 3676 3129 3608 2128 3506 1924 2335 3302 2662 1705
18 9 54 66 57 85 9 96 93 7 47 81 28 94 15 30 37 75 83 71 81 52 18 18 64 71 22 51 38 77 17 77 0 85 36 81 42 18 99 71 32 63 80 15 57 72 53 82 54 80 70 69 88 89 59 51 44 53 8 2 10 84 30 15 83 34 77 25 3 36 68 93 22 32 73 91 16 2 49 26 57 66 83 77 63 93 39 39 95 17 54 64 34 77 24 30 63 61 29 61 3771 2300 3234 2000 3251 2159 2175 1516 1875 3644 1711 2884 3821 2223 2973 3976 3120 3986 3220 3769 2400 2803 2647 1911 2152 3445 1826 3980 3294 3094 3941 1740 2152 1636 2003 1653 2797 1625 2113 1677 1829 3657 2074 3174 3683 2401 3981 2944 2316 3435 2411 3672 3525 3232 1616 3855 2548 2937 3267 2545 3280 3171 3150 2898 1687 2314 2419 3060 3197 3646 3943 2657 2760 3358 2893 2597 3654 1977 1932 3351 3153 2691 2095 2080 2560 2787 3010 2430 2071 1704 3037 2617 2214 3962 2126 3054 3338 3199 3753 2217 2731 3105 1889 3947 2627 3840 3483 2236 1928 3500 1969 3430 3696 2876 3345 3555 3196 3581 3866 3165 3369 1879 1952 2664 3964 3694 3894 3883 1847 1998 3136 3579 2089 1891 2204 3624 3325 2773 1535 2423 2891 3923 3914 2938 3122 1599 2198 3177 3995 2051 2229 3070 2169 2495 2331 3357 2570 2147 2047 2522 1630 2732 3275 3121 1739 3669 2785 1872 1937 3599 3682 2803 2773 3563 2897 1995 3220 3582 3471 3124 3892 2178 2016 2168 2468 3527 2453 3598 2432 2873 3232 2209 3036 1552 3572 3271 3451 2747 3772 2640 3701 3611 3673 1552 1800 2188 2147 1998 2386 2748 1649 3371 3593 3605 1837 1840 3100 3644 2204 2017 1716 2160 3586 1949 3107 3393 1965 2432 3816 1769 2916 3276 2926 1679 1548 2439 1559 2140 1723 3831 2473 3025 2882 2321 2821 3367 3554 1916 1915 2696 2795 1777 3624 3167 1634 3310 2786 2648 2162 3463 3918 2303 1727 2759 2393 2158 1866 3992 2510 2071 3431 2952 1639 1508 2534 3567 3623 2441 2016 3564 3666 2916 1626 3746 1890 3101 3407 3767 2025 1500 1761 1940 2858 3394 2501 2006 2184 3976 1558 2730
9 32 57 38 44 73 69 90 54 68 54 38 64 57 82 39 72 52 55 33 10 34 93 88 89 59 87 45 35 64 6 25 85 0 2 53 34 68 37 65 5 24 35 47 92 16 51 97 34 90 76 73 72 62 76 22 60 60 3 80 8 23 85 85 86 45 40 32 91 24 64 81 77 78 46 24 39 51 39 81 33 11 28 79 95 64 21 75 41 64 47 36 46 80 18 95 37 90 45 53 2434 1806 1738 2406 1680 2069 3645 2943 1996 1624 2373 1977 3924 2372 2515 3215 2261 1866 2034 2115 2735 3265 3097 1500 2937 3020 2644 3598 1723 3201 2797 3479 2019 3715 3329 1624 3799 1738 3682 3676 1700 3213 2394 2240 2132 1841 1571 3570 3996 2654 2099 3059 1826 3373 3132 3213 1947 1821 2085 3754 1676 2954 3034 2030 3260 1781 3175 1601 2217 1802 3102 3102 3737 2054 2123 3926 2045 2714 3544 3731 2326 3180 3767 2327 3468 1911 1792 3305 1601 3094 3485 3273 2624 2175 1695 2006 3705 2825 1550 3674 3282 3808 2809 2818 2779 3300 3589 2167 3148 2978 3052 3684 3668 3142 3797 3433 3088 3898 3769 2788 2703 1621 1750 2065 1542 2549 1592 1645 3901 2946 1851 2528 1632 3674 3928 2414 2512 3158 3889 3331 3067 3061 2250 1549 2736 2080 2422 3306 3864 2417 2471 3070 2877 2769 1635 3991 1522 2478 2692 2956 2162 3451 2467 2601 2439 2052 3276 2000 1891 3430 3901 2288 1681 2054 2080 1539 1852 2778 2602 2007 1745 3325 1829 3829 2485 1961 1511 3856 3750 1535 1808 2324 2256 3293 3773 3059 2492 2074 2648 2773 3446 1654 2793 2582 2134 1868 3366 2960 1905 1800 3664 1966 2423 1827 2626 2775 3342 2965 2031 2915 3449 3177 1948 2823 2330 2305 2438 3557 1633 2002 2393 3113 1772 2891 1513 1900 2691 2223 3739 3393 2750 3968 3542 3851 2505 3676 2852 1974 1773 2156 2992 3320 1619 2323 3434 1547 3288 3986 3283 3596 1506 2914 2513 3304 2242 3473 3590 2770 3354 2113 2121 2830 3121 2467 1983 2908 2159 2960 1913 3757 1575 1744 3167 3803 3098 3448 2877 2285 3196 2722 2724 2578 3564 3999 3557 2072 2195 3190 1709 3412
86 40 67 93 65 29 70 74 86 75 59 15 78 37 60 65 24 80 25 34 12 34 31 31 12 54 75 50 72 79 68 43 36 2 0 58 28 4 83 30 74 81 46 4 71 16 6 50 22 78 97 56 39 66 23 43 88 54 90 42 43 87 6 31 62 12 17 65 46 69 48 7 95 73 8 85 52 11 22 49 32 14 78 29 67 42 42 99 51 49 53 8 76 73 64 55 55 8 25 80 2724 2715 2659 2427 2458 2846 3591 2436 2534 3545 1744 2845 2252 3287 2028 3136 2865 3965 3853 1580 3426 1874 1788 3077 1871 1739 1573 3779 1512 2116 3773 2289 3303 3837 1871 3240 3902 1553 2121 2820 1741 2336 1856 2102 1782 1571 1909 2838 3046 2055 2527 3512 3558 3720 2698 2962 2238 1939 3167 2521 2642 2072 3965 2937 2470 2403 3601 2206 1948 2961 2477 2066 3542 2319 2704 2932 3958 2338 2599 2317 1996 1663 2836 1652 2068 3577 2619 1603 3934 2383 2289 2464 3997 3393 3096 2498 1996 2557 3443 2609 2987 1516 3322 3200 3324 2036 3709 3931 1727 3314 2484 3491 2013 2185 1885 2615 2518 2913 2772 3690 2633 2073 3739 1611 3601 2708 1552 2510 1963 2646 2102 3663 2022 1650 3302 3163 3236 2570 3888 2988 3784 3622 2866 2247 2272 1737 2343 2490 3272 2621 2731 3261 3792 3521 3042 1817 3445 1709 3995 3913 2404 3993 3343 2150 2081 1688 2152 3098 2736 3356 2823 2629 3060 2069 3463 1960 2317 3197 2530 2363 3739 1782 3982 1950 1572 3784 2289 2655 1962 3450 2881 3614 2969 2298 2670 3396 3320 3474 3099 3374 1760 2498 2787 3946 1782 2979 2999 3614 3576 2800 3479 2312 1615 2458 3185 2188 2355 3429 2109 3929 2388 1581 2721 2221 3087 2233 3812 1852 2722 3367 2791 1655 2010 1860 2909 2892 3649 3852 3157 3006 3578 3629 2298 3220 1861 3755 2071 3527 3389 3383 2380 1910 3734 3045 1557 3362 2576 3455 1726 3569 3584 2802 1816 2284 2754 2363 3718 3092 3803 2813 1596 3119 3387 3824 3318 3946 3447 3568 2825 3280 2578 2576 2755 3551 3978 2392 1630 3121 3287 3768 2133 2955 2627 2445 2863 1954 1582 3229 3680 2609
3 97 98 12 3 60 32 89 37 86 57 58 5 92 3 4 47 20 40 75 50 50 89 52 38 62 94 82 53 82 95 35 81 53 58 0 54 15 71 40 3 86 68 92 9 91 30 2 91 35 83 30 62 71 69 19 68 21 62 87 49 48 53 78 47 67 91 38 43 86 55 90 19 94 6 35 35 96 17 53 62 6 40 41 83 87 19 51 29 11 88 56 9 38 27 81 3 37 25 65 2620 2122 3137 2126 1876 1644 3754 1709 2530 1916 3586 1719 3413 2365 2746 3397 3139 2019 2562 3565 2834 1971 1982 2796 3797 1931 3777 2606 3450 1620 2826 2048 1635 3986 1718 2908 2425 3742 2658 2437 3940 2387 1966 2236 1741 1598 3791 2755 3954 3273 3437 3004 3222 2582 3120 1987 2511 3341 3629 3249 3814 2525 3382 1901 3139 3491 3254 3759 2295 3131 2061 2682 1555 3752 2575 2258 3455 2721 2510 3999 3473 1967 1578 3218 2928 2659 2346 3436 1996 3988 3595 2957 2841 3341 3153 2451 1739 2139 1564 3072 3792 1989 1618 3244 2656 2639 2392 1620 3837 2247 2066 3795 2101 3779 3709 2981 1891 2443 1718 3209 1540 1573 1564 3278 2040 2837 2069 3320 2699 3969 3179 3214 2015 3760 1945 2513 1533 3866 3431 3977 3436 3733 3414 1702 2951 1690 2584 3602 1643 3483 3740 1642 2852 1674 1979 3517 3140 2285 3618 2403 3348 2477 2601 1550 3242 2866 3051 1790 3766 3114 2781 1741 2055 3892 2908 3611 2009 3339 2864 1572 3349 2699 3404 2077 2414 2451 2474 2892 3722 3314 3142 2960 2686 1928 3440 1945 2450 2921 2165 2159 1569 3073 3323 1938 1674 3602 2236 2738 2111 2843 3354 3319 1722 3019 2772 3585 2447 2023 1989 3506 1587 3465 3367 2020 2401 1649 2404 1817 1730 2619 2971 2882 2285 2079 3985 2699 3756 2560 2637 3125 1815 3517 2435 1789 2367 3988 3892 2272 3631 1664 3695 2875 1765 1925 3927 3385 3850 1802 3166 2089 2305 3399 3899 3819 2112 2465 2467 3464 3156 3255 3817 3001 2571 2820 3753 1674 2862 3245 2981 3758 2694 1962 2798 2446 2272 2187 3833 2229 2414 3089 3372 2059 2476 2801 1790 3874 1535 1857 2211 3246
54 87 45 13 18 27 66 53 39 28 21 83 29 13 89 24 71 12 26 78 46 5 32 95 82 18 41 20 35 68 15 52 42 34 28 54 0 26 19 24 24 8 5 31 79 44 5 93 44 55 60 24 74 98 36 54 80 26 13 99 33 50 7 25 8 65 55 76 32 31 45 71 57 56 6 93 25 23 93 33 14 51 60 85 42 27 27 23 38 73 89 71 70 22 82 27 40 42 8 15 2300 3512 3395 1991 2846 3907 3451 2366 1994 3980 3423 3854 2010 1664 3357 2537 3058 1521 1643 2393 3849 2328 3795 2694 2567 3583 1813 2617 2402 1815 2515 1617 2104 3089 2402 2614 3526 1510 2991 3206 2875 2365 2280 2407 3353 3954 1840 3674 1975 2451 2818 3344 2573 2986 3395 2587 3716 2967 2634 2386 1623 3753 1589 2281 3737 2856 2623 3107 1968 2497 2223 2737 2117 3288 2836 3620 2094 2334 3373 2295 3927 2975 3328 1760 3694 2484 3264 3408 1804 1966 3993 3264 3590 2112 3833 1786 3817 2666 2274 2191 3266 3856 3494 3429 3312 1931 3977 3349 1830 2159 2102 1833 1560 1973 2295 2080 3039 2417 2368 1802 3157 2970 2546 1717 1784 3895 3275 3263 2101 2611 2255 3817 2706 2811 3244 3742 3405 2529 2635 3568 2028 2557 3783 2805 3645 1968 2423 1799 1930 1567 3621 1941 3318 3246 3518 3133 2733 3239 3632 2200 1681 2103 3573 3792 1917 3888 3926 1926 2291 2337 3997 2514 1658 2294 2480 1778 3395 2458 3166 2524 2465 3364 2479 2807 3143 3788 3923 2392 2554 2545 2736 3504 3344 3747 3389 3246 3979 1933 1663 2196 1994 2723 2984 1592 2138 3550 3923 3185 3713 2060 3558 3590 1984 3337 1798 2498 3058 2250 2017 3838 3064 3359 1821 1876 3772 2142 3137 3594 3642 3693 2129 2124 3221 3765 2892 3847 2297 2864 2786 1869 2369 2538 1712 1803 3604 1965 3225 2605 2852 1782 3440 2818 2209 1816 2853 2558 1547 2068 1816 2047 2958 2639 3731 1992 2485 2438 1758 1719 1680 1620 2260 1898 3521 3901 3070 3245 3442 3724 3073 3771 2122 3785 2221 3478 2063 1585 1769 3538 1804 2571 2303 1624 3426 1772 2152 2315 2789 3104 1971 2242
8 23 83 43 37 47 53 87 32 20 42 93 29 24 71 25 18 38 48 66 41 70 81 22 7 98 87 56 14 5 3 67 18 68 4 15 26 0 54 13 95 58 30 37 19 45 79 80 39 76 87 45 76 62 44 70 33 4 77 98 74 15 84 89 36 89 41 73 87 58 58 99 78 83 39 30 92 29 5 38 86 37 37 45 3 97 93 25 77 59 98 75 73 3 57 33 60 20 44 99 3210 3480 3407 1863 3466 3570 3997 2436 3576 1989 3031 2191 2600 2280 2046 1581 1582 2031 3191 2362 3428 1542 1789 3444 3277 2210 3704 3231 2358 1921 2992 2933 3387 3734 3794 3006 3204 2802 2161 1867 3731 1537 3967 1697 1798 3414 2344 1501 2994 2620 1705 2098 2974 2037 3530 3294 3289 2762 2010 2348 2037 1652 3312 3409 1795 3692 2547 1926 3570 1914 1641 3653 3615 1920 3080 2708 1716 1656 1872 3315 2319 2724 2472 1534 1914 1576 3888 3465 1994 2394 3768 2625 1913 3186 3647 3050 2155 3256 1911 3771 2019 3383 3066 2754 2372 1788 3090 3569 2268 3109 3805 3590 3539 2948 3220 2472 3061 1962 3245 2330 2306 3605 2121 3274 2848 2292 2985 2632 1915 3716 3766 3260 2817 1810 3637 3690 3049 3534 1614 3087 2785 2115 2045 2533 2168 2202 3711 2635 3721 1611 3133 2932 3335 1514 1857 1665 3260 2516 3045 3932 3264 2132 2088 2324 1774 2083 3297 1582 2166 2359 3902 3815 2705 3482 3984 3491 3319 2485 1630 2149 3843 2817 3775 1529 2551 1841 1557 2884 3576 3265 3195 2853 3091 2088 3078 2390 3353 3661 2887 3939 1517 3846 3170 1754 2819 1523 3225 3584 3894 2030 2727 1921 1565 3313 2832 2405 2157 3834 2753 1605 3819 2992 3338 3237 1825 3272 3241 3284 3637 1816 1550 2449 3128 2981 1620 3116 2944 2929 2127 3220 3451 3697 2481 1735 2828 2101 2250 2586 2968 1665 2233 2498 1983 1945 2456 3913 1957 3648 2203 1574 1901 1971 2876 1615 2063 2060 2078 2441 1813 2918 2033 2521 2100 1904 3961 2019 3155 3199 1545 2121 2749 2241 3655 1826 3367 1632 1718 2899 3451 3366 3499 3285 2219 3759 3580 1760 2432 2275 1778 3285
30 47 28 58 47 5 60 80 60 68 31 12 42 54 80 38 18 40 84 87 23 89 58 5 47 35 38 72 60 64 38 85 99 37 83 71 19 54 0 52 62 49 95 52 69 40 16 14 26 26 55 92 33 78 39 38 51 21 29 16 70 42 95 5 36 77 32 88 93 27 86 81 10 75 10 50 53 89 28 49 18 48 33 47 1 93 72 20 32 56 40 11 77 52 65 12 69 12 29 15 1970 1834 2138 2453 1517 2980 2965 2214 3282 1593 3427 2011 2628 2781 2163 3395 2334 3788 3820 2925 3805 3040 2535 2282 3601 2881 2343 2347 3947 2997 2987 1500 1872 3059 3061 2581 2591 3889 3568 3538 3536 2649 2232 2118 1524 3783 2398 3845 3468 3753 1616 3837 1703 1698 2177 3449 3627 2682 1752 2457 1512 3265 3917 2180 1949 2063 2800 1961 1655 2501 1709 3799 3549 3517 2014 2600 3524 3358 2582 3284 2134 1567 3590 3305 2988 2085 3779 3124 2232 2225 2200 3055 1902 3988 2341 2085 3011 2715 1987 3398 3599 2400 2616 3254 2027 3754 2648 2849 2434 3644 1844 3670 2912 3047 3895 3497 2728 1797 1650 2300 2030 3537 1794 2553 1717 3355 1613 2672 2370 3139 3669 2945 2689 1608 3202 2233 3259 1896 1845 2930 3520 2726 2161 2725 2912 1769 1648 2962 3032 1958 3680 3898 3093 3448 2349 3171 1763 2002 2632 1537 3293 2786 1631 1764 3579 3123 3813 3877 1978 3494 3117 3686 3438 2655 2299 2065 3540 1597 1749 2251 1835 3941 2282 2047 2780 3986 3126 3761 1524 2861 2469 2076 2281 3213 2736 2666 2398 2193 2505 3624 1754 2666 3779 3440 3960 3938 3708 1527 2196 3157 2462 1576 1841 2839 1557 1995 3928 3855 3553 2067 3894 2108 1789 3646 3986 3734 3876 3262 1564 3701 3203 3861 1973 1690 2062 2317 2122 2204 3269 3315 1845 3386 3485 1880 3107 3810 2747 1902 2040 1656 3083 2762 2896 3149 1925 1677 2784 1642 2608 1927 2755 3336 2511 3105 3473 3600 2027 2168 2208 1606 2333 1844 2774 2777 1722 2038 2810 3223 2890 3520 3818 3990 2117 2899 3748 2288 3418 1633 1878 3914 2370 2117 1625 1939 2546 1574 3772 2803 1883 1853
48 60 78 62 81 27 65 28 34 39 28 5 25 79 20 61 35 32 70 9 80 25 61 41 80 76 22 8 80 33 69 27 71 65 30 40 24 13 52 0 38 10 44 43 40 40 96 91 25 8 94 34 45 57 89 57 50 60 53 70 3 96 97 15 93 10 73 30 74 87 22 13 95 52 54 27 81 62 86 77 79 49 14 73 63 86 71 27 91 44 92 58 87 30 24 58 37 66 78 95 2430 3271 3748 2554 2612 1725 3072 1828 2584 3674 3171 3807 3334 3740 2892 2035 2692 2783 3100 2596 2619 2999 2326 2431 1807 3922 1696 2588 3400 3648 3107 2222 3351 1531 2760 3060 3078 3084 3072 2316 3779 1768 3436 2008 1575 2234 1885 3018 2874 2580 2084 3366 2781 2990 3163 2400 2691 3347 3165 3917 1643 2861 2688 3500 2189 3243 2642 3935 3867 1891 2262 2585 3403 3769 3369 2553 3599 2913 1780 2159 2384 2245 3223 2962 3398 2126 3741 1689 2969 3094 3391 2381 1856 2408 2778 2256 2619 1654 2508 2489 1719 1857 2626 3083 2469 2297 2078 3606 3143 2684 3649 3521 1597 1979 2641 3460 3764 1936 3378 1534 1978 2820 2411 2530 3242 2044 2423 3871 2945 2942 3301 3640 3813 1631 2148 1912 3904 2109 2786 1735 3332 3981 3728 2520 1719 1743 2689 2617 3216 3913 2873 2979 3252 3849 2475 1854 3288 3293 2501 3283 3303 2844 3054 2116 2820 2553 1904 2798 1535 3655 3881 2852 2490 3528 3351 2302 3919 2308 2237 3153 1872 3987 2033 1760 3084 3691 1812 1714 1984 3828 2294 2588 2695 2581 2300 2583 2756 2358 3374 2564 3778 3561 1678 3138 3145 1717 2946 2417 1875 3792 3115 3386 1965 3601 2092 3941 3090 3885 2063 2763 1776 3293 2041 2051 3048 2719 2591 3327 3281 1801 3141 2979 2183 3334 3570 1667 2094 2012 3382 1784 2492 2883 1983 2561 1633 2647 1771 3900 3754 2862 3877 3954 1981 1775 3737 2020 3808 2029 2703 1770 3427 3917 2086 3427 3525 3262 3457 2922 3220 1744 1508 3713 3768 1621 2226 1907 2310 2871 2881 2828 3135 3965 1623 2421 2844 3428 3146 1656 3508 1587 2039 3830 2896 3709 2701 3750 3623 1875 3250 2555
42 91 12 86 99 27 67 58 98 28 18 98 18 21 42 24 70 36 63 9 85 36 84 26 36 20 32 65 91 51 93 73 32 5 74 3 24 95 62 38 0 68 65 25 65 75 49 32 69 24 14 35 45 83 4 34 57 27 51 9 91 52 8 10 96 34 94 85 84 17 84 12 16 5 96 24 54 12 63 12 29 37 63 14 16 98 42 89 76 71 68 1 95 65 16 42 31 5 80 27 2188 1723 2957 3510 3872 2828 2180 3811 2381 1831 2271 2910 1699 3851 3017 2165 3111 2588 3098 3913 2671 3085 2408 2542 1884 3714 2942 1933 1596 2549 3132 2978 2884 2508 1581 2584 1922 3260 3502 2063 1867 3381 1695 2727 2055 2239 2102 3324 3908 3258 2592 2293 2157 2901 3403 3823 2652 3094 2893 3579 3113 2335 1735 2884 3503 1658 3868 3467 1849 3118 3268 3949 3929 2471 3137 2702 2780 3856 2132 3511 3982 3791 3721 1819 3455 2912 1746 3282 1992 2926 2682 2162 1943 1817 3022 2620 1886 3205 3155 2885 2075 3969 1691 3533 2654 1523 3537 1857 3298 1619 3172 3562 2037 2293 3169 1968 1547 2317 3852 2478 3727 2753 1820 3893 3780 2673 2006 2776 2792 3581 1841 3231 3282 3360 3427 2722 3252 2312 1886 3927 2483 1896 3411 3701 2431 3941 1790 2653 2849 2259 3046 2009 3802 3891 1917 1628 3953 3383 1678 1646 2912 3145 3019 1504 2383 2181 3295 3013 2130 2911 3933 2461 1731 3734 2386 2999 1811 2389 2601 3529 3859 3295 3896 1914 2112 3497 1835 1932 2319 3220 2063 1754 1513 3930 2045 3942 2247 3023 3875 2021 2813 3992 3428 2084 1787 1831 3260 1990 1567 3331 2598 3739 2546 3250 3836 3213 3678 3202 2679 3827 2904 2891 1860 3936 3958 2291 2175 2684 2648 1500 3200 3931 2000 3956 1949 3572 2381 3590 2866 3034 3618 1627 3253 1944 2516 2008 2167 2621 2984 3339 1555 3942 2618 1709 2985 2367 2117 1505 1541 3780 2249 3101 1558 1652 3325 3623 3678 2963 2981 2921 1833 2267 3200 1759 2382 3776 3034 1921 2777 2479 2210 2662 2601 3711 2619 3787 3058 3928 2716 3891 3216 3595 3610 3713 3471 2839 1681 2684 3564 2680
40 14 88 38 4 65 78 41 40 36 52 97 98 12 33 20 80 22 42 67 98 82 69 98 38 19 91 32 75 77 41 90 63 24 81 86 8 58 49 10 68 0 28 62 25 41 97 95 88 2 66 81 99 46 75 21 98 33 2 9 40 26 29 26 85 47 95 80 34 99 67 9 82 97 31 10 26 70 87 7 67 41 6 42 5 41 17 22 83 49 34 11 55 26 73 50 47 51 80 96 3177 1880 2565 3100 2079 2075 2286 3403 2381 2978 2689 2815 2124 3027 1754 2827 3438 2361 2075 1759 3627 1913 2144 2397 2542 1601 2258 3693 3231 2601 3473 2334 1930 3149 2942 1889 3233 3080 2045 3380 2943 1952 3233 3032 3947 1503 3784 2629 3179 2147 3138 1570 1788 1867 2136 2885 3937 2816 3226 2512 3854 3112 3043 2067 3811 3924 2007 2062 3965 3132 3590 2244 3103 3725 2667 1637 3374 2455 2307 2378 1654 2360 2971 1527 3348 2927 2686 3628 3992 3116 2492 2764 3411 2418 1512 3472 3217 2133 2531 2225 2804 3107 3165 1842 2960 2950 2048 3807 2279 2796 3724 2917 2158 3526 3987 2717 3831 1856 2280 1723 2409 3710 3489 2647 1719 3965 2935 3366 2067 3171 2635 2258 2827 2018 3352 3372 3461 2704 3694 2287 2113 1955 2838 2135 3373 2856 2031 3287 3787 2122 2239 2566 1781 2495 3496 3065 2130 2992 2126 2908 3649 2368 3465 3135 1702 2211 2008 2128 2496 2595 2560 3934 3585 2634 3684 2974 3993 1536 1936 3916 1600 2898 2872 2436 1945 2531 2772 1560 2323 2393 3453 3172 1676 3477 2460 2788 2999 3996 3220 1805 2514 2435 3808 1547 3644 1676 3917 3056 2000 3200 1589 1841 2724 3299 2354 1866 3263 1635 2338 2575 1886 2912 3366 3722 2998 3425 2849 3995 2984 3845 1831 3337 3952 1956 2832 3336 3131 1584 2122 3701 2718 3820 3295 3261 3444 3075 2625 2231 2850 1684 3290 3270 2391 2447 2944 3213 3992 2001 2560 3436 2367 3299 3758 1665 2200 2744 3121 2443 2729 3130 2971 2702 2301 2842 3120 1576 3450 3653 1693 3131 3914 3869 2409 1924 2367 2474 2145 2455 3907 2710 1652 2472 1607 1916 2803 2533 1832 3790 3837 2262
3 76 34 94 2 7 60 28 70 84 19 34 88 80 87 55 39 64 2 21 44 53 72 22 56 61 74 31 91 61 8 43 80 35 46 68 5 30 95 44 65 28 0 99 20 70 58 12 72 29 85 46 60 99 54 2 44 2 36 99 82 34 80 45 15 85 49 13 14 86 60 70 92 88 57 82 40 13 33 29 59 71 97 64 67 58 41 9 62 65 6 41 11 18 87 84 50 16 59 96 2452 3508 2290 3225 3598 3614 3453 2580 2014 3215 1507 3373 3638 2619 2963 3152 2458 3071 2796 2711 3651 1649 2613 3303 2698 1906 2818 2713 3137 2733 3586 2190 3639 1702 3634 3883 1596 3183 2522 3407 2010 2186 3515 1944 2990 3085 2936 3146 3211 3287 2344 3270 2690 2199 1746 3868 2305 2721 2512 3275 2250 3248 3257 3753 2004 3061 3296 3209 2548 1960 1931 2583 2859 3295 3232 2197 1514 2076 3096 3222 1752 1644 1794 3527 1611 1676 2042 1554 2126 2943 2257 3446 2795 1764 1967 1815 1685 3676 1748 2146 1764 3973 3337 2709 2668 2607 3819 2599 1779 2137 3441 1992 2533 3819 3914 2548 1509 2891 2800 1983 2384 3550 1818 2992 3111 1855 2461 3146 3352 3569 2620 3447 2585 1805 2390 3580 2141 2687 1952 3158 3171 1686 2690 2844 3841 2104 1933 2476 1686 2422 3594 1733 3474 1985 1567 2991 1980 2988 2039 2892 3884 1714 3836 3772 1582 3403 3428 3297 2671 1959 3146 2620 2399 3585 2833 2490 1993 2286 3384 2401 1903 1601 1618 2145 3412 3320 2579 1628 1826 3126 2035 1740 2266 2593 3807 2066 2214 1852 3226 2311 2729 1832 3640 2474 3898 2680 3470 3107 3887 3716 1602 1682 2900 2478 3173 3495 2562 3468 2151 2651 1918 3299 2567 2911 3545 3973 3722 2988 1868 3600 3956 1906 3804 3109 2146 2810 3779 3400 1693 2120 3891 2334 2548 2623 2704 2656 3310 2239 2609 2931 2670 2252 2510 2766 1719 1682 3997 2173 3297 3736 3208 2033 3661 1836 2621 2423 1587 1883 2543 3149 3391 1874 2811 2611 3351 2709 2681 2035 3397 3200 3132 3864 2369 1778 1998 3194 1708 2712 3136 3785 1974 2892 2544 2673 2272 3650 2394 2469 2309 2130
1 92 63 71 83 29 30 51 29 2 13 46 46 40 1 4 97 70 41 80 67 58 94 70 74 42 21 54 65 15 42 72 15 47 4 92 31 37 52 43 25 62 99 0 60 33 42 9 20 80 41 9 6 54 89 27 83 33 81 37 64 20 29 42 98 29 73 99 71 54 31 60 66 2 22 22 40 20 44 76 77 92 35 24 57 79 50 8 35 45 23 62 76 80 48 77 41 4 14 87 3074 2887 3378 3313 2687 3547 2081 3106 2425 3942 1985 3927 3026 1524 1881 2131 1805 1731 1770 2616 2277 3620 3773 3890 3782 1793 2316 1983 2021 2195 2329 1925 3655 3242 3312 2446 1993 3353 3493 2728 2265 3747 3367 2180 1908 3565 1640 3976 3011 1572 2642 3819 1875 1598 3045 1753 3053 2341 3629 2133 3238 3331 3038 1901 3680 2448 2812 1825 3381 2895 1723 3388 3177 2908 3691 2402 2104 3300 2431 2549 2184 2447 2141 2842 2990 3557 3827 3449 3157 3458 2646 3561 3571 3764 1506 3229 3609 2886 1852 1738 1796 3050 2541 3513 1841 2697 1803 2818 3361 2514 3645 1647 3627 3013 1652 2930 1647 3025 3965 3103 3804 3243 3590 3976 3175 1640 3250 3592 2882 3368 3813 1888 1965 1599 1961 1629 3221 2511 2799 2516 3199 1536 1913 3413 1883 3149 2333 2429 3601 3889 3585 2750 2903 1902 3479 3128 1685 2592 3566 2604 3652 2718 1712 3251 2759 2142 2741 2317 2386 2935 3754 3098 2802 2077 2359 2399 2497 3307 1931 2803 2231 3342 1886 1977 3869 2466 3989 2898 2110 2687 2057 2831 3887 3724 3719 3980 2256 2762 3093 2539 3457 2553 2433 3259 2268 3288 2949 3928 3643 3854 3927 1551 1922 3476 2903 3773 1956 1666 3056 3939 1744 2103 3516 2308 1794 1592 2826 3811 3186 1597 2297 2324 2952 3273 2404 3936 1937 3718 1558 3749 3233 1965 3846 3013 1527 1831 1983 2295 2279 2041 2922 3627 2334 2618 3803 3333 1570 2814 2036 2157 3690 3031 3391 1730 2134 3694 3608 1800 3020 3908 3288 2624 1947 3912 2726 2244 3749 1910 2119 1934 3988 3174 3485 2438 2007 2758 3021 2503 1997 3326 2028 2130 1908 3304 2850 2727 2959 3393 2093 3418
13 91 14 57 37 5 91 86 20 24 98 23 93 69 21 96 53 33 68 1 94 33 65 56 12 82 18 4 26 35 59 40 57 92 71 9 79 19 69 40 65 25 20 60 0 36 22 39 58 6 5 95 97 73 58 8 30 69 88 62 66 46 6 95 91 4 19 31 60 25 45 79 18 40 17 72 7 52 20 18 85 87 64 73 79 39 73 53 97 43 64 89 89 90 40 16 95 58 80 46 2704 1618 2936 1803 2440 2501 3762 1569 1720 3835 2194 3398 3908 2939 3881 2102 3010 3128 3390 3669 2122 1613 2816 1701 2527 3788 3437 3031 2069 3035 2917 1510 2962 3116 3076 1702 3960 1653 3568 2033 3752 2767 2201 3413 1918 3585 3208 2163 3682 3853 1632 2125 3568 2133 2468 2293 1570 2886 1819 3682 2680 2769 2613 1526 2510 2774 1893 2609 1741 2005 3005 3372 2730 1874 1609 3445 3368 1517 2070 2475 2027 3191 3167 1788 1978 3855 3295 3594 3394 2129 2331 3177 2250 2947 2127 3729 3489 2092 1937 3780 3682 2140 2417 2240 1669 1686 3954 3191 2620 2952 1836 2011 3707 3328 3450 2916 2831 3689 3292 2192 1842 2832 2928 2284 1722 2562 2317 1679 2401 1856 2727 3261 2302 2637 2580 2086 2384 1772 1572 3676 3686 3604 2492 1561 1615 2128 3994 3799 1802 2497 3388 3413 3703 3347 2406 2263 3544 3984 3865 1769 1892 1562 3321 2056 2878 3594 3161 2444 2765 3890 2045 2393 1546 2358 3362 2871 3549 2271 3551 3725 3754 3089 3823 3971 2382 3385 3570 2705 3845 3583 1871 3697 2681 2522 2636 1601 3672 2716 2394 3209 1941 2509 1889 3183 3837 2199 2952 3012 1532 2129 2819 3631 3460 2253 3180 2036 2658 3950 3065 1677 2957 2266 1749 3086 3851 3666 1825 3390 2208 3464 1839 3917 2798 3303 3280 1518 2082 2550 1722 3749 3168 2255 2240 3529 1999 3990 2150 2115 2802 3763 3131 3085 2081 2860 2865 3027 2522 3443 1504 2233 3668 2629 2716 2185 3048 3271 2778 1999 3352 2179 3270 3018 1555 1660 3451 3643 1861 3064 2778 2694 3431 3812 3296 2683 1878 2659 2269 3176 2682 3972 3323 3945 1815 3286 2521 2817 2651 2611 1897 2089
1 28 36 23 90 20 6 96 47 78 75 85 35 68 34 56 59 1 77 99 89 82 65 89 89 36 62 45 73 28 95 98 72 16 16 91 44 45 40 40 75 41 70 33 36 0 65 44 31 26 89 8 82 44 33 3 5 48 11 84 86 90 67 31 71 21 15 75 96 90 34 84 56 71 70 84 67 23 11 69 41 67 56 43 8 46 60 43 25 42 46 26 60 98 83 31 26 38 1 32 3316 2647 2264 1820 2872 3138 2849 3713 3040 2724 2822 2723 3985 2617 3705 3939 3894 3703 1955 2987 2400 1827 3680 3565 3552 3572 1593 3578 2955 3224 3933 3768 2915 3620 1969 2910 3373 2487 2277 2686 2965 1546 3189 2198 3283 2881 1756 2637 2475 2489 1976 1648 1800 1710 2416 1879 3558 1816 1789 2336 2701 1880 1937 2014 2246 3933 2398 2273 2456 2723 2241 3360 1767 2406 2561 2963 3165 1784 3889 2008 2608 3192 1742 2734 3347 3029 2440 3015 1922 3729 2717 3257 2889 1899 3494 2892 2768 3522 3776 2248 2467 3525 2086 2368 3758 2359 3471 1810 2341 3514 3214 3451 2681 2586 3554 3646 2998 2851 2281 3515 2473 1503 2094 3111 3664 2885 3008 2200 1615 3172 2123 3917 3252 3550 3291 3825 1656 2835 2878 3871 2000 3356 1727 2730 3357 2934 3672 3702 3450 1560 2619 2530 3855 3793 2241 2550 1812 3104 2947 3248 3442 1758 2038 2452 3044 2998 2543 2861 1789 3949 2303 2923 3624 3970 1930 1508 3284 3126 2048 2869 3051 3189 3083 3716 2058 2459 1579 3204 3544 3049 3614 1828 3744 3105 2444 3367 3542 3155 1882 3978 1613 2583 3878 3315 3181 1792 3321 1818 2507 2078 2839 3171 2068 2527 3794 3871 3697 3396 2516 3779 3885 3966 3673 3079 1564 2356 3422 2825 2535 2835 3004 2518 3510 2652 3067 2007 1577 1731 2721 1726 1666 3578 3581 2970 2040 3854 3033 2040 3887 2560 3167 2403 3492 1687 3807 1931 3638 1836 3246 3014 2013 2134 3880 2192 2121 3557 3636 1570 3856 3397 2772 1710 3251 1587 2536 3357 1629 1964 3915 1873 2278 1875 1729 3824 3442 1951 3662 3635 2271 1943 2996 2542 2408 2188 3578 3915 1978 3513 2321 3973
67 13 10 74 34 55 62 20 60 12 1 48 64 60 5 68 65 65 9 26 67 18 39 15 50 25 46 34 7 98 15 54 53 51 6 30 5 79 16 96 49 97 58 42 22 65 0 89 37 81 83 9 34 57 81 64 92 4 53 99 69 61 76 75 92 15 59 22 74 90 55 29 43 10 6 84 62 25 1 7 80 36 44 36 33 61 21 74 81 89 24 92 38 16 53 20 33 99 74 96 2176 2007 3067 3729 2147 3412 3333 2263 1599 3058 2761 2834 1929 2043 3881 2317 3748 2629 3145 2578 2701 3048 3669 2531 2774 3654 3611 1868 3439 2253 2716 2601 3968 2109 3107 2398 2509 1540 2692 3863 3026 2202 2090 2877 1918 3434 2764 3771 3840 3277 2086 3577 2889 2677 3997 2569 3170 2861 2260 2602 3091 2517 2363 3541 3161 3256 3221 3656 2173 3167 2505 2678 2184 2285 1709 3467 2617 1787 1620 2230 3284 3132 1775 2339 2091 1931 2745 1587 3409 3990 2008 3205 1715 1578 2774 1562 3938 1615 2745 3555 1598 2814 3472 3985 1655 1551 2220 3780 2562 3488 1688 2534 2717 2865 1540 2922 3907 1738 3212 2998 3398 3082 2795 1963 2722 1694 3841 1575 2877 3945 3893 2865 1895 2699 3564 1941 1734 3167 2532 2066 2233 2687 2127 3472 3560 3137 3361 2469 3075 1550 2760 2279 3831 1649 1612 3421 2667 3398 3772 2607 2566 1573 1814 1734 2808 1849 3832 2201 1887 1614 2558 2106 3995 2155 2729 2504 2725 2994 2051 3130 2803 2926 3947 2615 3571 3910 2439 2592 1629 3204 1803 3954 3844 2859 2603 1514 2075 2252 3749 1809 3615 2171 3088 2633 2677 3547 1950 2086 3672 2400 3930 1559 1923 2741 3563 2776 3166 1620 1774 3374 3595 3051 2731 2674 3998 3353 2286 1885 1582 2326 2709 1898 3741 3439 2000 1664 2272 1591 3082 3801 2561 1707 2365 3189 3990 2939 2249 1607 1715 3389 3160 3674 2335 1909 2878 2580 2598 3858 2383 2396 1689 2638 2356 3783 2534 2984 2732 1915 3061 2991 3597 3864 1945 1809 2170 1601 3702 2420 1652 3138 2511 2529 1918 3531 2955 2884 3935 2801 3454 3503 3326 2908 3038 2978 1558 2277 2868 3774 2968 3041
53 59 53 15 81 26 24 27 71 4 95 17 78 67 83 78 76 52 29 34 89 34 9 1 67 44 78 48 6 71 67 96 82 97 50 2 93 80 14 91 32 95 12 9 39 44 89 0 64 2 17 79 67 6 18 50 42 94 17 72 4 64 68 74 47 66 53 66 15 73 49 94 3 86 16 88 14 7 91 69 10 96 83 78 91 54 95 97 95 44 70 75 50 60 50 37 31 95 82 48 2372 2118 3063 2072 1609 2926 2336 2572 3740 2264 1893 2334 3303 3479 2124 3025 2272 3185 2059 2251 3708 3828 3085 3599 2592 1839 2442 1907 2717 2491 2574 1512 2705 2967 1580 3888 2408 1595 3145 3454 2810 3788 1528 3413 3381 3366 1554 3402 1755 3799 2450 3983 1593 2875 3418 3371 3178 2168 3000 3124 2765 3948 2107 2265 1578 1643 3614 3545 3185 3292 2794 2556 2787 3146 3858 2130 1858 2273 3977 3104 3758 2170 2128 1776 1822 2212 1548 2057 1903 2151 1545 1721 1629 2447 2406 3278 2782 2609 2495 3263 3081 2139 2410 3620 1688 3428 2329 3546 3045 3706 3330 1838 2889 3403 2790 3646 2137 2591 1587 2670 3389 3511 3167 1549 3060 2505 3192 3471 2584 2546 3943 1836 1929 2603 3648 2517 2810 3662 2139 2186 2687 2068 3699 2387 3268 3554 2652 3021 3122 2956 2844 3241 3310 1695 3739 2877 3638 1966 1738 2665 2804 1705 1602 2993 2477 3859 2973 2197 1673 1879 2995 3928 1981 3195 2685 3752 3249 2423 3877 3436 1663 2866 2403 3218 3727 1657 3966 2186 3182 2799 1508 3197 3609 1826 1845 1698 3951 2163 2877 3379 1748 3689 3448 1666 1857 3457 1868 2718 2020 3991 2975 2607 2445 2668 2220 2114 3135 2250 2646 3926 1519 1700 3199 3931 3061 3250 1675 2527 3605 3362 3635 2787 3411 1836 3785 2186 2429 3149 2366 3043 1735 2115 1726 3858 3348 3731 2259 2769 2225 3914 2390 1620 3262 1769 2531 2132 3905 1531 2494 3931 2079 3390 3948 3130 3676 3036 1868 2228 3161 2966 3374 2175 3597 3696 3371 1717 3078 2716 2813 2990 3304 3877 1841 3205 2017 1517 3698 3363 2028 2880 3918 2883 1520 2202 2615 2221 1518 3094 1574 3421
65 8 98 6 41 19 16 25 89 78 43 23 88 2 37 8 65 83 15 38 14 51 32 84 11 92 11 87 68 75 36 3 54 34 22 91 44 39 26 25 69 88 72 20 58 31 37 64 0 11 43 23 48 14 66 40 37 29 50 83 29 4 9 28 13 88 92 43 79 2 77 3 93 50 70 1 7 65 93 70 86 58 91 1 87 33 96 52 56 61 22 60 88 94 33 12 78 42 19 40 3508 3073 2624 2176 3192 1715 3979 1627 2487 3971 2970 1911 3868 1812 2777 1899 3197 1699 2922 3154 2357 3125 3246 3743 3494 2026 3720 2063 3640 3488 2779 3112 2414 3963 2875 3049 2286 3236 2761 2545 3229 1765 3419 3945 3328 3469 3855 2464 2151 2593 3425 1979 3657 3598 1982 3759 2003 2089 2777 3650 1905 3676 3768 2126 3717 1621 2773 1621 1949 1678 2007 2840 3115 1505 3911 3711 1577 1927 3023 3800 3791 2322 3507 2299 2691 2203 3470 3018 2376 2823 3208 1564 2164 2717 3792 3449 3384 2665 3125 2678 2855 1718 3007 2369 3456 2733 3799 3620 3608 3645 3698 2374 2103 1766 3592 3662 3938 2600 1977 2907 3673 1620 2972 1897 2609 1698 3185 2070 3941 3934 2281 2669 2579 3096 2081 1795 2759 2813 2460 2434 1825 1883 3092 3761 3638 2836 3048 1721 2045 1621 1605 2263 1732 1506 3707 3934 1976 1745 2520 3277 3659 2222 2279 1853 3590 3152 2486 3449 2244 2015 2099 2203 3585 2980 1544 2423 3126 1915 3889 2762 1621 3718 3731 2164 2860 3271 2074 2997 1861 3590 2716 2530 3333 1736 2485 2912 2176 3715 3668 2667 2678 2613 2925 3847 2225 3969 3909 3343 3157 2431 2776 2714 2326 2103 3192 3228 3709 1749 3961 2671 3394 2968 3236 3149 3190 2987 1643 2367 3923 3397 3468 3235 2174 2682 2224 3193 2907 2404 1902 3057 3543 3654 2433 1835 1609 3871 2600 3120 1563 1914 1775 1898 1764 2343 3714 2768 3370 2890 1986 3891 3267 3126 3907 3512 2699 1593 3273 2196 3328 2889 3253 1517 1631 3698 3908 2254 2460 3033 2662 3761 1519 3093 2163 3010 3629 2464 3674 1786 2662 1557 3764 1656 2840 3147 3884 2352 2118 3147 2253 3330
26 13 23 75 7 74 55 66 61 74 6 93 76 18 8 19 32 36 35 4 29 34 53 5 28 6 28 99 92 48 81 81 80 90 78 35 55 76 26 8 24 2 29 80 6 26 81 2 11 0 26 17 23 76 72 83 55 19 57 51 28 23 83 5 67 75 28 18 20 51 3 76 41 13 82 97 8 1 30 59 88 32 89 44 32 19 80 39 75 31 97 70 44 50 39 12 18 15 82 45 2215 2289 3502 3005 2692 2659 3006 3033 3828 2435 2867 2780 3100 2680 2926 2179 2779 3895 2889 3471 2721 3319 2688 3448 3282 1536 1734 1844 1684 1813 2969 2173 3151 1832 2889 3620 2839 3009 2633 2106 2295 3342 3623 2828 3950 3967 3872 2094 2572 2535 1850 1867 2448 2661 2483 2333 3965 2218 1934 2103 3123 2477 3590 1966 2085 2952 3514 2352 3711 3476 3196 2903 1926 2915 2992 3809 2674 3303 2015 1729 2960 2021 2082 3500 1509 2654 3226 3006 1626 2913 2290 2230 3210 3187 2332 3313 2346 3141 3733 3607 1902 1659 3461 2402 1791 3654 2190 3898 2233 2121 1918 2152 3962 3594 2703 2633 2886 3197 1930 1861 2426 3824 2322 3602 1653 1996 3389 3712 2499 3512 2604 3045 3933 2755 1877 3569 3587 2348 2199 3576 2056 1695 1747 1608 3611 3061 1615 2652 1552 3369 3518 1623 3813 3912 2688 3929 2386 2004 3251 3520 1913 3632 1617 2186 3423 1838 3840 3762 3137 2633 3756 2727 3874 2141 2303 3994 2962 3692 2570 2176 3322 3275 1622 2722 3584 2858 3363 3606 3157 2580 3521 2191 3089 1577 3669 2512 1618 3217 2753 1553 1777 3180 3047 2767 3699 2116 1754 3445 1516 1646 2503 2248 1715 3391 3118 3270 2652 2827 2642 2745 3233 2186 2413 3399 3622 3073 2885 2607 2243 1545 2145 2828 1603 1501 1758 2408 1536 2533 3581 3122 3966 3562 2166 1643 2668 3846 1586 2829 3571 2825 3644 3286 1650 2642 3622 3135 2136 1667 3775 2752 3308 2285 3620 3177 3967 1964 2855 3967 3056 3335 1817 3392 1882 2849 3014 3072 3887 3113 3209 3451 2113 3584 2164 3946 2151 1708 1919 2639 2668 1553 1694 1596 1636 2302 2798 2026 3069 2476 1651 1546
61 7 27 25 87 8 54 73 53 23 84 24 37 42 26 1 24 34 46 57 48 47 12 16 10 59 78 55 70 51 12 59 70 76 97 83 60 87 55 94 14 66 85 41 5 89 83 17 43 26 0 17 83 65 14 99 8 42 29 37 98 84 49 33 37 83 23 28 38 62 1 49 16 84 29 76 74 56 63 49 20 7 24 46 27 12 32 11 72 26 22 61 92 1 63 68 73 53 6 64 2546 2236 2939 2484 1979 2926 3768 3312 1650 2950 3501 2767 2602 2062 3362 3181 2674 1613 2056 2846 2822 2821 1890 2779 2003 3943 1830 3551 3166 1908 3801 1921 2670 3731 2036 3980 3739 1979 3787 3952 1689 3854 2776 3093 2850 3356 2293 1579 3733 1903 2495 2785 2970 1634 1689 2237 2839 1525 1868 3650 3247 2852 3151 3184 2828 2954 1634 2897 2258 1951 3392 1500 3073 2732 2613 2418 3390 2806 3650 3755 1917 3618 1971 2519 3513 3621 2817 2952 2714 2597 3892 1878 3522 2725 3015 1510 3038 2682 2235 3481 2217 2353 3142 3915 3620 1548 2558 3788 2075 2335 3812 3798 3282 2836 3036 3554 2771 3705 2076 2002 2859 1862 3290 3324 3976 2507 2621 1552 2044 1933 2870 2863 3255 2287 2105 3194 3543 1665 3848 1977 2145 2651 1911 2816 1674 3624 3283 2600 3252 1817 2427 1696 3705 2096 3587 3144 1896 1916 2252 3865 3999 2096 1610 3683 1963 3789 3737 2462 2876 3957 3478 3300 2343 3568 1525 1545 3170 3092 3589 1674 3965 2641 3094 3288 3825 1525 2806 2731 1685 2829 3820 1517 1691 1807 2384 3792 3582 3551 3943 2653 3857 3519 1522 2501 1610 1535 1745 1733 3675 2013 2913 2261 2192 2569 2648 1987 2275 2871 2423 3053 3477 2717 2667 3377 2988 3404 2199 2868 2411 3045 2679 2903 1832 3562 2854 2828 1536 3583 3911 3177 3577 1936 2293 1969 3253 2450 2937 1758 3426 2467 3919 2271 3763 3429 1674 2908 2742 2418 1572 1626 1850 1623 2478 2487 3068 1926 2698 3900 3344 3184 3926 2917 3330 3903 2700 2090 3017 2587 3036 2895 2090 2298 1877 2186 3472 2332 1613 2758 3349 2703 3585 2667 3715 1843 2400 3211 3276 3150 2024 3358
76 21 77 67 17 14 87 76 47 54 78 77 15 67 91 92 85 51 43 36 64 54 79 57 62 58 71 49 77 54 31 88 69 73 56 30 24 45 92 34 35 81 46 9 95 8 9 79 23 17 17 0 85 58 33 94 6 85 11 32 26 38 13 39 51 25 16 65 50 66 11 50 57 91 73 27 32 32 40 9 52 72 73 6 19 22 76 30 49 40 62 69 30 78 81 61 21 19 7 85 2459 2814 2088 3453 3609 2586 3151 2161 2216 3205 2687 2241 2837 2836 2375 3397 2074 2906 1621 1904 2638 2384 1513 2158 2297 3777 3395 3916 3575 2449 1515 3593 3260 3990 2149 2000 3758 1702 3139 3018 3682 3543 3446 2744 3839 3722 3983 2158 3076 3018 2145 3272 2741 2437 3753 3552 2091 3019 3164 3065 3461 2165 3340 3123 3846 2002 3604 2286 3591 3720 1886 2069 3575 3873 2583 3496 1807 2533 2474 2057 1564 1698 2529 3347 1861 3833 3728 2946 2787 2150 3720 2158 2556 3031 2395 2436 2254 3657 1594 3267 3667 2246 1562 1649 1941 2420 1531 3212 3592 3519 3609 2985 3802 3436 2327 3619 3260 1939 1825 2921 3435 3844 2144 3164 2574 2781 2066 2319 2920 2091 2197 3256 3834 2643 2646 3648 3091 2177 1886 1794 3299 3561 2659 1558 2727 3362 1532 3187 1984 2514 3866 3527 3637 3284 2355 1950 2044 1971 3562 3351 3350 3360 3963 2901 3519 3122 1700 2243 3785 2195 3418 3584 1714 2624 3464 2497 3550 2720 3717 3829 2437 2838 3604 3586 2579 1686 3422 2261 3439 1674 3781 2994 3944 2520 3890 2268 1558 2645 3512 1987 2043 3705 1774 3033 2054 3280 2328 3472 3609 3438 3836 2883 2728 3677 2485 3785 3535 2620 1792 3189 2506 1862 3426 2035 3504 1828 1804 2726 3001 2663 3607 2959 1824 2409 3468 2513 1548 2395 3086 2073 2809 2218 2798 1537 3043 2027 1624 2977 3585 3192 3962 1520 2168 3800 1578 1919 3810 3153 2730 2230 2410 3594 2198 2232 2655 1697 2626 2813 2153 2270 2132 1657 1573 3487 2482 3384 1756 2393 3999 1960 1810 2592 3973 3423 1720 1767 1804 2382 3454 3552 3635 3199 2024 1709 2536 3695 3165 3504 3648 1744
38 87 19 56 44 91 65 76 47 18 34 58 99 55 50 8 47 59 23 80 83 74 79 92 89 81 62 15 20 78 91 37 88 72 39 62 74 76 33 45 45 99 60 6 97 82 34 67 48 23 83 85 0 21 29 48 41 98 81 98 54 39 43 59 54 76 29 82 4 29 16 18 91 47 57 96 45 67 56 69 54 80 68 36 63 61 24 28 4 36 30 8 45 93 91 58 36 62 14 43 3818 1823 1849 1650 3868 3984 2233 1948 2521 3294 1563 3552 1520 3808 2198 3867 2033 3748 3273 1725 3198 2255 3374 2397 2817 1732 3355 2108 3940 1502 1877 3791 3290 1604 2543 2459 1905 3075 3439 1605 3917 2570 1973 2580 3755 1550 3518 3577 3828 3660 2822 3872 3249 2767 3648 3249 3089 3408 2989 1798 1835 2218 2892 3326 3560 3081 1674 2271 1534 2409 3331 3928 2206 2636 3900 2354 2668 3639 2846 2973 2895 1672 3151 2486 2691 1999 2950 2416 2969 2683 2870 3335 2179 2127 3517 1970 1540 3707 3229 2124 1841 1866 3537 1698 3761 2552 2365 2032 3138 2347 3401 1670 1763 2514 3326 2160 2550 1968 2340 3426 3286 2939 1935 2978 1901 2878 1845 2797 3156 2460 2653 1846 3814 1827 1689 2579 2605 3351 1830 1762 3565 3179 2327 1733 1930 3958 2962 3149 1562 1981 3757 3864 3416 3130 2805 3131 2431 1931 1989 3123 3899 3907 3005 1776 3892 1703 1558 1695 2673 2859 1864 1558 2627 2180 2063 2805 2650 3195 3856 2829 2277 2474 2289 1921 2294 1724 2674 3291 3450 2314 2888 2867 2432 3526 2487 2019 1525 2134 2464 2963 3315 3044 2842 3231 2701 3777 2236 2524 3611 2974 3924 3890 2800 3049 3233 2771 3786 2578 1550 3445 1799 3079 3314 2107 2238 2445 2284 2699 3141 2387 3578 1912 2102 2906 3153 3885 3521 1703 2751 2597 2932 1937 2935 1698 2486 3663 3074 3281 1931 3625 3509 3497 3147 3508 1579 2910 2921 2072 3372 2330 2352 3949 3107 1594 2593 3941 1929 2210 2896 3580 1702 1776 3411 3618 1970 2952 3026 2517 2390 1731 2959 2925 2382 3312 2128 2232 1644 2858 2158 2464 1869 2193 2716 2047 1534 3249 2686 2028 3243 3043
46 67 17 43 24 96 66 15 4 71 23 65 12 23 43 34 34 53 23 58 27 18 12 30 98 8 52 98 8 27 2 34 89 62 66 71 98 62 78 57 83 46 99 54 73 44 57 6 14 76 65 58 21 0 94 39 6 79 11 36 54 97 9 46 47 64 97 95 47 50 44 76 26 68 99 16 12 10 76 42 97 47 26 45 71 50 68 12 7 35 12 46 3 43 25 99 67 17 94 38 1579 3123 2538 2552 3458 3919 2445 2082 2847 3751 2073 3773 3599 3900 1957 2365 2696 2931 2001 2367 3055 2781 3627 2306 2133 2900 2084 2190 3554 1825 2483 3027 3873 2743 1784 3144 2777 2855 3781 3612 3541 2833 3890 2230 3991 3753 3651 2868 3184 1938 2177 2910 1846 3529 3325 1738 3727 2241 1650 2320 3807 2664 3735 3169 3704 3657 2955 2119 2539 2216 2183 2512 3305 2132 3888 2028 3017 3256 1772 2263 2494 3330 2063 2245 2140 2695 3602 2637 1820 2184 1884 3833 2553 1982 3064 1955 2284 3950 2897 3734 1658 2630 1698 2543 2700 1906 3999 1797 3827 3119 2298 2248 2283 2651 3135 2313 3663 2624 3516 3786 1652 2887 1905 3518 3219 3311 2787 2302 2705 3522 2250 2712 2850 2069 2630 3289 3826 3668 3781 2075 3333 3290 1521 1822 2604 1741 3999 3056 2808 2331 3431 1583 2162 2411 3101 1604 2143 3463 1918 3525 2523 3399 3450 2288 3463 3235 3506 2743 2860 1605 2856 3488 3464 1690 2588 3831 2650 3939 3336 2456 1963 3437 3839 3612 1554 2047 2920 2705 3906 2572 3415 2571 3582 3535 2923 2288 3018 2800 3072 2469 2164 2264 3060 3637 3935 1995 3495 2199 2430 3585 3325 1745 2197 3146 3969 3257 2066 3210 3671 3825 3710 1905 1966 3395 3060 2658 2049 2949 3700 3701 2514 1637 1598 2056 2675 2681 2195 3792 3654 1872 3399 1548 2606 3762 3712 2659 3390 2132 1771 2685 3691 1515 3918 3909 1716 2695 3114 2296 3366 1772 3101 2473 3220 3425 1644 2838 3742 2087 2711 3765 2228 3604 1875 2016 2658 1510 2480 1707 3399 2766 2459 2357 2679 3716 2926 2208 2351 3164 2299 2359 2305 2137 3225 1875 2637 1588 2931 2273 3956 3269
99 63 22 46 88 15 52 34 74 57 45 90 83 76 70 14 34 81 7 68 14 79 67 23 59 64 18 78 42 6 99 73 59 76 23 69 36 44 39 89 4 75 54 89 58 33 81 18 66 72 14 33 29 94 0 23 79 7 55 24 40 70 24 75 33 19 12 38 21 43 72 41 69 70 51 97 25 22 53 48 91 48 53 18 27 52 57 23 17 58 22 31 61 32 3 48 66 94 66 88 3193 3176 1677 3978 1925 2364 1552 1597 2437 2390 2580 2629 1508 2715 1895 3576 1687 2282 2441 2796 2683 3642 2585 1956 3640 3772 1758 1842 2453 3230 3292 3876 2933 3017 3898 3212 2698 3418 3245 2103 2101 1748 2224 2591 3336 2949 3804 2174 2445 1609 3509 3594 1542 3377 1680 3865 2286 1884 1508 1583 1987 3347 2821 3665 3939 2055 3964 2443 3352 3618 2919 1528 3448 2167 2620 1824 2144 3869 2531 1610 1566 2831 1896 3254 2439 2687 3306 2156 2262 2327 2367 2058 3810 3636 3350 1507 2394 1814 1942 3666 2552 3952 2345 2606 2954 3433 3136 3712 3550 3554 3755 2551 3746 3698 1993 2646 2093 3232 3617 3962 2376 2372 2343 2444 3183 3343 2530 3390 3052 1713 3758 2033 2132 2515 1755 2532 1905 1821 3718 1871 2682 2229 1546 3407 3618 2754 2225 2099 1843 1994 1677 1661 3566 2639 2929 3965 1997 2182 2468 3074 1549 2658 2362 2871 1891 2061 1931 3431 2761 3356 3589 3403 2756 2931 2980 1715 2885 3549 3654 1535 3812 2104 2163 2521 3657 2265 1555 2747 1995 2425 3234 2329 2394 2158 3691 1680 3669 2585 3707 1578 3992 1712 3181 1947 3852 2300 2127 3942 2742 3488 3477 1552 3543 3334 2473 1920 3319 1904 3247 3421 2432 1999 3674 2567 2271 2943 3115 3347 2473 3285 2520 2450 2806 2785 2646 2258 3744 3185 2570 2554 1551 3501 2617 3999 1718 2421 1760 2500 2695 3520 2639 2263 3125 2287 1978 2849 3163 2425 2624 1777 3317 2237 2208 3994 2191 2605 2715 3620 2404 1819 2350 2605 3970 1782 3472 3312 3171 2323 2027 3750 3359 2389 3297 3990 3865 2773 2482 3941 2217 2563 2608 2275 2763 3473 3684 2429 1783 2337 1522 3715
80 98 58 14 36 81 61 87 97 79 34 18 34 51 49 53 63 5 87 54 49 72 8 81 15 15 65 6 46 13 32 40 51 22 43 19 54 70 38 57 34 21 2 27 8 3 64 50 40 83 99 94 48 39 23 0 65 63 96 47 10 76 53 31 97 17 63 84 50 25 72 20 5 33 17 13 61 87 19 47 71 16 7 49 7 42 67 46 5 1 91 33 44 83 34 55 31 76 82 50 3137 1929 1710 1740 2513 2067 1995 3365 3028 2650 1916 2134 3076 2022 3639 3626 2212 3206 2040 1512 1804 3925 2765 3443 3646 3522 2863 1733 3418 3127 2011 2438 1579 2577 1660 2529 3770 2558 2686 1619 3017 1778 3531 3655 1643 1621 3489 3209 2979 3787 1901 3002 1582 2391 3066 1840 1578 3544 1567 2563 3126 2826 2831 2769 1886 3704 3348 3316 2222 2996 1983 3906 3402 3446 3444 2325 2387 2575 3159 2852 1696 3361 3538 2731 3239 3493 2635 1978 2032 3516 3344 3436 3227 2456 2950 1838 3467 3274 1998 3411 3517 2088 2770 3165 3851 2972 2297 3148 2372 3029 3293 2253 2270 3512 2677 2831 2958 2909 2618 3912 3998 2284 2616 1985 2048 2057 1612 2590 2079 1754 2274 2418 2567 2404 2787 1830 2690 2393 2067 2625 2272 1714 2741 3227 3443 3401 2018 2770 3484 3397 3856 2521 2072 2263 2429 2023 1909 2238 1907 2184 3760 3739 1933 3077 2495 3740 2361 1627 2913 3521 3147 1589 3717 2181 3384 2654 1852 3727 2564 1745 2201 3214 2968 2891 3750 2573 1894 2089 1823 2347 2234 2478 3332 3911 3317 1627 3953 3878 2514 2154 3909 1590 3942 2874 1595 3305 1621 3161 3153 3824 1846 2994 2880 3395 2281 3336 3984 3570 2007 2887 3474 1512 2526 3315 1970 2412 3472 3019 2048 3836 2256 1860 1507 3891 3309 3672 3698 1596 2301 2209 1900 3224 2608 2281 3477 2847 2243 2554 3641 3835 3118 2768 2279 3763 3870 3291 2332 3197 2009 2857 3038 3877 3673 3383 2951 1559 2054 3626 1829 1735 1578 3068 2402 2716 2506 2495 3684 1943 3225 3594 2176 2997 1641 3229 1860 2731 2630 1811 3954 2220 3690 3348 1599 3540 3043 3495 1871 2267 1515 3940
98 50 50 31 57 10 58 5 45 7 29 99 72 34 59 21 97 98 17 32 78 64 9 90 74 28 28 60 45 98 54 75 44 60 88 68 80 33 51 50 57 98 44 83 30 5 92 42 37 55 8 6 41 6 79 65 0 79 75 78 73 16 84 87 60 79 53 14 97 80 9 37 14 37 96 66 45 25 41 45 86 26 84 84 63 40 34 46 87 96 11 56 65 33 76 9 55 65 58 64 3940 2249 2988 1953 2615 3666 3617 1515 1988 3298 1945 2768 3534 2052 3497 1642 1884 1604 2435 1637 2770 2268 2931 2446 1719 2886 1981 1812 3140 1579 1801 3501 2246 2067 2008 3254 1604 1939 2749 2884 3433 2370 2790 2340 1686 2172 3764 3803 3649 2948 1856 3966 2060 2762 2635 2866 2898 1770 1988 2535 1661 3977 3591 3301 3300 2336 3627 1836 2205 2865 1515 2531 2735 3560 2558 2085 2615 1699 3487 2299 3265 3944 3208 2292 2567 3148 2566 3750 2378 1875 3471 1778 2798 3502 3831 2519 2149 2526 2310 3141 3438 3692 1551 3107 2380 2653 3976 1644 2492 2332 1620 2841 2619 1938 2040 1718 2020 3829 3405 3785 2105 2389 1953 2411 2620 2139 3673 3078 3716 2105 3532 3014 1928 3168 3295 3684 2698 2070 3627 3951 3915 1938 3346 2474 2093 1935 1602 2140 2905 1523 2664 2015 3910 2319 3214 2657 2174 2826 1644 3726 1587 3605 3971 1911 3005 3366 1956 1754 2772 2315 1900 3618 3223 3277 1915 2435 2929 1854 3047 2271 3872 3386 2597 3446 3849 3570 1502 3363 3640 3010 3259 3766 2365 1816 3442 2532 3955 1845 2648 2867 2198 2857 3371 1821 1588 3495 3591 3329 3220 2130 3483 2514 2609 2450 2375 2812 2390 3485 3411 2971 3903 3902 2867 2696 1945 1591 3043 3280 1836 1544 2999 1964 1666 2485 2953 3194 3570 3908 2623 2353 3002 3428 2757 2834 2885 2515 3516 3543 2501 1784 2155 2659 2104 2237 3083 2799 3562 1843 2852 1589 3169 3974 2165 2352 3221 2711 1941 3447 1815 2924 1514 3529 1587 3012 2633 3551 3304 2723 2444 2083 2661 2632 2993 2449 1553 2624 2055 3078 1532 1643 3394 1696 1549 3980 3605 2112 3121 3391 3147 2375
38 4 54 66 5 46 4 51 35 44 4 44 14 12 29 63 70 64 40 4 97 7 85 66 68 64 74 88 56 7 81 81 53 60 54 21 26 4 21 60 27 33 2 33 69 48 4 94 29 19 42 85 98 79 7 63 79 0 80 58 53 89 99 43 86 86 22 19 1 27 54 47 94 62 88 30 32 93 17 24 20 39 44 55 88 17 47 6 92 14 52 82 4 71 59 54 87 70 81 3 3720 1509 3726 3736 2587 2879 1684 2119 2082 3690 3892 1567 2348 2379 3379 3383 3816 1668 1900 1780 1718 2225 2779 3925 3240 2163 1705 3387 2939 2542 3604 3288 2889 2306 2679 2835 1912 2913 1732 2890 3370 3044 2284 2429 3135 1664 2336 3102 2711 3537 1901 2956 2041 2139 1907 3932 2558 3430 2438 3599 1669 1983 3259 2716 1632 3563 2430 3151 2047 2537 3529 2309 1660 3878 2431 1656 2758 3255 2862 2236 2235 2939 1855 2408 3362 2555 2614 1569 3438 3094 2302 2968 2711 1917 1965 2389 2868 1603 2656 2243 2294 2838 3342 2797 3616 2846 3153 1878 2485 2921 2873 3361 3843 1866 2268 2864 2524 2538 3142 2080 2947 2018 3916 1923 2009 3265 1824 2875 2038 1854 3012 3479 1666 2510 3089 1560 2500 3137 2698 2869 2965 1900 3639 2953 2280 3126 3163 3708 3433 2780 1543 1554 2428 2972 3772 1937 1868 3439 2610 3874 2516 2250 2433 2577 2488 1903 2637 2883 3360 2061 2581 3817 3816 3531 3449 3232 3555 3294 2102 3566 2738 1784 2416 3942 1810 3306 3126 1716 3559 3669 3026 2697 3936 3879 2023 3848 3053 1664 3138 3379 3806 3668 1988 3514 3250 3373 3453 2310 3985 2989 1558 2125 2172 1903 3811 1777 2731 2687 3025 3999 3714 3195 1797 3832 3952 2505 2741 2499 2506 2493 3378 1892 2866 3101 2613 3034 1582 2344 2708 3515 3205 3184 2616 3005 1868 1641 2766 2899 1790 2923 3647 1822 1735 3782 1983 3590 1692 1934 3373 2148 3569 3745 2330 2422 3297 3845 3955 2935 3820 3278 3914 1876 2066 3294 2899 1692 3036 3296 2127 1591 1702 3433 2593 3370 3774 1681 1668 2727 2826 3310 3379 3293 3364 2871 3736 3191 2139 2980 2414 3703
68 17 3 38 43 97 65 82 63 56 78 8 7 93 87 53 63 86 53 98 99 8 53 18 15 92 15 39 64 15 64 16 8 3 90 62 13 77 29 53 51 2 36 81 88 11 53 17 50 57 29 11 81 11 55 96 75 80 0 22 98 91 77 54 14 68 92 36 57 96 68 7 96 5 23 53 58 73 30 31 79 42 81 87 16 43 43 37 30 76 4 87 71 35 9 81 96 51 82 69 1737 3778 3931 2539 2061 1655 2373 3509 3576 1685 2736 2656 1745 3740 1703 2026 2253 2417 1782 3095 2258 3069 2519 3954 1768 2606 3416 1902 3970 3123 2875 2377 3484 3545 2822 1773 1852 3972 3160 2140 3742 1655 2451 3586 2132 3372 3719 1992 1707 1522 3296 3998 2803 2165 1642 3920 3461 2745 3908 3562 1648 3704 1781 1866 3647 3062 2540 2752 3674 1907 2347 3611 3763 3174 2351 2684 3844 2346 3612 3856 1661 3025 2480 2157 1693 2319 3181 2836 1570 1897 2995 2700 2248 1680 2867 1618 1651 2084 2228 2447 3760 1706 2153 1807 2461 1740 3136 3061 3572 3373 2848 3898 3117 2191 1684 3980 3988 1879 2786 3189 3079 2039 1525 3343 3949 2572 3537 2416 2163 3841 2903 2274 1908 3548 2963 3990 2987 1550 3388 3844 2356 1791 2438 3526 2445 1840 3119 2641 3418 3131 2876 3807 3352 2732 1870 2300 2731 3226 1667 2819 1637 2611 1544 3718 1790 2443 1800 1670 2555 3798 3120 2742 1664 1734 3614 1648 3451 2694 2239 1827 3149 2169 3911 3189 2649 2270 3985 2973 1638 3243 3156 2454 2809 2499 1745 1639 3173 2258 2902 3754 3818 3964 3713 3120 3521 3516 1649 2410 2886 1906 2717 2546 3374 1617 2633 2690 3148 2670 3090 1764 3506 2552 2898 1755 1514 3161 2704 2132 3273 3918 3603 1811 2123 2977 3954 1770 2470 2478 1524 3227 2150 2831 2809 2545 1847 3704 3908 2439 1592 3766 3278 2808 3788 2035 1894 2568 3594 2195 3068 2792 2292 1650 3417 2735 3191 2774 2367 3382 3462 1695 3440 3224 3869 2008 3263 2455 2452 2763 2523 3003 1750 2902 3430 3973 3832 1810 2780 2098 3463 3790 3964 2726 2703 2917 2958 1845 2459 3957 1972 3215
95 26 67 75 17 47 50 95 46 8 96 58 18 74 93 55 82 32 33 4 57 18 9 41 76 57 40 42 9 70 25 47 2 80 42 87 99 98 16 70 9 9 99 37 62 84 99 72 83 51 37 32 98 36 24 47 78 58 22 0 43 68 86 68 12 13 18 69 13 18 38 61 68 34 50 14 88 5 69 79 74 2 86 30 47 26 88 27 72 22 34 58 2 46 51 6 4 57 33 28 2928 2216 2626 2035 2114 3109 2279 3929 3202 2537 2049 3140 3014 2040 2535 1973 2381 3497 2420 3634 2501 3086 3365 2082 3935 1888 3068 2824 3760 3171 1665 2626 3670 2062 2678 3795 2617 2428 3909 3316 2452 1512 1724 2470 2482 3587 2078 3495 2886 3211 1882 3843 3264 3915 1609 1693 2135 2909 1953 3423 1847 1554 3566 2192 2414 2308 1875 3553 2818 2147 2825 1500 3698 3864 1600 2315 3856 1736 3052 3453 1575 2888 2838 3950 3662 2374 3235 2528 2453 2563 3055 3227 2017 3779 2713 2230 1958 1641 1801 2659 3831 3897 2309 3334 3924 2649 1674 2677 3516 2735 2205 2398 2906 1708 1774 3105 3952 2689 3826 3234 3574 2213 3530 3520 2440 3847 3642 2445 2998 2655 3431 1554 3995 2616 3633 1952 3293 3223 2942 1827 3237 1586 3805 3428 1935 2795 1869 3631 3384 2063 2368 1720 3741 3488 3746 2411 1641 3676 2799 2386 1556 3091 2228 1514 2457 2518 1832 2367 3180 3957 2883 3140 3969 2562 1763 3353 3573 3208 3320 3566 3419 2295 3804 2937 2965 2336 3890 2497 2737 2865 3749 2232 2287 1541 1982 3871 3912 2632 3926 2630 2691 1613 3714 2149 3096 2786 3729 2608 2958 2873 2204 2134 2342 2915 3796 2310 1856 2915 2207 1623 3178 2017 3276 2560 2884 3138 2980 2342 2053 3163 2112 2369 3382 3744 1733 3814 2072 1957 2012 3987 2657 3265 2738 3167 2971 2393 2575 2502 3303 3131 1560 1613 2366 3283 1543 1524 2137 2917 2025 3884 3329 2092 3485 3449 1582 3353 1634 2675 2363 3556 1729 1580 2228 2547 1652 3989 1790 2795 2189 2549 2001 1602 2030 2386 2906 2816 3522 2506 1759 2963 3708 2240 3439 2101 2135 1887 1779 3193 3069 2771
65 67 32 94 25 67 87 13 1 2 39 46 90 45 17 72 33 97 17 3 27 25 71 30 6 91 36 21 88 66 21 62 10 8 43 49 33 74 70 3 91 40 82 64 66 86 69 4 29 28 98 26 54 54 40 10 73 53 98 43 0 43 89 59 36 98 77 87 67 18 87 33 63 69 54 73 48 64 40 22 25 37 66 86 94 60 81 59 21 4 39 19 99 66 19 1 44 51 75 43 3894 3565 1539 3998 2381 2495 3008 2981 1836 2630 3556 3875 1766 2993 2850 1965 2499 2853 3055 3300 2525 3516 2631 1823 3673 3655 1998 1621 2561 3998 3542 1813 2663 3496 3356 2314 2662 2037 3998 1997 2216 3942 2992 2901 3163 3737 2449 2034 2274 1741 3567 1573 3890 3584 3068 2117 3870 2290 1529 3822 3970 2432 1865 3889 3097 3352 3642 2579 1650 3374 3947 3920 2978 3747 2251 3100 3951 2220 1781 1622 1549 3705 3266 1600 2199 2611 1918 3034 1712 1872 3857 2328 2215 2906 2867 3595 3459 3405 3727 1838 1746 3332 1723 3446 3192 3912 3867 2015 3196 1820 3152 1717 3679 3450 3440 2001 1536 3843 2769 3625 1656 2387 2899 1827 2963 3214 2418 3257 1798 2839 1706 2940 2250 1848 3807 3357 3707 2578 1674 2471 1843 2198 2451 1572 1587 3035 2794 2709 2579 2142 2820 2325 2851 2985 2738 3850 2407 1502 3597 3699 2907 1520 2842 1520 3205 3165 3335 2567 3013 3617 3235 3573 3339 3173 2540 1923 3369 2797 3673 3748 1600 3112 2884 2394 1613 3499 2327 1610 1505 1675 1773 3346 2839 3650 3125 2871 2941 3307 2056 3780 2224 3125 2262 2174 3420 3639 3727 2613 2210 2675 2428 2720 1638 2165 3015 1583 3471 2498 3841 2820 2398 1778 3461 2726 2908 1757 1611 3650 2413 3252 2798 2823 3913 1557 3065 2606 3603 3594 3306 2578 3597 2858 1705 3791 2835 2364 1999 3572 3248 2718 3845 3393 2108 2016 1615 2821 3093 2746 3139 2746 1900 1820 2488 3093 2686 3494 1575 3997 3924 3618 1780 1850 1576 3405 1967 3708 2704 3864 2982 3206 3546 3152 1989 2675 3626 2205 3287 2992 2607 2285 3290 1926 3322 3943 3942 2739 3741 3420 3315 2696
84 36 76 17 14 91 33 89 64 90 56 40 21 51 20 58 77 92 7 44 82 90 16 60 71 35 62 86 98 42 22 40 84 23 87 48 50 15 42 96 52 26 34 20 46 90 61 64 4 23 84 38 39 97 70 76 16 89 91 68 43 0 38 19 38 55 71 56 78 2 22 85 92 7 14 65 42 90 65 81 30 98 50 30 42 83 51 95 47 55 79 15 61 50 88 42 89 76 80 31 2075 1761 3471 3781 2858 3852 3819 1778 2154 1914 3247 3754 2215 3354 3404 3446 1986 2541 2560 2170 2694 3955 1834 2806 3986 2766 2821 3438 1739 3002 1639 3765 3362 1976 2355 2727 1560 3332 3140 2008 3191 1944 2870 1685 2506 3170 3199 1606 2018 2050 3497 2726 1728 3216 2217 2243 2708 2925 1801 3550 3265 1932 3567 3224 3726 3502 1733 1632 3130 3217 2560 1794 2038 1528 3792 3721 3462 2526 2559 3982 2970 3852 2908 3038 3213 3176 3619 3310 3193 2985 3401 1882 1909 2433 2596 2446 3808 2859 3332 2948 2659 2243 3090 2587 2203 3489 1540 2367 1575 1719 1978 2744 2404 1846 3820 2089 3728 2161 1712 2510 1695 3437 2162 3093 3171 3972 2078 3660 3485 1988 2120 2723 2050 3164 1779 2296 3264 2434 1634 2776 1623 1865 1664 2864 2136 2385 3284 1538 3442 1974 1840 2118 3611 2851 3577 2100 2457 3832 2092 3993 2716 3927 2129 2273 2306 2503 1971 2185 3499 1959 3096 2306 1850 3486 2966 2660 2485 2263 3870 1950 3859 3730 2951 3038 3579 2007 2177 2208 1800 3601 3638 3047 2500 2681 2849 3387 3361 2843 3887 3443 2413 2258 2056 3646 1548 1954 2828 1752 1678 3299 2765 3664 3053 3750 2131 1963 2271 1693 3530 3839 2679 2369 2981 3806 1865 2512 3403 1563 3327 2410 1827 3147 3958 1674 1654 2058 3385 1677 2009 3610 3900 2129 2783 2581 2924 1748 3274 3234 3963 2113 1846 3382 3626 3208 3817 3743 1678 2236 2807 3149 2988 2773 3192 3091 2012 2202 2243 1968 3043 1633 2125 3644 3928 3296 3937 3360 3253 1586 2342 1863 3813 2308 3256 2616 3488 3341 2535 1557 3376 1924 1518 1663 2014 3844 2312 3489 3776 2207 2211 1523
69 32 83 19 82 72 55 12 76 43 45 21 83 9 63 79 25 98 59 13 19 18 19 2 46 42 82 74 88 14 50 12 30 85 6 53 7 84 95 97 8 29 80 29 6 67 76 68 9 83 49 13 43 9 24 53 84 99 77 86 89 38 0 58 44 70 12 92 88 27 47 3 19 21 27 41 55 17 6 61 57 41 54 5 25 96 65 90 71 13 53 50 44 74 10 97 8 30 35 32 2369 2557 1957 3818 2614 2689 3853 3289 3828 3269 3273 3551 1998 2846 1923 1500 1983 1583 1948 2887 3511 3923 2222 3839 2358 3746 3571 2923 3027 1860 3116 2035 3947 3162 2744 2304 1854 2827 3808 1764 3230 1779 2758 2988 1853 1580 2348 2652 3657 2811 1555 3107 1903 3684 3577 2147 2040 2734 2076 1848 2626 1805 3881 1808 2075 3443 3126 2700 2482 3522 1562 3153 2487 3809 2023 2862 1809 1602 2458 1793 3851 2311 3691 2291 2111 2537 3920 2276 3532 3910 1601 2953 3995 2606 2600 2486 2817 2705 2984 3698 1581 2142 3285 2000 2907 3510 3309 2639 2465 2176 2398 3531 3269 2617 3561 3117 2906 3445 2227 1925 3561 3230 1654 3153 3147 3913 3627 3564 1974 3797 2120 3642 3973 2154 1911 3852 3328 2653 2415 3991 3966 2369 2298 2971 3072 2785 3600 3278 3906 3461 3921 3837 2057 2189 3321 3966 2215 3776 2230 2806 1800 2807 1777 2581 3321 1549 2285 3833 3338 2418 2918 2119 2071 1543 2103 3445 3712 2376 2216 3892 3742 1734 2211 3384 1694 2524 3849 3020 3119 2076 2670 2203 2531 3849 3410 3008 2513 3188 2125 3388 3369 2512 2845 3512 2240 2249 2380 3711 3779 3596 1629 3768 3073 3804 1593 1624 2270 2060 3115 3872 1944 3865 2665 3528 1722 2719 3876 2410 1659 3556 1841 1608 1929 1755 1615 3031 2180 3850 2143 3164 3201 2905 2351 3986 3666 3518 2512 1619 1841 2502 2806 3585 1993 3953 1581 2543 2583 2546 2261 1910 2662 1528 3277 2467 3476 3749 1879 2237 1836 1608 1774 1647 1995 3437 3017 1954 1622 3042 2855 2464 3115 3121 2453 1891 3099 1835 1917 2875 2524 3505 2598 2077 1592 1886 2846 2326 3546 1548 3669 1571
70 12 11 69 89 3 35 94 28 96 9 89 30 6 78 11 46 22 23 87 25 20 52 81 59 92 63 92 53 14 35 9 15 85 31 78 25 89 5 15 10 26 45 42 95 31 75 74 28 5 33 39 59 46 75 31 87 43 54 68 59 19 58 0 39 79 10 89 7 99 63 84 76 12 8 71 53 46 53 97 1 71 15 65 14 35 17 66 52 13 31 74 80 18 60 2 1 54 25 26 1563 3713 3634 3527 3827 3413 2594 3712 2891 3778 3099 3530 2109 1827 3488 3815 2694 1563 2259 1660 1938 3039 1554 1885 1754 2355 2367 3174 3758 1503 3465 2580 2297 2750 1929 1947 1818 2724 2494 2405 3670 3618 2626 2974 3031 1963 1754 2454 1847 2620 1976 3042 3585 3489 2175 2440 2290 3900 2781 2137 2020 2091 3577 1540 1501 2399 2534 2034 3841 2693 1524 1515 2288 3924 3206 3758 3290 3208 2157 2313 2506 2732 3795 2300 2573 2173 3383 2181 2377 1824 2750 3377 3933 3993 3376 2493 2520 3509 2986 3775 3230 3911 2236 3180 3867 3142 2758 2605 2090 1905 2629 3384 1940 1610 1782 2816 2390 1794 2147 2304 2679 1944 2739 2862 2416 3025 2659 3889 3399 1713 2653 2415 2784 1778 2931 3918 2235 2486 3841 1562 3988 2337 3067 2637 3754 2245 2331 1643 1872 3756 3733 3617 2463 2217 2041 1694 3591 2680 1863 2511 3530 2560 3254 2778 2926 2701 3898 2832 3084 3992 3157 2827 2238 2198 3459 3146 1522 2278 2304 1585 1648 1707 2755 3961 3613 3840 1821 1635 3712 3187 3692 2096 3859 2157 3394 3826 1855 1940 2173 3456 3867 2149 2280 2127 1839 2251 2333 2523 3181 3803 1635 3032 3145 1889 2476 3014 3442 2724 2066 3636 3492 3982 3780 3551 3990 1561 2327 3685 2697 2944 1581 3046 2766 3611 3199 2009 3946 2959 2801 2840 3012 3566 1820 2508 3975 3606 2214 1931 3759 3311 3334 1607 1594 1923 3554 3611 3645 3477 3514 2403 3738 3554 1614 3031 3612 2649 3850 3046 1588 1943 2004 2029 3614 3062 3036 3004 3918 3876 2079 2423 2862 1567 1970 2032 3718 2080 1812 2363 2642 1561 3143 2254 3486 3591 2972 1915 1697 3599 2064 3846
39 71 30 26 64 56 60 17 96 42 24 6 34 44 85 33 2 7 90 4 65 6 59 79 31 76 35 15 12 33 92 99 83 86 62 47 8 36 36 93 96 85 15 98 91 71 92 47 13 67 37 51 54 47 33 97 60 86 14 12 36 38 44 39 0 26 25 58 84 78 74 26 59 3 82 26 40 71 89 42 25 61 16 1 1 97 93 50 70 83 69 32 81 85 29 8 79 56 82 66 3038 1679 3874 2583 3101 3800 3725 3436 3054 2588 3883 2688 3100 3512 3961 1759 2678 1819 1880 2808 3588 2293 3356 3265 2407 3727 2914 3934 3048 3657 2965 2528 2276 2072 1618 2698 3733 3206 2451 3208 2764 1512 2808 1729 1679 3521 1799 1587 3015 2548 2693 2415 1854 1692 1526 2870 2246 3365 1714 1547 2309 2871 3571 1996 2136 3792 2142 3805 2918 2415 3385 2053 2825 1718 3478 3319 3365 3968 3319 3592 2213 2094 2802 3516 2367 2841 3258 2260 1647 2500 2254 2869 1573 2544 3445 2483 3341 3608 3833 3895 1706 2405 2374 2279 2743 3133 1686 1725 3407 2517 3712 2844 3843 1630 2382 2753 3657 3904 2326 2806 2331 2564 3788 3670 1906 3368 3705 3702 2270 2766 2640 3445 2131 2907 2951 2560 3737 2403 1657 1739 3897 3570 1548 2002 2455 2925 2189 3609 2170 2440 3805 2883 2639 1963 1863 2121 3693 2670 2657 2364 2568 1703 1513 3668 2491 2672 3138 2584 2703 3209 3368 3055 1515 2952 3079 2802 3448 2335 3197 2509 1941 2223 3569 2569 3504 2484 3685 2446 2948 1611 2830 3670 2052 2331 3400 1933 2817 3633 3563 3281 1808 1839 2485 3309 1934 2482 1951 3596 3459 2935 3220 3140 2325 3006 3803 2433 1801 3465 2230 1750 2996 2766 3935 2448 3127 1726 2664 2709 1889 3473 3692 3360 1620 2918 1839 3543 3803 3524 2635 2340 2888 1897 1623 2933 2398 3652 3395 3481 2458 3214 3203 2320 2180 3001 3841 2251 2025 2764 3185 2015 2455 2397 1611 3562 2539 2104 2302 2741 3981 3062 2159 3108 2719 1871 2647 2740 2744 2939 1883 1546 3072 2447 3783 1945 3205 3887 3333 1757 2286 1916 1505 3016 3256 1514 1584 3838 3984 2131 1913 3960
87 3 62 36 50 12 95 19 41 96 32 55 67 2 53 50 75 42 60 8 93 39 56 56 11 47 17 54 68 24 42 32 34 45 12 67 65 89 77 10 34 47 85 29 4 21 15 66 88 75 83 25 76 64 19 17 79 86 68 13 98 55 70 79 26 0 45 6 17 95 65 72 26 62 81 95 28 44 23 68 48 66 98 51 38 37 76 57 92 95 53 41 57 81 20 12 26 28 36 82 2763 2580 3211 2111 3393 2251 3331 3228 1529 2305 2759 1953 1971 3167 1848 1540 3696 1770 1898 3844 2538 3072 2801 1798 3661 3920 3102 2242 3263 3143 2313 3567 2292 3846 2389 3897 2738 1945 1959 2093 3464 2303 3368 1633 2941 2992 3202 1687 2335 3050 3142 1542 3718 2613 1968 1847 3152 1664 3642 1639 3935 2309 3531 2396 3747 1951 2607 2159 2020 3612 2215 1756 1974 2496 1773 2587 2902 2196 3287 2586 2306 3526 3498 1608 2648 3638 3048 2622 3158 2219 3557 3004 3049 1954 3369 3984 2014 1977 2572 3525 2398 3243 3375 2219 3333 3789 2724 2316 1774 3652 1741 1577 2726 3628 2873 1960 2332 2722 3175 2747 2828 3019 3489 2385 1506 2052 3883 2250 3826 3352 1893 2099 1715 2122 2904 2656 2832 1701 3826 1948 3442 3121 2621 1737 2361 3339 2884 2975 3478 3619 1951 2698 2377 2162 2489 2472 3703 3154 3052 3829 2447 1988 2755 3108 3513 2037 2114 1640 2144 3059 3607 1563 3187 1980 2699 1994 3706 2881 1636 3491 1830 2166 2420 2468 1748 2640 3194 3876 3502 2923 2540 2325 3077 3034 2300 1953 2952 3185 2278 3459 2776 1700 2017 3477 2642 2063 2584 1618 1626 3359 1919 3629 3230 2303 2816 2776 2222 2609 2279 2833 3270 1645 2327 3237 2636 1861 3517 3231 3075 3737 2957 1588 3553 2504 1937 3089 1929 3439 2307 1852 2793 1926 3536 3031 2315 2926 2642 2502 2020 2219 1722 3414 2177 2617 1549 2277 2847 3487 3658 2306 1710 1992 3505 1665 2775 2408 3990 2614 3695 3350 3610 3923 3660 2526 3281 3824 3961 3869 1564 2001 2601 2516 3842 2319 2137 3751 1931 1602 3695 2838 2202 3878 2140 2107 3337 2839 2113 1714 3982 3637
14 46 18 91 22 7 31 29 84 9 41 20 48 84 62 59 8 60 1 73 11 72 30 77 9 80 85 91 73 56 63 80 77 40 17 91 55 41 32 73 94 95 49 73 19 15 59 53 92 28 23 16 29 97 12 63 53 22 92 18 77 71 12 10 25 45 0 1 68 48 4 6 40 82 7 27 77 98 49 48 28 65 9 98 20 72 24 90 93 64 67 62 52 58 82 29 3 28 57 93 3381 1858 2736 2934 3439 3041 2719 2865 1845 1914 1956 1900 3227 2441 1511 1994 3573 3113 2355 2455 3734 1774 3343 3689 2061 2183 2541 1726 3508 2086 1987 1877 2421 2377 2543 2411 2773 2139 2299 3903 3073 1622 3838 2438 1763 3743 3485 1906 1918 2085 3360 3123 1528 3406 3405 3155 3066 3606 3504 3577 2478 2714 2015 3225 1894 2811 3450 1609 3872 3077 2428 3762 2553 2400 2026 3262 1852 3727 1833 2078 2098 1722 2470 1619 3127 2439 3382 3544 2038 2039 2607 3309 2376 3762 3934 2805 3777 3657 1794 3992 2060 2924 2377 3077 3466 1727 2709 3535 2117 3596 1792 2906 3751 2034 3846 2219 2115 2615 3891 3160 2337 2691 2824 3745 2676 3211 3195 2725 1843 2533 2620 3599 2091 3603 3352 2529 2803 3960 1717 2662 3756 1611 3139 2567 3870 2427 3726 3232 2029 3472 3214 3578 2849 2157 2528 3890 3643 1597 3410 3643 3536 2033 1939 1769 3906 3115 2991 1774 1516 3911 1778 3839 3627 2139 1624 3386 2285 1863 2119 2755 2925 1558 2244 3136 1942 3198 3362 3954 3628 2989 3675 3646 3323 3232 3440 3892 3771 1787 2089 2624 2849 1794 3187 1672 3714 3803 3311 3207 3659 3788 2896 2867 2044 2866 3209 3425 2289 2362 2517 3018 3269 1988 3551 1615 3938 2355 2956 1552 2317 2363 3025 2689 3872 3978 2759 3562 3568 2651 1726 3562 2588 3594 1690 3775 3268 2646 2424 2569 3664 1741 1789 3493 1653 3797 1727 2012 2376 3650 3203 2468 3605 2993 2676 3612 3625 2512 2541 2191 1848 2421 2171 3783 1829 2969 2602 3659 2523 3634 3350 3627 2240 3097 2348 3121 2727 2656 2418 2556 2380 2683 2265 3997 2860 3106 3855 3458 3894 2999 1832 2429
58 74 41 91 56 82 17 83 74 76 97 9 54 8 32 75 20 29 5 83 82 50 78 7 62 70 35 11 99 5 80 24 25 32 65 38 76 73 88 30 85 80 13 99 31 75 22 66 43 18 28 65 82 95 38 84 14 19 36 69 87 56 92 89 58 6 1 0 47 50 53 5 80 92 28 84 43 88 72 39 61 29 6 21 33 18 68 69 17 43 17 47 26 23 50 53 27 76 47 11 1756 3503 1790 2936 2421 3612 2717 2649 1544 2797 2312 2999 1866 3318 1771 3746 1860 3761 2860 3486 3733 1695 3032 1527 3966 3254 2155 1863 2022 3484 3790 3760 3799 2897 2897 3858 2569 2812 2049 1755 2154 3552 1587 3457 3992 2464 2260 3415 2882 1990 3050 1957 1981 2934 2570 2483 2128 3189 2286 2893 2838 3382 3542 2958 2906 3122 1769 2183 1761 2693 3773 3681 3910 2032 2919 2454 2313 3623 3785 2190 2723 3116 3297 2096 3108 2838 2546 1626 2022 2941 2498 2475 3897 3100 3833 3436 2567 1717 3548 1825 2425 3383 3032 3159 3491 3925 3869 3005 2550 1673 2754 3404 3050 3420 3998 3684 2262 3629 3340 1739 3594 2828 2666 2929 3353 3954 2437 2270 1615 2877 3542 1523 3881 3354 2562 2203 2229 3540 3420 1645 3724 2254 3242 2985 2081 2538 1964 3641 2728 1721 1967 2837 3881 1562 3196 1840 3129 1611 3762 3227 3340 3464 2830 2738 1966 1956 3773 3882 2259 3527 2101 1699 2332 2816 1517 3086 2070 3589 2981 3601 3636 3888 3005 1766 1766 3498 3783 2409 3196 3957 1790 2439 2848 2200 2111 1701 1662 1820 3680 3173 1790 3296 2426 3571 3433 3357 3945 2403 1555 3334 2597 1897 2894 3263 2712 3346 1923 2624 2385 2770 2625 3451 3930 3388 2720 2304 1624 1595 3481 2365 3283 2557 2832 2625 3519 1674 3529 3973 3903 3259 2824 3221 2250 3332 1859 1914 2944 3179 2932 1967 2443 2300 1563 3019 3192 3197 3916 2372 3387 1622 1727 3769 3100 3561 3657 2685 1656 3841 2572 3606 3841 1819 2172 1510 2443 2748 3159 1929 3764 2652 1903 2465 3406 2724 2042 3221 3000 2997 1617 3081 3488 2056 2218 3692 3883 1761 3544 1669 3589 3749
72 51 35 92 13 84 79 51 81 9 64 24 8 19 9 15 81 2 45 42 79 33 29 84 18 58 51 10 51 16 29 37 3 91 46 43 32 87 93 74 84 34 14 71 60 96 74 15 79 20 38 50 4 47 21 50 97 1 57 13 67 78 88 7 84 17 68 47 0 25 7 95 81 1 28 12 87 60 17 53 68 45 94 77 62 58 1 10 43 51 38 16 82 55 60 68 52 98 44 70 2084 1630 2316 3659 3200 1885 2717 3343 2740 3600 3630 2263 3064 2543 3514 3803 3603 3770 3166 3676 2355 3720 3933 2001 3793 2350 3179 1996 3925 2756 3917 2457 1625 2627 3751 3465 2505 3678 3858 2490 1952 2804 1965 2774 2877 3605 2564 3205 3455 2901 1567 2453 2513 1798 3654 1686 1617 2938 1539 3004 3869 2199 2699 1741 3840 1749 2759 3368 2868 2550 3479 3081 2461 2692 2636 1553 2123 3146 3462 3388 3171 2023 2266 3976 2014 3711 3646 2244 2910 3010 2154 2317 2351 2662 1718 2837 3208 2410 3144 1827 2518 3344 2818 2251 3620 3891 2198 3226 2396 3792 1599 1723 3308 1963 2597 3498 3251 2903 2146 2125 3661 2665 2501 2854 3763 1969 2626 3729 2377 3329 2953 3115 3060 3408 1842 2166 3393 3148 1965 3746 3612 2070 1689 1878 1719 2201 1917 2114 3549 3958 3698 3803 1946 3828 2399 2617 3197 1641 2623 3484 3664 1819 2148 2590 3051 3254 3379 2613 3014 2599 3790 2872 1775 2761 3382 2458 3319 2550 2101 2094 3610 2960 3644 2139 3845 1770 3937 3587 1684 1937 3972 3514 2087 1785 3122 3620 2929 1709 1527 2315 3259 3877 2584 3580 1838 2760 1542 3552 3593 2853 2459 3968 1738 2608 3892 2185 3740 3096 2950 2010 3592 1585 1772 3508 3108 3400 3695 3715 3727 3261 3490 1531 1927 2071 1527 1780 2006 2156 2615 2193 2505 3720 1521 3198 3083 3328 3520 3382 3164 2706 2725 3061 2799 2323 3093 3133 2370 3035 2740 2190 2110 2899 1607 3412 3434 3987 3495 1672 3511 1919 2704 1976 3784 2992 1628 1706 3282 2902 2899 3944 3161 2576 2913 3768 2997 2895 3908 3273 1509 3690 2609 1853 3126 3166 2996 2472 3198 2234 3515 1954
84 69 61 75 46 84 9 86 61 3 6 87 34 30 68 15 26 38 97 54 16 85 72 37 33 50 9 37 4 96 16 39 36 24 69 86 31 58 27 87 17 99 86 54 25 90 90 73 2 51 62 66 29 50 43 25 80 27 96 18 18 2 27 99 78 95 48 50 25 0 67 49 87 32 30 27 27 30 41 98 55 86 67 95 67 56 24 77 52 53 98 92 92 25 29 28 93 26 57 92 2142 3008 3088 2664 3532 2519 3360 2498 3416 3090 3135 1536 3545 1855 1737 1613 3146 2348 1708 2406 2354 3646 3856 3536 2194 1847 2526 2256 3727 3501 3873 3581 2195 2616 3228 3349 1823 3675 3404 3620 3141 3993 3316 2986 2424 2875 2743 3681 1805 2262 2239 3028 2018 1884 3591 3524 1965 3042 2164 2334 3768 3618 3655 2868 3959 3764 2648 3606 3416 3391 2887 2213 2526 2542 2235 3927 3221 2030 2984 1612 3045 2367 3160 1725 1990 3824 1993 3937 3807 3883 3095 2649 2017 3543 2949 2407 3621 1637 3572 3955 1884 2920 2224 3300 2895 3053 3201 3764 1559 1961 1864 2100 2570 3050 3516 3536 3195 3036 2652 2872 3466 1617 2795 3752 1794 1983 2688 1848 1505 3039 3876 1967 2008 2832 2379 3936 2791 2253 1573 2859 3449 2935 3528 3209 2819 3511 2076 2730 1507 3604 3419 2119 3438 2918 2808 2471 1559 3787 2793 3131 2002 2603 1833 2137 2609 3163 2004 1694 2502 3009 2484 2332 2156 2932 3982 3067 2964 1967 3742 3813 3977 2280 3360 2649 1822 3136 2092 1913 3401 2806 3354 2958 1731 1869 1560 3918 3333 2736 2265 2843 2018 2655 3890 3014 2118 1892 2235 2605 2981 3493 1997 1641 2165 2337 3898 2955 2486 2751 3248 2057 2407 2791 2160 3372 2782 3945 2763 2612 3195 2107 3403 2510 3619 2586 3594 2153 2680 3094 2790 1763 2778 3398 2855 1699 2625 3210 2585 1835 3922 3601 2497 3271 3166 2870 3721 3818 3637 3219 3427 3962 2037 3013 3838 3351 2270 3303 3882 3022 2325 2018 2824 3844 2440 2319 3111 2550 3840 2415 3127 2909 2043 3401 1957 2848 3827 2291 2223 1986 2852 1718 2449 3357 2418 3601 3609 2357 3363 2091 3196 2276
53 79 74 5 13 42 47 4 47 59 79 72 30 32 37 64 24 10 85 44 18 52 89 16 59 51 46 45 73 56 89 98 68 64 48 55 45 58 86 22 84 67 60 31 45 34 55 49 77 3 1 11 16 44 72 72 9 54 68 38 87 22 47 63 74 65 4 53 7 67 0 5 77 17 29 36 77 36 56 39 90 62 96 93 46 80 3 4 77 48 3 31 49 4 85 65 67 11 21 74 2753 1673 2231 2767 2603 2970 2186 3001 1725 3372 1592 2831 3067 3350 3546 3408 3998 3924 3479 2327 2615 2790 3307 1711 2200 2404 2451 2382 3948 1646 3892 2405 2632 1774 2576 3058 3538 2303 1716 3648 3135 2688 2720 3888 3306 3904 3379 3482 3307 2641 2344 3655 2466 2724 1958 3145 2771 2236 2765 3547 2007 2561 1766 3994 2899 1874 2892 2005 3677 2408 1741 2881 1772 2132 3923 2201 3854 1508 3533 1524 3014 3178 3011 3354 2974 2091 2516 3406 3815 1553 2930 1958 1633 3109 2483 3586 2970 2366 3350 3072 2967 2006 2624 2310 2107 2195 3832 3265 3227 3555 3124 3812 3775 3423 3812 1827 3962 2704 3878 2517 2804 3338 2173 1503 2878 1566 1887 1598 1966 1962 3289 3771 1588 2853 2502 3661 3592 2065 2939 2648 2930 3901 1694 2366 3812 3615 1736 3859 1778 2332 2472 1752 3898 2049 2391 1941 3164 3625 3708 2277 3448 2334 2719 3752 3669 3214 2202 2029 2683 2622 2304 2612 2834 2712 1688 1561 1520 3445 1583 2805 2785 2662 2510 2678 1697 1632 1899 1590 2652 2626 1526 1858 3728 3440 3915 2971 2181 1758 2048 3004 3481 3179 1752 2266 2051 2765 2786 3141 2642 2116 1709 3150 2093 1943 1934 2505 3186 3949 3665 3573 1511 2109 2720 2575 3929 2392 3763 3407 3533 2421 3554 2001 1952 2995 2573 2292 2569 3828 3257 2562 3517 1594 3638 3136 3747 3943 3383 1734 2302 2539 2285 3958 3429 2463 3085 3815 1547 3710 2385 2192 1995 2890 3248 1644 2878 3236 1597 2436 2948 2158 2789 3878 3214 3572 2840 3994 2368 2401 2550 2395 1660 1824 2193 1576 3269 2418 2004 2751 2793 1887 2981 1939 1724 2476 2839 1857 2200 3666 3771 3317
38 23 69 28 15 43 31 94 63 36 91 31 53 54 79 92 13 14 99 88 28 77 8 43 64 86 75 8 14 41 45 70 93 81 7 90 71 99 81 13 12 9 70 60 79 84 29 94 3 76 49 50 18 76 41 20 37 47 7 61 33 85 3 84 26 72 6 5 95 49 5 0 74 33 83 67 16 86 99 38 84 85 4 96 94 36 34 34 47 63 78 19 89 9 30 78 5 65 34 20 3897 2142 2748 1659 3122 3405 2937 3411 3617 2590 2747 1893 2593 1756 2123 3963 2940 2692 3261 3220 2787 3622 3114 1980 3486 2704 2710 2569 2008 2166 3270 1692 1653 3167 3423 1516 2423 2453 2028 3772 2176 2602 2432 3983 1552 3965 1697 3123 1848 2376 2050 1637 1536 3755 3838 1831 3663 3391 2972 3816 2474 3835 1908 2268 2302 1724 1645 2043 2520 3733 1686 3504 2356 3061 3390 3311 2882 1703 3827 3034 1763 3296 2829 1500 1735 2074 3282 3535 2215 2648 2172 2601 2625 2972 3576 2597 3369 3893 3422 1885 3836 2686 1541 3787 2622 3961 1703 3457 2232 2015 3229 2092 2784 1516 3471 2655 2763 2845 2867 2203 3936 3202 2939 1691 2879 2173 2244 1983 3788 2872 3823 1789 3172 1645 3669 3165 3080 2136 1552 1509 2645 3599 3321 2604 2135 2045 1903 3187 3780 2066 3588 1687 3409 1897 1825 1926 1988 1534 2043 1697 2625 3319 1867 3843 2279 3178 2535 3956 3454 2738 3334 2267 2398 2174 3090 2569 3319 3850 2761 3463 3183 1526 1976 2943 1847 2333 3143 3992 3693 2308 2114 3199 1985 3765 2893 1797 3163 3456 3748 3620 2301 2767 3959 1527 2308 2770 3395 2326 2148 2885 2541 3992 1671 1655 3282 3844 2094 1581 1564 3027 2480 1771 2005 3917 2405 2170 1549 2989 3796 2911 2169 1713 1853 2970 3504 2879 1892 3315 2155 3172 2077 2860 2928 1937 2489 2891 2107 3835 3151 3632 1741 2150 3652 1619 3413 3010 1551 3100 2461 3322 3644 3016 2235 3508 2275 2594 3762 1668 2518 1615 2392 3079 3131 3424 2007 3060 3482 3930 2189 2351 3655 3368 1847 2967 2367 1519 1728 1586 3734 2388 2318 3978 1700 2367 2218 3499 2848 1589 3286 1658
31 10 32 63 90 39 32 72 73 1 35 94 40 97 27 14 64 15 38 81 57 49 21 46 8 40 61 50 11 31 26 90 22 77 95 19 57 78 10 95 16 82 92 66 18 56 43 3 93 41 16 57 91 26 69 5 14 94 96 68 63 92 19 76 59 26 40 80 81 87 77 74 0 38 22 19 35 66 6 16 72 39 79 40 7 34 5 78 64 83 62 31 85 32 66 53 80 39 45 27 2997 2713 2651 3883 2354 2968 3710 2837 1926 2691 3276 1953 2914 3969 3962 3342 3335 3843 2178 2014 2464 2174 3146 3304 3379 3871 1929 3429 2806 2670 2912 2196 3778 3003 3107 3212 1955 2813 2587 2783 3881 3652 1540 2396 3935 3153 3612 3009 3189 2131 2072 2929 3567 3505 2580 3381 3637 3577 2569 2034 1993 2378 2603 3217 3978 3889 2250 3611 3653 1988 3372 2584 2493 3867 2905 2665 3248 3181 2405 2891 1922 2810 2112 2203 2730 3865 3810 2123 2969 2065 2354 2124 3989 3852 3686 3236 1704 1638 2467 2460 1636 2902 1548 3608 1502 2362 3615 2195 3048 1870 2709 1675 2347 2166 2969 2364 3811 3529 1822 3533 3610 2527 2709 3822 1586 2614 1641 3975 3862 1625 3629 2758 3844 2328 1875 3409 3934 2564 1791 1641 2395 3450 2481 1572 3518 3679 1815 3294 1505 1971 3091 3670 3836 3333 3211 1602 1984 2267 3592 2344 3689 2508 2724 2869 2988 2162 2938 3141 3203 3627 2701 3322 1961 3626 3967 2218 2514 3799 2373 1830 2225 3775 3067 3172 3997 1826 1705 1642 3052 2921 2652 2930 3552 2900 1802 2266 1943 2639 2594 3222 3993 2527 2219 3615 3893 2947 2531 2874 2363 2442 2069 2992 2369 3373 2087 2317 3324 2433 2074 2022 3809 1712 2322 2951 1597 2770 3006 1533 1866 1939 1932 3147 3913 3682 1507 2647 2311 1601 2297 2190 3430 3733 3046 2923 2992 3285 2210 2876 3829 1508 2083 2472 1691 1844 2220 2762 2608 3233 1748 3641 2774 3838 3228 2281 2525 2093 2443 3758 2777 2779 2160 2893 2508 1698 2118 3763 2719 2594 1840 2126 3499 1732 3966 1951 2851 2380 2114 2525 2021 2283 2284 1723 2039 2709 3938 1717 2374 1681 1950 3173
42 6 58 93 46 84 64 65 84 93 28 17 9 66 87 7 62 60 14 36 85 72 56 30 63 42 57 81 7 28 64 77 32 78 73 94 56 83 75 52 5 97 88 2 40 71 10 86 50 13 84 91 47 68 70 33 37 62 5 34 69 7 21 12 3 62 82 92 1 32 17 33 38 0 40 55 89 46 74 34 36 15 61 83 69 15 15 48 10 52 39 49 48 20 52 99 42 51 80 70 2656 2284 1903 1724 2894 2884 1709 2282 3458 3032 3500 2984 2876 3616 3401 3015 3166 2250 3289 3464 3014 3660 3014 3853 3243 3026 3009 3319 2188 3534 3896 2823 1559 2864 2943 1644 2917 2236 1501 2915 3611 1964 3518 2131 3870 3706 2795 3495 2752 1518 1513 3318 2899 3343 2863 1976 2403 3279 2019 2599 3131 1621 2408 2328 2814 3503 2428 3037 1883 3127 1597 1623 1561 3159 3902 3801 3097 1700 3246 3030 3152 3882 3610 1723 2339 2804 3343 1651 2991 3585 3273 3245 3370 2848 3626 3765 2268 2568 3526 3893 1739 1965 1704 1735 1901 3752 3551 2902 2270 2666 1915 3751 3562 1610 3101 3417 2147 2038 3229 2174 3608 1503 2012 3277 2271 2154 3805 3019 3602 3690 2661 2098 3893 2989 2372 2606 2862 2290 3026 1929 1684 2150 3431 2237 2537 2973 2647 2055 1536 2828 2111 2911 3701 2866 1779 3328 3026 1940 3010 1885 3850 2218 2807 2486 2231 3747 3326 1644 2729 2732 3243 3849 3622 3299 2827 3092 3729 3428 2801 1834 3279 3748 2644 1551 2323 3571 1558 3824 2581 3103 1975 2697 2585 3801 3899 3363 3336 3586 2675 2160 1871 2105 3095 2351 1734 1899 3953 2498 1847 2144 2900 1949 3565 2261 1706 1829 3135 2213 2727 2915 2929 2807 2689 2812 3320 3331 1596 3422 2316 3823 3036 3484 1607 1949 1829 1965 3509 1629 2720 3895 2841 1687 2630 2642 1737 2456 1703 2178 2847 2689 3648 2423 2824 3231 3700 3350 3220 1522 3293 2523 2223 1899 1627 2286 2296 2037 1660 2425 2726 3852 2610 2338 3341 2594 3273 2120 1619 1666 2554 1742 3987 3940 1603 2630 2868 2434 2643 1697 3447 1609 2399 3777 3130 1807 2483 2369 3088 2234 2347 3337
49 58 80 26 40 14 37 36 49 73 1 42 38 8 97 74 95 98 77 67 3 43 22 25 94 55 69 34 24 97 73 76 73 46 8 6 6 39 10 54 96 31 57 22 17 70 6 16 70 82 29 73 57 99 51 17 96 88 23 50 54 14 27 8 82 81 7 28 28 30 29 83 22 40 0 36 64 65 89 74 59 42 15 35 56 51 35 37 69 18 9 46 78 17 55 33 41 98 61 8 2140 3637 3948 2685 2713 2576 2635 3679 3125 3443 2740 3638 3000 3273 3396 2793 1867 3078 3510 2350 3143 2790 2518 3748 2143 3194 3497 3175 1936 3422 3667 2753 3783 3852 3391 3385 2772 2981 2642 3954 2173 3634 3189 3612 3264 2083 1562 1672 1632 2497 3246 2787 1871 3742 2212 3285 2450 1537 3288 2381 3052 2994 3707 2541 3599 3157 1996 1815 2338 2051 3642 2223 3815 2382 3398 3658 2779 3975 2462 1550 2661 2533 3608 2599 3069 2921 3670 3060 2601 3996 2802 1969 2056 2182 2921 1806 1953 2597 1924 2029 3425 3515 2250 2392 1849 1626 1879 3183 2066 2732 2988 2574 1984 3358 2020 3984 1830 3747 3806 2149 3948 3955 1620 1728 2157 1722 3823 1633 2331 3830 2925 1615 3263 1987 3899 3976 2592 3926 2638 3094 3728 2738 2801 1839 3887 3133 3009 1920 2371 2666 2192 1681 1791 1863 3319 1953 1660 1526 3572 2721 3497 2460 1807 2974 2263 3767 1520 2124 2494 3088 3392 2350 3174 3154 2460 2286 2533 2511 2967 3463 3863 2745 3655 1772 2581 2186 3079 3883 3142 1508 2926 1704 1934 1587 3552 3005 2393 2472 2135 2580 3592 3316 2561 1950 2108 2777 2504 2384 3553 3640 1801 1995 2995 3684 1822 3930 2358 3334 3162 2407 3877 3720 3117 1778 2010 3114 3009 1647 2306 3997 2584 1503 3813 3300 2204 3247 3662 1501 2554 2814 3432 3016 2582 1540 1819 1515 3148 1931 2199 2795 3064 2611 3517 3901 2536 3121 2503 2741 3380 3906 2198 1591 3642 1863 2213 2714 3138 1976 1909 2909 3314 3246 3050 2090 1711 1927 3139 3359 3868 2322 2955 2174 3922 1510 1729 1805 3138 3471 2949 2594 2648 3582 2064 2890 3127 3437 2647 3606 2101 2978
72 27 73 3 43 90 27 37 77 32 8 64 35 19 7 78 43 13 5 81 86 67 69 56 57 94 38 97 61 91 25 46 91 24 85 35 93 30 50 27 24 10 82 22 72 84 84 88 1 97 76 27 96 16 97 13 66 30 53 14 73 65 41 71 26 95 27 84 12 27 36 67 19 55 36 0 39 4 66 63 59 41 93 77 62 50 60 69 69 13 85 64 7 52 92 23 11 13 26 75 2292 2240 3484 2172 2978 3595 2083 2533 2061 2489 2001 2686 2212 2997 2751 2208 2079 1624 2576 3576 3118 3660 2455 1664 3059 2206 2345 2197 2080 2063 2139 3359 3926 3051 2230 3770 3979 3410 3411 2634 3110 3654 2886 2269 1830 2012 3287 2093 2105 3470 3277 1516 2219 2446 3989 3199 2200 3454 2115 2642 3662 1888 3149 3980 1543 2561 2228 3161 3794 3689 2746 1702 2487 3373 3547 3715 2857 1936 1714 3023 1972 3627 3110 3041 1980 2080 1831 3984 2274 1585 3835 2251 2055 3854 3854 1656 3291 2310 3556 2110 2961 2057 3767 3528 2111 2557 2421 3145 2030 2423 3918 2895 2702 3896 3911 3806 2822 2408 2101 2475 2641 2964 2841 3835 3556 2187 2012 2747 2262 2681 3592 1702 3604 1958 1955 1525 3069 3794 3468 2054 1726 1761 3363 2358 2612 1992 2547 2400 2642 2340 3848 2151 1931 1717 3657 1673 1705 2287 2910 1943 1824 2195 3794 3215 3169 1641 2738 2871 1589 3915 3482 3025 3803 1947 2533 3021 2402 3212 1680 3196 3857 1947 2081 3286 1522 3522 3825 1875 2537 2705 1539 3041 3824 2234 2997 1791 2284 2129 3290 3213 2703 2514 3464 2072 3536 2817 3870 3635 3238 3108 2898 2525 1694 2079 1639 1559 2600 3717 3464 1987 1566 2821 2860 3867 2170 2732 3874 3231 3936 1606 2742 3162 1871 2317 2124 3612 2380 2008 3172 1810 2504 2510 3590 2575 2435 2980 2638 3397 1622 3473 2135 3273 3184 2366 2983 2684 2588 1823 2577 3501 1673 1771 3290 2708 1746 3638 2042 3250 3095 3722 2273 2415 3036 2873 2626 1733 3781 2880 3679 2701 3608 3096 3638 3616 3413 3057 1542 1796 3063 1856 3395 2686 3275 3507 1796 2829 3193 3831 2511 1979
89 20 79 70 82 12 34 43 12 37 57 8 77 34 25 42 12 67 85 59 20 92 72 9 2 31 63 21 32 8 72 33 16 39 52 35 25 92 53 81 54 26 40 40 7 67 62 14 7 8 74 32 45 12 25 61 45 32 58 88 48 42 55 53 40 28 77 43 87 27 77 16 35 89 64 39 0 2 29 84 26 10 92 25 79 76 84 11 32 58 9 46 82 55 16 58 43 42 72 43 2607 3930 1589 1625 3375 1773 2015 2665 3099 2327 2052 2180 2706 2825 2749 2606 1903 3992 2083 1540 3728 2522 1831 2886 1898 1746 2704 2437 2206 3924 2772 3825 3809 3838 3461 1520 1732 2105 3675 1816 2055 1596 2476 3651 3096 1926 3344 1793 3138 3895 2522 3633 3529 1731 3249 2145 2104 3285 3832 1659 3054 1873 3662 1716 3125 2493 2718 2599 2677 2220 3216 3984 1626 3003 3243 3272 3227 3479 2895 3028 3055 3775 2698 2744 3710 2922 2979 1927 1518 2616 3917 2485 3205 3205 1705 3832 2740 3170 3524 3810 2674 3744 2318 1547 3956 2807 2220 3393 2910 1581 1798 3650 2327 2089 2636 2325 3628 2394 2461 2641 3350 1779 3412 3675 3105 2045 3811 3424 3281 3778 2692 1670 2933 3380 3261 2391 3196 3406 3880 2259 3781 3516 2169 2001 3631 1530 2913 2188 1955 2971 3670 2093 3907 1618 3100 2173 2822 3169 1565 3128 2638 2488 2092 2703 3733 3990 3113 3231 1833 1770 2788 1567 3757 2470 2642 3580 1728 1644 2495 2236 2171 3777 1727 2202 3150 2548 3705 2168 3983 2098 1713 2527 3278 1632 3112 1959 2618 2540 2879 2603 2556 2022 3787 2914 3132 1636 3055 3613 3027 3413 2531 3659 2712 1756 2881 2882 3209 3153 2603 3324 2477 2457 3745 2252 3013 3998 3090 1762 3640 3256 2792 1731 3389 1620 3674 3513 3208 2778 3189 2493 2941 1527 3716 1955 3523 3390 1971 2020 3890 2439 2335 2357 1702 1904 3356 1873 2694 1701 2062 2414 3034 2367 3515 2288 2738 3251 2979 3702 2614 3239 3993 1712 1880 1901 2137 3594 2911 2142 2655 3765 3410 1537 2584 3586 3430 3735 2725 2863 1763 3693 3533 1786 1884 2712 1633 3841 3494 3563 2622 3964
8 73 52 19 48 32 70 59 30 11 62 80 53 98 2 39 47 54 42 56 79 18 98 70 80 60 4 68 6 56 42 18 2 51 11 96 23 29 89 62 12 70 13 20 52 23 25 7 65 1 56 32 67 10 22 87 25 93 73 5 64 90 17 46 71 44 98 88 60 30 36 86 66 46 65 4 2 0 51 1 7 68 31 45 65 86 73 6 20 70 58 41 70 13 27 32 34 95 42 74 3509 2538 1786 3840 1583 1514 3714 3612 1689 3339 3411 3967 1966 2938 3097 2149 3590 3254 1547 2648 3282 1973 2116 2661 3251 3247 1672 2456 2893 3745 2363 2386 3561 2112 3274 3616 2087 2839 1982 2835 2075 3653 3700 1951 3827 3028 1649 3470 3894 1754 2621 3569 3479 1785 2727 3075 2689 2672 3971 1704 1854 2996 3601 3500 3985 3579 3119 3678 3267 3204 2236 2544 3924 3911 1974 3394 1685 2968 2120 3335 3666 2004 2628 2467 2057 3451 3107 2103 2118 1773 2711 1806 2002 3688 2250 3214 1992 3515 3044 2649 2057 1850 3991 2595 3733 3860 2679 2895 3526 1519 2818 3984 3414 1504 3866 2530 3096 2497 3830 3074 1929 3347 3446 2342 2430 1869 3201 3158 2441 2426 1921 2995 3801 3973 1783 2519 3582 2892 1679 3991 3989 2918 2626 3028 2843 2597 3628 2688 2714 3390 1804 2998 2865 3872 3816 1848 2754 3142 1660 2571 2802 2720 3008 3624 3534 3758 3022 2679 3834 2041 1979 2346 3375 1707 3704 1664 2061 1788 3586 2699 3124 3488 3787 2627 2331 2391 1810 1536 3499 2272 3233 2145 2325 2996 3483 2127 1608 2216 3794 3784 3026 1966 3134 1933 3815 2775 3742 2879 3596 3637 3666 3914 3401 3407 2388 3381 2595 3170 3038 3886 3824 3579 3398 3152 1730 2201 3013 1995 3051 1677 1618 1743 1582 2027 2773 1943 2130 2635 3211 1589 3656 3932 3234 3099 2601 2939 1723 2625 3936 2005 1860 2992 3027 3152 3402 2870 2629 2165 2930 2908 1539 1501 2091 1840 2732 2926 3188 3914 2383 3793 3799 2731 3423 3441 2514 2075 2286 3649 1579 2672 3133 3988 2121 2826 3807 3426 2711 2699 2398 3129 1820 3002 3819 2351 2682 2162 3147 1577 2525 3761
93 81 58 88 89 52 45 76 4 27 25 32 89 44 32 96 93 64 3 58 69 54 13 81 37 22 98 31 30 87 13 59 49 39 22 17 93 5 28 86 63 87 33 44 20 11 1 91 93 30 63 40 56 76 53 19 41 17 30 69 40 65 6 53 89 23 49 72 17 41 56 99 6 74 89 66 29 51 0 45 29 5 69 97 53 24 2 94 31 68 95 82 9 72 55 57 53 4 13 51 1902 2673 3283 1775 3136 2788 1554 2652 3212 3496 2456 1980 1761 2397 1610 2813 1541 3161 1511 3312 1799 2491 3868 3157 3289 3458 2647 3804 2265 1826 3445 3418 1507 3033 2183 1751 2415 3309 1878 1764 2796 1908 2452 3556 3319 2734 3998 3015 3657 3274 2176 3317 3253 2949 2935 3809 2742 3921 3395 3613 3409 2541 3651 3418 3605 3547 1681 3834 2369 2213 2986 3788 1585 2665 3945 3056 3977 1925 2632 3298 1531 2740 2319 2949 3517 2481 2541 2734 3056 3274 3081 2566 2401 3604 1895 3550 1763 2577 2330 3876 2145 2855 3819 1524 2817 1747 2402 3308 1635 3593 2501 1615 3877 2356 3932 1558 3827 3828 2944 3693 2522 2985 3192 1948 2422 2821 2629 3950 3378 3068 2382 2003 3462 2747 3398 2743 3876 1873 3100 2375 2485 3086 3799 1647 1883 3210 1755 2484 1858 1845 1581 3164 3313 3442 2769 2606 1922 2882 2256 2229 3046 2446 2046 3109 3002 1882 1813 3657 2757 3492 1510 1681 2539 1638 2785 1633 1610 1550 2988 1677 3656 3090 3182 3726 2972 2410 2207 3348 2431 2290 3263 1856 2583 2351 3177 3589 3343 1910 3736 3217 1551 2340 3077 2266 3389 2448 3206 2809 2695 2523 2975 3271 2126 2738 3504 3333 3288 2309 1917 2817 2724 3411 2484 2817 1898 2591 2547 3671 2935 3037 2799 3192 1948 3103 3812 3008 3449 3174 1929 1940 2005 3605 3714 3979 3379 2863 2835 3297 3859 2665 3453 2419 2033 3024 3622 2119 2645 3187 1791 3735 2146 3503 2069 2801 3315 2775 3137 3681 2901 3367 3031 3991 1715 2676 2983 1839 1922 3615 2222 2425 2621 3935 2652 1816 3155 2390 3854 3037 2456 3340 2232 2626 2841 3967 3824 3785 1860 2445 2182 2888
53 95 46 24 28 1 69 16 45 43 89 29 28 88 27 30 33 88 27 16 10 23 79 64 13 50 55 38 89 68 14 13 26 81 49 53 33 38 49 77 12 7 29 76 18 69 7 69 70 59 49 9 69 42 48 47 45 24 31 79 22 81 61 97 42 68 48 39 53 98 39 38 16 34 74 63 84 1 45 0 37 15 5 2 94 77 8 67 80 65 95 45 21 72 83 96 8 30 61 66 2219 3351 3616 2660 1915 3108 3873 1885 3855 2673 1541 3254 3098 2393 3763 3318 3397 3490 2872 2584 3068 3475 3269 3608 1816 3696 3116 1686 1960 2646 3010 1730 1852 2465 3384 3800 3818 3200 1522 2037 3159 2643 3516 2276 2956 3436 1671 2932 2199 1616 2211 1760 3206 3953 3020 2439 3131 3409 3637 2680 2973 1814 2830 2816 3814 2634 3238 2880 3257 2875 2046 1645 3569 3433 2900 2224 2929 1752 3503 2059 3453 3803 3977 3463 3081 2964 3813 3806 1928 3629 2071 2075 1695 3877 2820 2298 1740 2456 2938 2208 3145 3814 2253 3379 2462 3690 3690 2010 2378 1900 3140 3545 3735 2336 3775 3204 1729 1829 2545 1657 2759 3117 2282 3955 2427 3798 3648 3272 2963 1589 3949 2135 3376 3566 1788 3738 1527 3619 3176 2387 2036 2669 1517 3755 2659 2843 3504 2576 1901 2323 3162 3153 3287 2871 2364 1836 3873 2332 2296 2707 2799 2510 1898 3737 1500 1754 2574 3446 3333 3034 3605 2516 2877 3128 3380 2177 3117 3620 2165 3348 3167 3886 3236 3552 3423 1638 3370 2129 1692 3146 2083 2242 3210 2673 2022 1589 3262 2041 2592 3259 3983 2499 1775 3460 3670 2850 1595 3567 3260 1649 2381 3897 3283 1723 3842 2890 3073 1636 2587 3797 3717 1656 2435 1811 2148 2999 2149 3489 3657 2278 3997 1671 3076 2588 1763 3077 3842 3279 1839 3374 2286 2444 3189 2188 3980 3732 3729 1651 3664 2771 2003 3841 2440 3760 3473 2366 3090 1865 3494 2016 3896 3156 2295 2399 2833 3894 2511 1726 2570 3435 3333 3252 2775 1935 3522 2141 1576 1957 1628 3748 3952 2326 2571 3690 1744 3190 2096 2761 3972 1567 1557 3323 3543 2382 2722 1926 1965 3136 3821 1998
36 49 61 13 23 57 98 84 35 95 74 40 42 48 6 6 19 5 31 32 61 14 99 46 41 59 47 92 66 37 63 65 57 33 32 62 14 86 18 79 29 67 59 77 85 41 80 10 86 88 20 52 54 97 91 71 86 20 79 74 25 30 57 1 25 48 28 61 68 55 90 84 72 36 59 59 26 7 29 37 0 35 87 26 17 18 94 99 56 69 24 41 31 37 50 71 62 76 58 17 3984 2470 2500 1871 2870 3810 2832 3533 1642 2164 3432 3242 2740 2565 3645 3208 2880 1755 3940 3620 3000 3632 1511 2233 1669 2878 3860 1618 2585 1700 3892 2806 2405 1569 2893 3386 2833 2965 3779 3454 1679 2052 2841 2615 3910 1695 3372 3093 1860 1587 1634 2808 1557 2031 2747 2670 2694 2569 3260 3097 3966 3744 1733 2724 2526 1592 2383 1685 3133 1613 3778 2931 2552 2668 3617 3368 3697 1932 2750 3590 2905 1837 2685 2407 1512 2509 2753 2650 3555 2832 3791 3856 2984 3073 3896 1803 2079 3787 3581 2752 3552 3710 3712 3420 1809 3573 2301 3164 1676 2943 3309 2163 2975 3612 2617 1539 3727 3775 1969 1697 2391 3692 3484 3855 2336 1816 3293 2385 1668 1746 2361 2134 1956 2007 1637 2165 3922 1609 1702 2078 2134 2628 2252 2831 2530 2605 2450 2261 3826 1561 3280 1834 3235 2028 3482 3122 1840 2895 2463 2035 1913 1737 2652 3288 2463 3900 1625 2914 3054 2606 2593 3862 3853 2315 1960 1663 2082 3924 2401 3445 3288 2533 3328 3944 2463 3335 2923 3160 3028 1559 3822 2283 2647 3264 2643 3959 3381 3025 1789 1724 3350 2634 1949 3453 2376 2644 1752 1765 1919 3092 2712 2459 3765 2749 1693 2431 2261 3748 2312 2067 3801 3194 3145 2284 2075 1998 2656 3074 2529 2145 3899 2394 3071 3920 2234 2449 1673 2442 3905 3342 1597 3067 1550 3018 3985 3502 3791 3402 1568 3313 3475 2981 3716 3341 2565 2531 1637 2126 3655 2851 3592 3990 3432 2307 2698 1638 1981 3783 3467 1531 2785 3281 3513 3088 2244 1586 3347 2666 1927 2534 3851 3027 2947 3260 2126 2294 2036 1695 1785 2382 2538 1860 2689 3349 3232 1903 3668 3541 2734 3755
67 52 29 73 21 1 44 99 78 89 37 49 91 79 33 85 76 66 17 20 66 53 90 33 62 60 54 74 54 80 25 17 66 11 14 6 51 37 48 49 37 41 71 92 87 67 36 96 58 32 7 72 80 47 48 16 26 39 42 2 37 98 41 71 61 66 65 29 45 86 62 85 39 15 42 41 10 68 5 15 35 0 33 45 81 36 71 67 63 55 68 21 50 81 42 4 19 96 99 19 1560 2437 1645 1623 3440 3897 2392 2789 2040 2370 3279 1637 3940 2403 2548 1659 3968 3186 3605 3082 3930 3732 2527 2215 2260 2997 3966 3512 1783 1977 2711 1800 2933 1620 3746 2750 3197 2663 2712 2703 2335 3528 2375 2164 1855 1855 3231 3583 2870 1623 2887 2193 3099 1979 3695 3004 2941 3599 3594 3816 3931 1664 2740 2595 2177 1524 3778 3749 2463 1566 2393 1528 3975 2751 2634 2349 2582 2528 3282 3478 2627 2846 1842 2274 3268 3868 2930 3099 2488 3686 3993 1872 1775 2104 1949 3747 3081 1856 1688 3391 2722 2483 1931 2516 3974 2634 1924 3001 3055 1693 2536 2393 2041 2294 1688 3135 2483 3689 3024 3747 2011 1554 3192 3667 3989 2785 3557 2855 3888 3133 2103 2527 2430 2518 2415 2310 2387 1506 3004 1857 2407 1816 2204 3100 3469 2089 2373 2515 3593 1507 1811 2829 3677 2876 1644 1781 2638 1923 3325 2622 3853 3237 2910 2714 1782 2348 2561 3316 1711 1663 3061 2259 2514 1824 3125 1974 1727 3420 3573 3813 2262 2936 3757 2106 3755 3664 2911 1784 3827 2658 3894 3764 1559 2646 3871 2109 3124 1510 2954 1513 3388 2024 3607 2365 2308 3084 3162 3250 2334 3185 2840 1946 1820 2100 2444 3605 2584 2249 2736 3729 1721 2870 3603 3358 3765 3723 2424 1752 1670 2706 2893 2609 2902 2636 2487 1652 1501 2282 2853 2834 1763 3649 2747 3406 2273 1920 2226 2238 3884 3542 2545 2748 1841 1987 3674 2537 1955 1587 3444 3773 2153 1737 1944 1629 1861 2369 3324 2883 3717 2969 2725 2341 3822 2143 2018 3850 3250 2728 2499 2860 3601 1591 3419 3026 2996 2813 2710 3425 3610 2082 1616 3590 1534 1542 2952 3365 2023 3862 3488 2933
57 98 46 21 4 52 60 68 83 3 62 51 17 55 84 66 88 44 55 71 14 9 12 75 20 5 58 94 61 5 57 60 83 28 78 40 60 37 33 14 63 6 97 35 64 56 44 83 91 89 24 73 68 26 53 7 84 44 81 86 66 50 54 15 16 98 9 6 94 67 96 4 79 61 15 93 92 31 69 5 87 33 0 39 3 25 33 26 93 6 16 93 66 50 43 32 30 28 78 9 2739 3441 2047 3727 2696 3400 1841 3029 2748 1702 1606 2784 3294 1788 2432 2107 2941 3298 2708 3309 2413 2761 2456 3865 3399 3509 2589 2380 1503 3046 3097 2647 3167 2356 3509 2374 3320 3842 2909 2088 1656 3970 3368 1772 1643 3748 1524 3476 2802 2975 3633 3413 3476 3583 3935 3379 2430 2508 2022 2510 1637 2556 3497 2304 2062 1549 3033 3265 1724 2602 2180 3788 3298 2460 2466 3692 3486 3062 3127 2655 3109 2087 3192 2425 3493 3744 2741 3131 2406 3150 2121 3504 3132 3060 1574 2811 2643 2272 1942 2866 1725 3321 1651 3803 3047 2845 3732 3205 3859 2389 2102 1947 2254 3268 3751 1514 1640 3009 1981 3974 2276 2212 3444 2149 3482 2030 2471 3983 1709 3627 2855 3390 2685 3775 2234 2316 3549 3325 3332 1635 3419 3544 1911 3079 3563 1667 2426 1644 2054 2518 2433 3146 1760 3961 3307 2128 2105 1624 1726 3155 1519 3881 1812 3972 3968 2932 2568 2084 3156 3303 2606 2746 3408 1966 1907 2322 2132 1602 2203 1674 2932 2271 3732 1891 2344 1926 2703 1743 3815 3366 3622 2708 3480 2385 2463 2252 2143 3366 2999 3241 3223 3526 2434 2544 3875 2051 3884 2338 3132 2300 2464 2800 1868 3106 2239 2749 3940 2114 2925 1776 2014 2051 2549 2389 1854 2058 2595 3300 2461 2873 3457 2901 2968 3087 3157 3374 2856 1661 2545 1647 2017 3740 2313 2720 2964 2363 2482 2176 2507 2331 3612 1618 3056 1562 2336 2297 3669 3443 2271 2267 2291 3072 3958 3391 2244 2827 3993 2570 3908 2291 2529 2920 1898 2710 1789 2676 3457 3210 3572 3394 3579 3008 3303 2450 2326 2158 3491 3956 3855 3963 2227 3684 1953 2619 2723 2303 3029 2694 1808 3226
26 50 23 53 1 19 83 72 33 49 35 96 36 65 27 82 12 93 11 97 90 56 33 80 25 12 46 99 3 4 57 11 77 79 29 41 85 45 47 73 14 42 64 24 73 43 36 78 1 44 46 6 36 45 18 49 84 55 87 30 86 30 5 65 1 51 98 21 77 95 93 96 40 83 35 77 25 45 97 2 26 45 39 0 66 83 47 64 60 93 35 60 95 49 5 28 87 86 92 71 2913 2713 3821 1919 3617 1893 2502 1745 3941 2612 2203 1537 1971 3992 3568 2877 3838 3077 2307 3419 2069 2364 1597 1635 2401 2821 2081 3188 1524 3405 1501 3027 2553 2673 3606 3338 1766 1878 1700 2425 3840 3704 2706 3523 3535 2280 3616 2311 3682 3751 3449 1718 2454 2730 2592 2368 2373 2569 1767 3076 3607 2004 3084 1703 3090 3006 1815 3825 2803 2652 2739 3008 2534 1529 2253 2520 3301 3387 2213 3508 2551 3321 2476 3578 2609 2425 3950 3438 2998 3290 2169 2673 3305 2609 1617 3685 1920 2632 1684 2749 3598 3602 1985 2292 1720 3489 2847 2148 1572 2054 1613 3418 3661 1998 3672 1820 1773 2842 3781 3568 3115 3348 3470 1898 2298 2587 2014 1620 3022 2543 2999 2188 3914 3762 2937 2958 2989 3423 2072 2968 2163 1737 1667 2670 3433 3937 3579 2077 3838 3169 2524 1945 3894 1604 3639 3485 3088 3634 2273 1532 2054 2544 3059 1968 2267 3079 2357 1907 3149 3722 2619 2976 2844 3146 1960 3939 3163 2199 2264 1991 2367 3014 1582 2494 3028 2937 3870 1749 3918 1561 3817 3739 3006 2248 2884 2794 3629 1922 3170 3521 3575 2332 2458 1978 1671 2400 3485 3042 3838 2926 3216 1599 2069 3907 2768 2496 2131 1880 3601 2566 1783 3293 2229 2746 1548 3341 3338 2561 2489 2950 2786 3275 3926 2916 3122 1673 1911 3535 2783 3277 1730 3900 2725 2575 3076 2656 3237 1599 3046 3682 3447 3233 2824 1827 2131 2238 3763 3874 2190 2108 1967 2642 3795 2209 3376 3197 3756 2184 1700 1744 1908 1985 2832 2126 1863 3598 2578 3172 3041 1931 1732 3282 3844 3447 2567 2675 3634 2057 3663 2445 2940 3852 3403 2108 2307 3457 3629 2882 1673 3833
32 19 50 97 18 61 39 82 47 63 6 1 90 68 2 2 73 79 69 34 19 48 41 8 71 51 76 41 45 84 37 66 63 95 67 83 42 3 1 63 16 5 67 57 79 8 33 91 87 32 27 19 63 71 27 7 63 88 16 47 94 42 25 14 1 38 20 33 62 67 46 94 7 69 56 62 79 65 53 94 17 81 3 66 0 43 94 69 98 25 72 50 46 93 67 66 25 14 33 45 3658 3375 1935 2888 3631 3619 2801 1644 3993 2656 2714 3651 1753 2057 2616 2883 2389 1617 3186 2436 2372 2771 2900 2836 2821 2752 3030 2594 3631 2859 3445 2290 2811 2208 2083 1778 3040 2277 3444 3243 3869 3854 2698 2135 3046 2927 3106 2541 2106 3728 3767 3792 2864 3496 1677 2794 2386 2986 3197 3169 1764 3615 3883 1947 3843 3958 3872 2730 3324 2923 3501 1571 1961 1641 2063 3279 2917 2122 2300 3923 1661 1524 3558 2622 3948 1694 2838 2805 3107 2449 2572 3240 1618 3008 2683 3760 2719 2650 3980 3066 2538 1840 1989 1826 2068 1957 3905 2145 2806 1708 2087 3904 3994 1512 1562 3653 2161 2003 3589 2649 2350 3846 2914 3228 1750 3179 1993 1898 3111 3669 2226 3065 2197 2314 2547 3130 2159 2514 1933 1764 3137 3080 2553 1526 2318 2574 2506 2977 3546 3111 2150 2853 3566 1756 2224 1722 2516 2473 3943 2505 2369 3056 3676 1784 3777 1838 2213 2871 1754 3026 3395 2093 3454 2260 1635 1890 2949 2078 2355 1538 3450 2964 3109 1514 2093 3348 1797 3157 1540 2724 3530 3716 3634 2523 2684 2852 3538 2999 2628 3828 3473 1898 2915 3519 2504 1518 1612 3350 2261 2915 3648 2140 2937 2417 3100 1990 2556 3606 2358 2778 3739 3212 3497 3513 2596 1515 2627 3086 3496 3360 2271 2184 2178 1868 3961 3363 2487 3033 1784 3808 3682 3260 3311 2345 2616 2556 1601 3725 2397 3704 3801 2186 3983 2881 3145 2325 2510 3106 2922 1967 2695 3030 3998 3582 2131 3974 2640 3358 2364 2157 2020 3001 2516 3210 2783 1867 2086 2225 1643 2273 3306 1762 2906 1948 1620 2811 2204 3607 2468 1507 2215 2024 2156 2092 3654 1553 2485 2786 2116 2241
72 26 69 46 32 51 33 34 85 29 26 44 73 28 19 61 91 52 49 31 87 80 52 57 52 66 82 47 25 13 38 85 93 64 42 87 27 97 93 86 98 41 58 79 39 46 61 54 33 19 12 22 61 50 52 42 40 17 43 26 60 83 96 35 97 37 72 18 58 56 80 36 34 15 51 50 76 86 24 77 18 36 25 83 43 0 58 40 24 43 21 94 3 18 89 11 64 22 51 16 2355 3097 3096 1864 3661 1827 3362 2855 1530 3615 1881 3031 3071 3762 3026 2099 2348 3553 3392 3196 1747 2229 2348 2713 3313 3771 2210 3241 2592 2429 2513 3634 1940 2519 2294 2745 3768 2727 2996 1907 1525 3820 2331 1930 3540 2714 2617 1892 1914 2066 2152 1870 1974 2502 3597 2393 2336 3623 1536 2656 2644 3588 1509 3894 1741 1810 3595 1603 2222 3129 3180 1711 2859 2845 3624 2163 3183 2555 3172 2005 3568 3689 3670 2376 1778 2117 3178 2131 3345 2833 2031 3088 3549 3429 2668 3124 1846 2434 2924 1586 3448 1519 3219 2690 3816 2854 3985 3396 3350 2736 1863 1838 3833 3840 3988 3437 3359 1960 1531 3723 3802 1784 3826 3663 1802 1673 3654 3161 3951 2901 2081 1747 2339 2379 3936 3446 1802 2428 2752 1826 2046 2635 3211 1841 2172 2078 3698 2667 3063 3806 3549 1823 2946 2202 2817 1573 2131 2991 2897 3921 2279 2593 3459 3810 2636 3954 2936 2921 1545 2788 3082 3061 3005 3326 1912 3703 2538 3486 3617 3661 3263 2425 1638 3824 1588 2431 1500 1649 3048 2301 1783 3005 3639 3482 3737 3740 2551 3738 3074 3771 1863 2675 2457 2293 3715 2247 2780 3891 2119 2348 3011 2224 2230 2267 2786 1885 3989 2305 3928 3528 2175 1952 3757 3080 1584 3064 2872 1900 1945 2068 3030 3425 2019 1870 3397 2177 2502 2128 3407 1666 3910 2440 2369 3689 3364 3841 3668 2178 3177 3346 2482 3520 2722 3266 1810 2642 2754 3856 2035 1887 3435 1826 3097 1819 1888 3467 2802 1754 3127 2150 3975 3626 2176 3184 2621 1758 1813 1702 2138 1746 3362 2771 1581 1907 2593 3258 3045 2864 1642 3396 1511 1756 2789 2116 1747 2592 2441 2017 1676 2678
59 96 78 30 77 87 46 35 11 2 57 65 15 39 67 92 82 45 29 33 73 12 24 29 95 83 27 11 22 11 38 92 39 21 42 19 27 93 72 71 42 17 41 50 73 60 21 95 96 80 32 76 24 68 57 67 34 47 43 88 81 51 65 17 93 76 24 68 1 24 3 34 5 15 35 60 84 73 2 8 94 71 33 47 94 58 0 53 3 6 36 6 8 21 81 10 79 90 5 60 3017 1762 1509 3128 3620 3996 2432 3789 3823 3232 3011 2958 2127 3403 2917 3876 3857 2468 1516 3065 1654 2230 2807 2929 3086 3791 2939 3494 2537 2699 3619 2902 2910 2129 2733 1647 3010 2277 2264 2204 3034 3019 3014 2035 2801 2907 1999 2806 3551 3232 3843 2955 3005 2610 3532 3990 2804 2530 3875 2039 2148 2217 2099 3987 2564 1532 3233 3886 1613 1943 3184 3282 3157 2554 3456 3817 2447 1566 2938 3308 1868 3676 1983 3409 1612 3077 2958 2921 2958 3804 2966 1741 2367 1918 2711 3143 1892 2422 3247 1645 1567 2978 2478 3144 1906 1898 3191 3449 3697 3268 2351 1663 2672 2111 1988 3838 2867 2565 3077 2875 1976 1746 2511 2479 2227 2198 3608 3943 2471 3379 1573 3424 1843 3291 3387 1854 2325 3011 1686 2434 2613 3747 3481 3390 2722 3375 2420 2641 1836 2842 3715 1902 2628 3862 2416 3199 2017 3029 2522 1928 3822 3563 3740 3205 3074 1682 2960 3340 3260 2429 1610 2170 1567 2811 3045 1556 2421 3504 2176 3100 3127 2497 2921 3558 2642 1661 3893 3273 2571 3559 2189 2478 3523 2488 2739 2705 3432 2175 1840 3408 2439 2736 2689 3258 3930 3704 1826 2416 3016 3414 2749 2487 1885 2841 2703 3727 1711 3073 3343 3019 1559 1884 3133 3718 2863 3725 3527 3173 3153 3972 3951 3332 2906 2646 3178 3180 2001 1731 2776 2718 1900 3744 3670 1841 1705 2753 3333 2555 1921 2008 1606 3767 2378 3524 2306 1562 2495 2708 3488 1862 1775 2716 3507 2643 2159 3792 3795 3500 3702 3005 1631 2780 1901 1624 2096 2453 2117 2004 3533 2627 2482 1600 2032 2962 3150 2844 2122 3033 1626 2323 3666 3214 3009 3725 2008 3746 1606 2277 2943 3733
50 5 69 23 37 52 62 91 60 73 31 37 11 26 28 38 76 91 87 5 39 58 6 49 99 34 2 10 90 66 44 30 39 75 99 51 23 25 20 27 89 22 9 8 53 43 74 97 52 39 11 30 28 12 23 46 46 6 37 27 59 95 90 66 50 57 90 69 10 77 4 34 78 48 37 69 11 6 94 67 99 67 26 64 69 40 53 0 67 3 9 48 95 62 13 45 70 74 68 77 3260 3028 1792 3459 3208 3202 3925 3423 1979 2524 2412 2799 1898 3069 3740 1666 3281 3456 3134 1715 2991 3305 2336 3130 1899 3968 2284 2495 2801 3083 3220 3265 3616 3586 1535 3978 3333 3897 2151 3422 3081 1795 3801 3654 3067 3682 2974 3896 2300 3458 3622 3722 1551 2663 3570 3558 2580 2958 3751 2372 1921 2430 2985 3721 3542 2411 3122 2698 3803 3229 1501 3835 3120 2088 1918 2766 3391 2104 3998 3719 3890 1909 2520 1740 1786 1817 3955 3609 2427 1682 2741 1721 3847 3267 1873 2051 2522 2229 3957 2682 1876 3700 2079 2360 2986 1734 1626 2623 2781 2420 3902 3638 3959 2818 3484 1927 1540 2162 3413 2456 1692 1700 3041 1646 3660 2361 2575 2520 2707 3178 1543 2768 1838 1604 3431 2984 3631 2877 3655 2771 3608 2950 2977 3246 2638 1656 2907 2632 1746 3511 2795 3431 3474 3200 3587 1567 3008 2014 2221 3687 1993 3257 3279 1544 2306 3074 2323 2836 2362 2605 2086 3878 3541 3430 1759 1585 2854 2666 2198 2231 1991 2640 3258 2724 3395 1975 1801 1650 3494 2977 2427 2852 2134 3153 3565 2365 3350 1947 3684 2356 2670 3881 3303 2163 2761 2236 3876 1718 1910 3522 1886 1780 1969 2803 3151 3572 2459 2134 2185 3195 1750 1833 2048 3612 2923 2067 2465 2980 1685 2256 3595 3551 2125 1568 3037 2774 3943 3141 3955 3445 2195 1933 2331 1964 3850 2638 2203 3412 1534 2473 2476 1762 3421 2339 2161 2237 3365 2171 1675 3230 3686 2879 1907 3460 2771 2304 2083 2765 3218 3254 1968 1627 1705 3145 2392 3358 1968 2252 2555 1615 2882 1611 2809 3922 3542 2313 1573 2730 3230 1565 3498 1770 2816 2611 3540 2755 2916 2178 3015 2496
34 80 18 49 2 50 59 12 4 38 48 32 61 4 29 65 36 4 68 2 99 60 77 24 33 3 51 73 95 3 9 54 95 41 51 29 38 77 32 91 76 83 62 35 97 25 81 95 56 75 72 49 4 7 17 5 87 92 30 72 21 47 71 52 70 92 93 17 43 52 77 47 64 10 69 69 32 20 31 80 56 63 93 60 98 24 3 67 0 56 4 87 71 26 43 21 39 2 23 54 3628 2775 1657 1645 2287 2891 3817 2066 3097 3130 1770 3106 1983 3493 3690 3900 2039 1630 3508 2414 1816 2070 2094 3050 3271 2833 3031 3653 2803 1818 3457 1521 1764 3273 1871 3425 3039 2133 3511 2622 1774 3489 1955 2664 2949 3405 3872 2199 3315 1611 3926 2928 3484 2002 3024 1934 1979 2594 3126 1794 3087 2196 1653 1537 2289 3981 1506 1927 1671 3666 3583 2919 2199 2866 3414 2957 2706 3397 3026 2740 2785 2117 3925 2417 2198 2678 2730 2212 2439 2109 3618 2453 3169 2414 2441 3010 1846 2384 1988 1598 3864 3154 2369 2675 1906 2470 3836 3705 1893 2146 2724 3394 1600 3860 1602 2726 2579 2390 3689 1587 3463 2289 3615 3938 2582 3547 1967 1810 3704 3373 3295 2547 2779 1650 1788 3867 3075 2952 1577 3338 1698 3891 3129 2750 3350 2206 3050 2563 2901 1823 3992 1946 3009 2023 3678 3863 3327 1805 3857 2004 3213 2077 2732 2636 2223 3341 3810 2838 1636 3126 3616 1756 3706 1721 2362 2127 1859 2115 3785 2043 3846 3551 2255 2862 1779 3609 2670 3008 1580 3516 3288 1564 1758 2646 3069 3730 2706 2724 3737 1669 3414 2763 3376 1526 2862 3222 2835 3094 3512 1758 3345 3233 2392 3800 2353 3844 2249 2185 2824 1773 2092 3697 3199 3522 2395 2981 3610 3232 2388 1653 1570 3957 1635 3403 2193 3589 2660 2355 2885 3783 1900 3937 2627 2857 2278 2818 2628 3389 2860 2598 3815 2412 3727 3088 2312 1502 2207 2298 1863 3006 3439 3418 3825 1531 3296 1733 1729 2213 2831 2366 3605 1812 3560 1847 2074 2471 3604 2200 2212 2445 3722 3241 3794 1582 3326 2132 3372 2907 3072 3482 2488 3524 2904 2788 2680 2411 3435 2693 3210 2568
76 65 20 75 40 37 54 71 1 14 7 55 87 18 73 79 51 72 98 44 57 88 80 19 18 60 92 59 80 38 88 50 17 64 49 11 73 59 56 44 71 49 65 45 43 42 89 44 61 31 26 40 36 35 58 1 96 14 76 22 4 55 13 13 83 95 64 43 51 53 48 63 83 52 18 13 58 70 68 65 69 55 6 93 25 43 6 3 56 0 70 63 16 97 58 87 93 2 64 43 2454 1825 2583 1873 3395 2049 2189 3985 1626 2949 1771 3471 3112 2807 3968 3840 2967 2502 1870 2204 1565 3856 1517 2701 3145 2874 2357 2737 1618 3750 2060 3656 3009 1696 1531 3356 1586 3379 1644 3004 2393 3298 2736 2146 2665 3900 2066 1855 3581 1596 3174 3458 2771 3487 2151 3159 3350 3222 2061 2620 3028 2867 2150 3777 3582 3217 2927 2110 2396 3692 3441 2610 3154 1615 3095 2505 2406 1959 3843 3642 3320 1938 2630 1742 3774 3315 2374 2176 2427 1510 2293 3746 3747 2693 2211 1511 2578 3938 2410 3836 3501 3226 3458 1932 2306 3408 1678 1643 2914 3743 1677 2212 2700 3284 2016 1957 2776 2248 3155 3740 1953 3529 2387 1624 3949 2903 2277 2411 3890 2500 3973 3245 3099 3406 2137 3654 3711 1716 2292 1864 3870 2724 2080 1681 3348 2264 2625 2174 2102 1795 3519 3875 2606 3136 3293 3355 2195 3183 3657 2648 3399 2964 3406 3889 2886 3470 2525 2125 2288 1864 1627 1747 3401 3105 3914 3727 2213 1663 2186 2847 2372 2036 2222 2224 3416 1777 2009 2402 3955 2586 3531 2380 2719 3713 2571 3025 2311 3540 3590 1903 1555 1931 1785 3259 1881 3284 2341 3813 3069 2624 3729 3785 3319 1829 3825 2603 2659 2636 2287 3718 3311 3151 3306 2162 2866 1679 3657 3158 2166 2840 3665 2732 3821 3347 1688 1533 3177 2616 3414 2488 2510 3982 1851 2357 3696 3414 2758 1844 2373 1660 2245 3681 1684 1833 3737 3992 3332 1680 3938 1567 3173 2325 3484 1822 1503 3923 1698 3594 3889 2675 1845 3010 2551 3909 3853 1539 2234 3092 2351 2838 1575 3536 2723 3467 1932 3789 2285 3086 3484 3399 3413 3894 2970 2591 2190 2467 3913 2931 1846 2649
39 48 38 73 56 38 19 80 53 31 87 53 52 34 7 77 29 37 26 49 27 50 4 88 8 83 99 69 36 58 85 37 54 47 53 88 89 98 40 92 68 34 6 23 64 46 24 70 22 97 22 62 30 12 22 91 11 52 4 34 39 79 53 31 69 53 67 17 38 98 3 78 62 39 9 85 9 58 95 95 24 68 16 35 72 21 36 9 4 70 0 31 39 79 89 63 69 78 31 8 3316 2837 3891 2190 3112 2204 2881 3925 2700 3142 3029 3900 1939 3162 3259 2633 2452 1774 2445 2020 3042 2054 3713 1938 1694 3864 2176 2968 3038 2624 1912 3916 2417 2934 3114 1936 3009 3314 2114 2967 1588 3921 1837 2357 3616 3073 3184 3348 3664 3318 3598 3337 3821 2182 1844 2496 1678 3892 1732 2363 3510 1670 3675 2046 2865 3075 2640 3320 1516 2546 1808 1522 3842 2814 3742 1546 3118 1538 1883 3408 1750 3002 3251 1633 3561 3016 1967 2247 1608 1664 2299 2618 1907 3499 3252 3649 2234 3376 3433 1839 1802 1736 1613 1879 3277 1560 2929 3723 3095 1811 2855 2910 2390 3248 3585 2969 3602 1827 3618 1564 3957 3485 3886 2772 2697 2581 3440 2945 1717 3131 1791 3198 2265 3469 3671 2894 3292 1506 2794 1500 3787 3463 3583 2299 3020 1990 1926 2925 2234 3908 1979 2626 2821 3791 3447 3681 2089 2494 3896 1845 2690 3373 1550 3876 2370 1629 3035 2847 3123 2221 1600 2902 2739 2887 3451 3517 3200 3209 1590 3507 3790 1773 3974 3821 1745 2997 2961 1888 3071 3976 2596 2136 3579 2628 1922 3626 2747 2213 1591 1684 1816 1691 2222 3200 2990 2140 3839 1957 2523 3362 2278 3621 3896 2955 1877 2424 2251 3707 3417 3796 2215 2721 2219 3628 3539 3774 1703 3872 2146 1702 2059 3222 2941 2957 3945 2140 2195 1796 2663 1596 3327 2145 3799 3476 2967 2269 2444 2794 3259 3109 1768 1738 2205 3124 2609 2227 1645 3965 2282 2318 2082 2234 2452 2883 3763 3967 2305 3579 2309 3289 3217 1851 1696 3315 2819 3661 1765 3365 1525 2962 2888 1934 2843 3727 1932 2402 1567 2352 2189 1762 2687 1993 2519 3280 2683 2910 2470 3044 1669 2512
33 83 97 12 2 63 8 33 96 47 51 71 52 30 36 15 98 44 34 58 99 91 59 95 97 38 97 85 45 81 10 12 64 36 8 56 71 75 11 58 1 11 41 62 89 26 92 75 60 70 61 69 8 46 31 33 56 82 87 58 19 15 50 74 32 41 62 47 16 92 31 19 31 49 46 64 46 41 82 45 41 21 93 60 50 94 6 48 87 63 31 0 63 49 55 94 23 84 81 33 2384 2766 2233 2099 2753 3711 2486 1774 2249 2297 3175 1881 2544 2555 1827 3371 2884 3789 2012 2487 3556 3019 2580 2985 2530 1746 3954 3673 2452 3259 2782 2630 1666 2064 2496 1576 1541 3978 3241 1872 3275 2370 3897 3583 1724 2891 2011 2996 1965 2985 2408 3007 2803 2828 1936 1837 3156 2795 3622 3039 2324 3272 1961 2888 3022 3932 3264 2246 3903 2988 3277 2748 2260 3611 1538 1648 2147 2616 2603 3390 2786 1849 2697 1865 2046 3154 3306 2856 3764 3695 3042 3098 3909 2592 2368 2912 2126 3432 3184 2658 2329 3252 3090 1646 1769 2649 2057 2657 3730 2463 2164 2504 2917 2205 3516 2626 3392 2099 2041 2902 1889 2760 3912 2198 2053 1775 2941 2742 2395 3372 3006 2952 1967 3038 1711 3962 3143 2169 2777 1773 1562 2447 1934 1862 3498 2240 1530 2152 1721 1612 2287 2010 3773 2113 1987 2503 2146 2232 3321 3041 1745 2640 3981 3162 3205 2428 2873 3978 3728 2425 2014 2645 3722 2292 3596 2300 1601 1776 1764 1971 3685 3254 3203 2878 3775 1833 3142 2065 3488 2712 3284 1554 1748 2611 2591 1815 2622 2111 3437 2000 2829 3225 2341 3172 2942 3527 2027 2582 3088 2039 3625 3456 1844 3698 3896 3728 2614 3797 3339 3074 3175 2148 3877 3878 2878 1818 3690 1978 3884 3005 3779 3425 3152 1521 2928 2969 3713 1672 2816 3379 3781 2985 2641 2477 1717 2770 2578 2504 2638 3506 1804 2449 3159 3547 3842 2739 2996 2473 1722 3751 3610 2881 2958 3144 2990 2776 2786 3516 3938 3310 1868 1539 3454 2104 3300 2477 3161 3148 2842 3456 1820 3906 3074 3480 3731 3692 2827 2945 2892 3564 3056 3057 2356 3341 3352 2279 2724 2897 3993 3490
89 81 3 59 19 26 49 35 25 8 86 51 40 3 97 88 59 3 96 88 79 84 60 49 30 96 73 5 85 73 97 83 34 46 76 9 70 73 77 87 95 55 11 76 89 60 38 50 88 44 92 30 45 3 61 44 65 4 71 2 99 61 44 80 81 57 52 26 82 92 49 89 85 48 78 7 82 70 9 21 31 50 66 95 46 3 8 95 71 16 39 63 0 7 43 52 89 20 64 79 3082 3992 2002 3411 2502 2213 3129 1878 3319 2399 1970 2869 2082 1956 3305 2873 3361 1669 2775 3732 3359 1831 1548 3805 3418 3207 2311 3801 3174 3527 1512 3930 2253 2549 2750 3589 3125 2162 3727 2728 2036 3738 2920 2502 2204 3767 2795 1597 2778 1778 2023 2241 3447 2939 2068 2682 3967 3342 1651 3817 2520 3575 1832 2681 2472 3262 2383 3042 3240 3841 2582 1947 3615 3775 3827 3519 2736 3239 3629 3969 1635 3950 2169 2315 2871 2017 2030 1604 3564 2897 3877 2366 1706 1944 3622 2134 2857 2578 3231 2823 1658 1645 3964 3350 2519 3891 1600 2168 3726 3681 3234 2026 2141 2912 1978 3655 3085 3108 2461 2849 2146 3879 2761 2891 2300 3439 3573 1724 3268 3110 2082 3685 2463 3395 2097 2657 2493 3445 3866 3749 1633 3672 2606 3941 2492 2996 2064 1654 2558 2169 3982 1965 3667 3832 2722 3838 1716 1697 3385 3892 3866 3462 2917 3164 3579 3792 1816 3374 3152 2487 2854 2792 3238 3005 3800 2301 3412 2190 2767 2186 1603 2653 2454 2102 2043 1681 3654 1960 1519 1620 2183 1730 1734 3132 3094 3447 3810 3005 3621 2419 1916 2854 2479 2306 2143 1902 2024 3452 2558 3792 1826 2053 2554 2865 2287 3759 3060 2931 3556 1552 3108 2000 2853 3633 1622 3906 3071 2119 2295 2830 3828 1925 2188 2128 1795 2547 2452 2903 2547 2384 3729 3193 3106 1906 2494 1986 1938 3674 1680 2137 2491 2922 2538 2737 3537 1947 3316 3320 3806 2304 3384 2681 3810 2881 3517 2304 3800 1516 2153 2043 1958 3212 1603 3947 3372 2652 3167 3296 2829 2963 2969 3379 2200 3641 3184 3288 1994 1980 2630 1815 2798 1723 1836 3346 3975 1647 2408 1696 3608 3807
27 44 67 25 95 23 35 93 66 54 34 64 64 58 59 40 50 67 40 69 71 62 70 14 17 14 15 69 90 11 63 87 77 80 73 38 22 3 52 30 65 26 18 80 90 98 16 60 94 50 1 78 93 43 32 83 33 71 35 46 66 50 74 18 85 81 58 23 55 25 4 9 32 20 17 52 55 13 72 72 37 81 50 49 93 18 21 62 26 97 79 49 7 0 26 71 6 89 40 33 2334 2445 3424 2813 2804 1768 3267 1894 3765 2366 2082 2967 2651 3937 2490 2194 2789 2678 2243 2759 3275 1611 3915 3863 3868 3315 3926 3166 1929 1584 2201 3491 2269 3942 3890 3910 3838 2740 2861 1796 3403 2334 2876 2203 3138 3052 1523 3783 3604 3311 3654 3931 3539 1649 3502 3383 3298 2889 3060 2376 3430 2417 1898 1553 3863 3499 3367 3521 2528 2063 1852 3071 3913 3700 2824 1526 3522 2783 1961 2782 2569 3438 3635 3210 2830 2288 3568 1800 3703 1572 3805 2441 2702 3819 3705 1516 1711 1841 2176 3103 2559 2803 3789 1581 3685 3662 3609 2690 1651 1659 3630 3535 3517 2510 1977 3712 3411 3515 1835 2492 1564 2377 3096 2521 1501 1579 3874 3064 2368 3492 1892 3118 3583 3417 2462 2509 3583 1887 2256 3094 3185 2129 3541 3574 3109 3316 3280 2052 3306 2183 1894 2065 2399 3276 1911 1625 3645 3590 3188 3905 3440 1875 3451 2043 3981 2698 3381 3870 3384 2481 3776 3427 2545 2875 2122 2365 3480 2728 3336 2585 2250 1570 3227 3577 3522 3250 2774 3211 3790 3041 1652 2860 2993 3254 1653 3546 3175 1718 3490 1758 3264 2140 3286 3285 3774 2035 1715 2215 3137 2306 3183 3215 3281 3385 3062 1771 3918 2967 1806 3998 3180 2888 2183 1879 1810 3646 3596 3336 3063 1531 2926 3739 3448 2235 2018 3110 3864 1679 3131 2839 3910 2516 2765 2841 3570 1855 2119 2109 3520 2159 3560 2073 3401 1551 3056 2136 2401 3294 2434 2555 3377 3951 2247 2156 2507 2810 1840 2006 2461 3545 2900 2316 2595 3485 3335 1824 1813 2631 3674 2509 1651 3991 1601 2340 3779 3209 2974 2646 2918 2769 2513 3192 3296 3277 2790 1968 1831 2193 2300 2392
23 60 30 37 76 31 4 20 64 78 63 16 15 50 1 51 62 27 11 74 6 65 45 33 13 10 92 29 16 84 26 87 24 18 64 27 82 57 65 24 16 73 87 48 40 83 53 50 33 39 63 81 91 25 3 34 76 59 9 51 19 88 10 60 29 20 82 50 60 29 85 30 66 52 55 92 16 27 55 83 50 42 43 5 67 89 81 13 43 58 89 55 43 26 0 40 92 45 98 18 3539 3529 3050 1777 3754 3412 2865 3455 2794 2792 3459 2152 3261 3912 2470 2591 2370 3378 3699 1508 1818 1883 2595 2595 3115 3259 3574 3948 2529 3163 3456 2976 2649 3574 2539 2268 3620 3231 2339 2645 1597 2256 1799 2335 2907 1543 3671 2175 3503 3110 3623 3929 2506 3676 2723 2693 2429 2462 1682 2980 2028 2701 2571 2459 2778 3002 3896 2802 3661 1919 3858 2723 3152 3831 3171 2827 3767 3502 3508 3822 1553 1532 2210 3512 3418 3141 3209 1931 1546 3726 3484 3610 3780 2144 2119 1855 3873 1998 3722 3970 3344 2669 1512 1619 3001 3053 2591 1533 2894 2857 2925 2539 3059 1786 3721 1829 2224 2388 3098 3253 1518 1740 3651 2559 2657 3604 1556 1743 1501 1739 2362 1992 1919 3193 2484 2656 2248 2244 1654 3173 2962 2485 2792 3144 3481 1525 1836 2294 1738 3628 2527 2547 2852 2322 2716 1886 1677 3266 3865 2368 1765 1531 3385 2109 3786 2702 2834 3175 3320 2588 3921 3899 3395 3331 3664 3893 1871 2340 2681 2736 3313 3806 2985 2162 2871 2048 3087 2505 1915 3730 1593 3152 3216 1930 2878 2766 3510 1752 2688 2269 1936 3176 3836 3282 2759 2744 3992 2767 2839 3086 1813 3854 3840 2774 3461 3794 3684 2780 2594 3957 3670 2663 3598 2427 3684 2675 2292 1737 2404 3366 3754 2653 1628 3000 2901 1637 1658 1615 1626 2183 1863 2190 2423 3006 2475 2487 2714 2633 3555 3100 2805 2221 1642 3715 3869 1592 3084 2893 1706 2930 2681 3541 1980 2167 3401 1918 1882 3874 2805 1573 3435 3745 2195 2466 2992 3120 3421 3042 2862 3831 2104 2811 2892 1543 2265 3010 3448 3090 1510 3607 2750 1734 2259 2023 2275 2345 3905 2786 3639 2720
71 76 53 80 66 54 56 33 67 49 17 4 76 55 55 42 91 53 65 1 9 34 99 33 33 36 87 79 38 68 52 3 30 95 55 81 27 33 12 58 42 50 84 77 16 31 20 37 12 12 68 61 58 99 48 55 9 54 81 6 1 42 97 2 8 12 29 53 68 28 65 78 53 99 33 23 58 32 57 96 71 4 32 28 66 11 10 45 21 87 63 94 52 71 40 0 70 74 72 53 2945 2631 2411 3124 1647 3611 3682 2036 3875 3626 2988 1829 3798 1613 3187 1841 3943 3980 1882 1977 2425 2520 1611 3666 1758 2320 3517 3675 2658 1972 3880 2697 2942 3291 3085 3452 1747 3823 2783 2093 2047 3328 3574 1645 3022 2958 1643 2174 2252 3694 2001 3665 1827 2218 1981 2606 2112 2616 2510 2367 1934 1966 1656 2128 3785 1986 1777 3885 2403 2018 2264 1907 2534 2099 2166 2078 3686 1940 1774 2997 1751 1570 2801 3317 1991 3806 1754 2702 2939 1840 3008 1673 3106 2947 3329 2601 3500 3361 1753 3731 1777 2735 3287 3542 3220 3216 2044 3078 3850 3214 2033 2853 1770 2170 3469 3324 3470 2941 3517 3710 3399 2395 1838 2413 3087 3750 2325 1808 1797 3398 1629 2086 1799 2350 2771 1848 3752 3946 2022 3283 1587 2445 2817 3434 1509 3200 1730 3550 2016 1771 2653 3629 3378 3382 3907 3646 3297 2121 1752 3229 1990 3148 3249 3300 1756 3379 2798 3744 1765 2197 3173 2339 3552 2398 1689 2536 3589 1708 2847 2535 1893 2474 1784 2491 1772 3748 3499 3210 2189 3101 2527 1810 3447 2592 2639 3840 1637 2118 2603 3036 2341 3486 1688 1882 1654 3417 2479 2703 3928 3473 2846 3535 3190 3618 2398 2931 3799 3166 3670 3929 1809 3963 2128 1506 3295 3988 3891 3385 2313 2500 2483 2826 3479 2046 3155 2299 2149 2631 1811 3076 3593 3454 2928 1917 3701 3296 2160 2094 3951 3688 2887 3528 1529 2159 2609 2443 3349 1936 2022 2964 2584 3554 1655 2342 2887 3771 3302 2820 3368 3538 3516 1682 2014 2392 2243 2404 2332 3909 2135 3745 2640 3682 1987 3153 3258 3370 3302 1894 2326 2918 3218 2253 2742 3666 2821 1799 1887 1679 2325 3047
62 65 9 82 48 56 17 71 30 57 88 19 61 87 33 76 86 86 65 89 47 90 93 50 84 8 2 31 57 30 41 37 63 37 55 3 40 60 69 37 31 47 50 41 95 26 33 31 78 18 73 21 36 67 66 31 55 87 96 4 44 89 8 1 79 26 3 27 52 93 67 5 80 42 41 11 43 34 53 8 62 19 30 87 25 64 79 70 39 93 69 23 89 6 92 70 0 37 97 32 3028 2577 1750 3302 2997 2196 3645 2480 2797 2181 3016 2109 2220 1758 1528 2285 1780 3652 2631 2769 1570 2238 1792 2905 3554 3118 2477 1669 1666 3416 2247 3702 2818 1870 2682 1992 1530 1853 2028 3708 2642 3281 1790 2293 2785 2406 2373 1920 3007 3867 3451 2320 2488 2261 3793 3130 2103 2321 2604 1653 3632 1918 2058 3411 1529 2470 2227 2498 2580 3104 2864 1632 2355 3962 2145 1975 2682 2790 2208 2635 3348 2784 3737 3994 2276 2934 1683 3456 2535 1826 2040 2487 3053 2762 1930 1947 3059 1983 2260 1890 2607 2727 3613 2551 3060 1580 2549 3498 1734 2472 2984 3271 3135 1858 1620 3338 2594 2756 1898 2411 3141 3890 1989 2332 1809 1902 3186 2995 2626 2936 2595 3306 2914 2718 2839 3843 3050 1772 1967 2324 1731 2376 2785 2407 3600 2705 1917 1610 2072 3467 2060 2715 2766 2626 1906 1692 1717 3330 2096 3014 1819 3980 3483 3260 1744 3332 3316 3652 3190 2089 1591 1555 2473 3113 2976 2399 3007 3378 1904 2893 3750 3434 3811 1745 3460 1589 2834 2947 2919 3001 3793 1536 2750 1509 3076 1704 3061 1766 3579 3003 1721 2776 3094 2040 1552 3074 1516 2328 3270 2317 3397 2722 2897 3419 2703 1687 1561 3423 3016 1999 1931 3643 2673 2722 2506 3392 2026 1643 1861 2110 2580 3599 1569 3010 3647 2037 3636 3498 3758 3139 3805 2864 3065 3007 2031 2914 1531 1801 2757 2317 1709 1939 2402 3866 1569 2730 2564 2869 2873 2379 3838 3775 3775 2320 2841 1505 2283 1625 3676 3579 3152 2877 3575 3070 3749 2326 2872 2013 1594 2542 2996 2689 1862 1690 2865 3178 2039 2519 3561 2328 3822 1533 2093 3879 2380 2391 1566 3150 1728 3299
5 49 84 45 23 45 97 32 58 64 72 94 13 57 81 16 17 1 39 19 83 8 81 64 69 20 61 47 16 99 16 14 61 90 8 37 42 20 12 66 5 51 16 4 58 38 99 95 42 15 53 19 62 17 94 76 65 70 51 57 51 76 30 54 56 28 28 76 98 26 11 65 39 51 98 13 42 95 4 30 76 96 28 86 14 22 90 74 2 2 78 84 20 89 45 74 37 0 97 50 2938 3537 2513 3367 2647 1608 2122 1733 2453 2162 1791 3510 2335 3467 3244 1986 3747 1821 2364 2171 3460 2095 2260 1794 2073 2310 1997 2365 1968 2178 2779 3240 1716 3281 2316 2077 3792 3053 3746 2228 3460 3389 2549 3180 3219 3505 3257 3570 1801 3582 2764 2246 2768 3113 2999 3505 3332 3985 3405 2967 1827 3601 3784 1551 3426 2012 2480 3446 1697 2391 1654 1562 3139 2023 3082 2783 1767 2791 2132 2113 2494 3300 2417 3477 1750 1733 3771 2705 2866 1978 3390 2539 1653 1996 2476 2425 2256 3972 3068 2682 2232 2713 3494 1681 2675 2203 1677 2262 2682 1892 3052 2913 3376 3929 2049 3744 2431 1509 1506 2558 3090 2686 1555 3662 1904 1836 1780 2926 3446 1862 3161 2998 1942 3937 2002 3595 3995 2210 3050 2662 2428 3405 1721 3534 2471 1961 3938 3525 3354 1931 2480 3904 1716 3923 1683 1642 3846 2630 2289 1711 1869 3129 3453 2865 2568 2823 2616 2799 2774 3643 2810 3808 3694 1527 3832 2945 1659 2399 3105 2979 3731 2129 3893 3282 2666 3804 1667 3791 3633 2719 3791 2014 1580 3172 3464 2832 1878 3998 2828 3711 2574 2273 2900 3025 3466 2711 2879 1728 3587 2371 2320 3333 1557 3903 2857 2306 3950 3114 2275 2845 3475 3952 1662 3299 1729 2569 2493 2817 1622 2735 3252 3310 1974 2055 2000 3359 3710 3173 1749 2024 3534 3262 2264 2050 3933 1649 1890 1769 2031 2489 2185 2736 3334 2320 1923 3027 2140 2154 1505 1948 2616 2990 1649 3627 3445 2051 1974 3585 2914 2243 2705 2216 2373 3475 2604 2934 2285 1666 2124 2155 3964 2609 3617 2419 3428 2923 3089 3862 3095 3829 3712 3377 3384 2058 3644 3196 2718 3259 3379 2723
9 91 87 25 55 79 77 73 44 8 92 84 92 9 73 37 13 70 79 95 92 66 48 34 29 3 81 9 23 43 30 99 29 45 25 25 8 44 29 78 80 80 59 14 80 1 74 82 19 82 6 7 14 94 66 82 58 81 82 33 75 80 35 25 82 36 57 47 44 57 21 34 45 80 61 26 72 42 13 61 58 99 78 92 33 51 5 68 23 64 31 81 64 40 98 72 97 97 0 8 3737 2740 3697 2492 2459 3909 2394 2610 1779 2349 2541 2463 1967 1589 1600 1714 1928 1924 3299 3582 3855 2985 2456 3564 2500 1599 3804 1894 3207 1804 2322 2718 2533 3317 1774 1661 1575 2094 2399 3729 1988 1942 3475 2897 1597 1876 2627 2458 2085 3415 2667 1644 3100 3261 3049 2956 1723 3969 3430 3703 3978 2604 3035 1932 1525 2290 3311 3250 1983 2634 1594 3139 1970 2346 2359 1581 2503 3510 3661 2035 2284 3384 2143 1896 3709 1996 3080 3279 2679 3084 2793 2943 2311 2994 2213 2858 3953 2310 3990 3501 3625 1739 3314 2188 1993 2363 3091 2496 3440 3037 2097 3118 1680 2612 3233 3522 2466 2625 2917 3862 2140 1909 2477 3087 2988 2343 3883 1738 2821 3156 3010 3751 3072 2774 3714 2357 2123 2913 1622 2330 2365 1923 2331 2368 3785 3045 3526 3890 2583 2255 3900 2285 2211 3342 3333 2648 2564 3373 2570 1528 2723 2193 2410 3871 3054 1646 2643 3407 3379 3543 2114 3461 1842 2959 2208 2687 2922 3870 3672 1631 3432 3610 2778 3279 3665 2713 2287 3452 3957 2081 2472 1829 3178 2124 2068 3466 3962 2064 1620 2291 3524 2142 3258 3231 1982 3473 2499 2408 2586 2025 2510 2464 1806 3351 3579 3443 2703 2032 3946 3251 1915 2774 3787 3775 3727 1644 3623 3164 3875 3505 2476 2788 3153 1591 1947 1983 3361 2829 3600 3032 3061 3785 2296 3932 3038 3528 2622 2678 3197 3003 3196 3799 2044 2891 2646 2162 3325 2823 3372 2303 1991 3171 3983 2981 1729 3125 3285 3868 1743 2165 2660 3563 3801 1742 1562 2570 2163 2467 2461 3157 2148 2453 2268 3603 2938 1647 1764 2863 2714 3603 2104 3526 3644 3431 3069 2475 1558 1581 1913 1939
38 88 49 87 76 14 78 3 36 9 89 46 82 69 66 40 69 56 90 1 20 87 23 73 47 43 91 77 74 24 38 33 61 53 80 65 15 99 15 95 27 96 96 87 46 32 96 48 40 45 64 85 43 38 88 50 64 3 69 28 43 31 32 26 66 82 93 11 70 92 74 20 27 70 8 75 43 74 51 66 17 19 9 71 45 16 60 77 54 43 8 33 79 33 18 53 32 50 8 0 3860 3941 1938 2389 3788 3146 1569 1842 2039 3818 1771 1875 3274 2074 2863 3987 3014 3182 3505 1846 2266 3846 2037 3375 2654 2784 2713 1834 3120 3677 3680 2753 2485 3321 2770 2531 2084 2429 1600 2443 2754 2835 3919 3212 2631 2588 3789 3482 2934 1709 1753 2802 3158 2299 2057 1958 2040 2462 2629 3433 3391 3775 3501 1640 2004 2902 2854 2648 2267 2871 1689 3067 2475 1518 3041 2508 2257 2774 3264 3138 3598 1711 2005 2090 2649 1905 2525 3852 3141 1721 2726 2705 1992 2224 3725 2810 2591 2198 2119 3442 2301 2517 2816 2197 2252 2798 2975 2122 2041 1621 2615 3007 3033 3446 2773 1678 1712 2017 2809 3523 2236 3430 2316 1531 3797 3398 2123 3352 3801 3470 2071 1731 2657 1697 2664 2577 2316 2564 1567 2996 1991 1756 2084 1855 2234 2521 3752 3972 3735 3902 2424 3379 2810 1872 3952 3612 3388 3524 3433 1915 2469 1795 3945 1537 2761 3400 3786 1935 3327 2324 3213 1578 2713 2256 1583 2287 2805 3278 1980 2691 3079 2248 3363 3925 3396 1716 1851 2075 2088 3965 2410 1906 3729 3044 3333 3331 2370 2589 2966 1532 3442 3994 2932 2519 3010 2631 2580 1584 3895 1958 1922 2872 2076 3622 1854 3608 1959 3553 1827 2168 2994 3113 2119 2900 3900 2318 3973 3358 3536 2649 2507 2205 1881 1619 3639 1851 2667 3322 3385 2568 3736 1505 2408 2927 3193 3299 2280 2791 2679 2709 1720 2073 2091 3040 1579 3828 3070 3117 2069 3203 2569 1755 3933 3794 3861 2181 3002 3955 3758 3721 1625 3277 2189 1798 2864 3521 2669 3364 3231 1686 2505 3143 2648 1893 2092 2663 2100 2950 3329 2780 2110 3946 3814 3371 1819 2577 3784 3390 2584 2236
3581 1663 3449 3636 2233 2602 3282 2409 1853 3942 2204 3648 2103 2516 2638 3967 2512 2165 2009 3088 2993 3549 2040 1578 3002 2954 3928 3568 3441 3037 2467 3001 3771 2434 2724 2620 2300 3210 1970 2430 2188 3177 2452 3074 2704 3316 2176 2372 3508 2215 2546 2459 3818 1579 3193 3137 3940 3720 1737 2928 3894 2075 2369 1563 3038 2763 3381 1756 2084 2142 2753 3897 2997 2656 2140 2292 2607 3509 1902 2219 3984 1560 2739 2913 3658 2355 3017 3260 3628 2454 3316 2384 3082 2334 3539 2945 3028 2938 3737 3860 0 5 3 13 46 20 87 28 21 81 97 82 98 28 73 20 1 87 27 72 47 69 74 17 17 36 60 67 13 69 12 89 46 22 83 38 3 41 1 78 23 6 38 83 18 85 59 10 65 71 26 81 83 8 58 98 43 22 61 88 75 60 21 72 89 88 15 87 69 61 62 87 16 12 72 4 9 82 48 25 59 53 7 58 60 86 70 84 77 85 52 26 97 54 30 25 68 82 46 13 1869 3776 2004 2484 2673 2196 3905 2865 2262 1555 1793 3356 3428 3251 2012 2837 1601 3809 2349 2452 3160 3833 2886 1893 1862 1842 3081 3081 2929 1502 3148 1908 2573 2410 2811 1784 2536 1923 2587 3673 2297 1866 3879 3284 1560 3589 3940 1936 3517 1590 3452 2791 2176 2253 2338 2161 2017 2517 2732 3765 2755 3628 2292 1864 2913 1539 1775 3743 1834 2131 3913 3107 2050 3591 3568 1896 3834 3934 1983 3736 3982 3071 1732 3368 1648 2401 3982 3456 2151 2739 3389 2124 3510 1937 2219 3897 1774 2792 2344 3083 2270 2341 1843 3206 3374 3471 3023 3147 1649 3661 2006 3342 2540 1764 3347 2792 3385 2942 1659 3739 2649 1562 3793 1638 2485 2453 2705 3450 2066 2365 1880 2815 3194 1568 2842 3875 2995 3462 2961 3828 3155 3994 3093 2446 1533 3019 1530 2203 3458 2083 3689 3538 3579 3296 2541 2396 1794 3152 2873 2908 3013 3466 1782 3439 2620 2363 3988 2479 2200 3986 1659 2107 3645 2719 1946 3588 3562 1756 1859 3461 2672 3783 1548 3889 3915 1931 1658 1815 3723 1983 3685 1733 1526 3109 2547 2072 2820 2085 3636 2045
2502 2867 2689 3004 2600 3248 2702 3252 2158 2219 3517 3260 2765 2224 3554 2419 2375 3203 3482 2022 3537 1713 1720 1812 2586 2016 3367 3051 3112 1565 1906 3528 2300 1806 2715 2122 3512 3480 1834 3271 1723 1880 3508 2887 1618 2647 2007 2118 3073 2289 2236 2814 1823 3123 3176 1929 2249 1509 3778 2216 3565 1761 2557 3713 1679 2580 1858 3503 1630 3008 1673 2142 2713 2284 3637 2240 3930 2538 2673 3351 2470 2437 3441 2713 3375 3097 1762 3028 2775 1825 2837 2766 3992 2445 3529 2631 2577 3537 2740 3941 5 0 57 55 67 80 14 58 19 50 81 55 4 23 97 67 90 47 38 5 11 72 7 10 68 45 70 43 20 18 55 72 27 14 85 48 2 69 96 85 23 16 95 56 35 97 2 51 7 90 84 95 1 18 40 35 76 8 15 6 67 77 27 60 94 39 89 46 46 65 96 70 84 54 25 82 45 3 92 12 40 54 81 65 40 38 57 58 82 9 95 81 5 7 67 99 54 9 99 24 3288 2091 1533 2586 2026 1639 3123 2971 2507 3366 2224 3652 3732 2937 1858 2926 2907 1577 3566 2305 2224 2716 2888 1884 3623 1931 1982 3375 2785 3926 2969 2454 2387 2823 2330 2551 2992 2124 1775 1625 3353 3142 2716 2311 2584 1712 2463 1586 3922 3260 2378 2855 3755 2574 3856 1873 1729 1712 3000 3807 3295 3412 2685 1977 2778 2344 3516 1964 2210 3127 3424 2925 3136 3170 2620 2272 1920 2975 1570 2334 1765 1966 2859 3003 3404 3822 3589 3750 2621 2705 1639 3953 2632 2057 1803 2432 2148 1951 1588 2553 2131 3662 2926 2203 1661 1916 2335 2152 3006 2844 1594 2081 2629 2255 3366 3455 3761 2756 3561 2893 2840 3867 2934 1529 3501 3064 3405 2235 3974 2680 2548 2566 2631 3109 1769 2971 3217 3139 2191 3306 3221 3323 1820 2949 2478 2624 3814 1815 2219 1594 1871 3074 3821 2652 2443 3547 3670 3125 3295 1760 1804 2104 2656 3028 3902 3312 3079 3540 2707 2834 3307 1761 2101 3005 2379 1796 1623 2442 2529 1754 1715 3735 1801 1811 2022 1559 3697 1716 3725 3072 2570 2651 3905 1597 3230 3079 2412 1938 2756 3648
3467 3587 3317 2545 2641 1601 2293 3793 2514 1776 2198 2473 3867 3782 3210 3276 2062 2875 3171 3198 2373 2903 3919 3825 2139 2513 2861 2202 3228 2412 3901 3767 3234 1738 2659 3137 3395 3407 2138 3748 2957 2565 2290 3378 2936 2264 3067 3063 2624 3502 2939 2088 1849 2538 1677 1710 2988 3726 3931 2626 1539 3471 1957 3634 3874 3211 2736 1790 2316 3088 2231 2748 2651 1903 3948 3484 1589 1786 3283 3616 2500 1645 2047 3821 1935 3096 1509 1792 1657 2583 3891 2233 2002 3424 3050 2411 1750 2513 3697 1938 3 57 0 24 54 49 97 81 78 78 69 64 33 16 34 5 94 82 6 71 93 47 76 23 11 66 6 76 89 39 18 32 8 96 31 40 52 55 58 31 11 58 60 31 80 42 88 22 74 51 61 59 57 37 65 42 66 62 59 5 1 44 3 73 72 46 11 69 14 79 34 2 50 9 98 73 73 28 23 71 58 54 2 79 33 74 39 90 9 2 73 60 62 27 78 67 27 28 71 62 3822 2844 3002 3142 2842 2570 3814 2629 1855 3287 2438 1950 2313 3247 3607 2139 1597 2757 1551 2696 2343 3578 2660 3713 3038 2321 2253 3971 1719 3333 2533 1724 2084 1892 2216 2862 3253 3588 3320 3008 3406 2659 1864 2576 1606 3076 1714 2996 3490 2842 1565 2649 2550 2737 1764 3510 2431 2738 1983 3748 1691 2405 2705 2741 2479 3535 3251 2142 2492 2114 1717 2914 3793 2779 3481 1955 3473 2805 3570 3680 2765 2937 2355 2904 1798 1717 3438 2372 3232 2713 1863 2828 3497 2062 1663 3537 2100 2293 3029 1622 1756 3871 2577 3869 2500 2131 3720 2959 1863 2375 3977 2965 3837 1775 1616 3212 1808 3840 2365 3276 3323 2321 2510 1788 2504 1707 2594 3907 3565 1937 2228 2715 1716 3756 1695 3416 3989 3865 1881 1909 3979 2327 2294 1863 1644 3954 2577 2610 1728 2002 1677 3445 3778 1780 3857 3923 1580 3001 1982 2389 1946 1886 2096 3775 3830 3902 1599 2436 1893 3085 3336 3120 3034 1676 3876 3924 2737 2206 1936 2277 2298 3477 3873 2738 2416 3336 3715 3731 3493 2716 2583 3040 2036 3144 3556 3145 3645 2507 2331 1997
2291 1711 2145 3473 3168 1925 1991 1770 1750 2586 1838 2996 2318 2919 2882 1858 3539 2992 2977 3095 1927 1684 2348 3799 1510 3935 3161 1938 3072 3047 2103 2284 2000 2406 2427 2126 1991 1863 2453 2554 3510 3100 3225 3313 1803 1820 3729 2072 2176 3005 2484 3453 1650 2552 3978 1740 1953 3736 2539 2035 3998 3781 3818 3527 2583 2111 2934 2936 3659 2664 2767 1659 3883 1724 2685 2172 1625 3840 1775 2660 1871 1623 3727 1919 2888 1864 3128 3459 1645 1873 2190 2099 3411 2813 1777 3124 3302 3367 2492 2389 13 55 24 0 14 80 65 61 45 9 14 59 15 57 1 77 75 35 96 95 3 65 67 28 43 34 96 33 54 40 33 21 65 29 26 36 87 60 36 2 81 27 42 41 80 12 41 30 70 35 82 79 64 60 76 61 54 89 87 86 51 96 88 30 63 57 75 34 68 84 96 1 23 83 86 48 52 45 96 51 11 39 53 72 39 90 3 77 65 40 29 95 41 19 59 92 32 75 69 68 1931 3383 3549 2820 1622 2099 1790 2543 3412 3086 2921 3303 2414 3841 2292 3636 1668 2871 1884 1674 3954 1932 3203 3809 3928 2736 3841 1822 2456 2311 3077 1679 2235 3253 3284 2629 2623 2386 2610 3446 3780 3829 2923 2925 3338 1866 1767 2464 3393 3929 1965 3410 3840 3842 1533 1703 2432 3029 2284 2252 2790 2574 2955 3516 2392 3412 2933 1595 3744 3408 3361 1983 3875 3433 3303 2950 3181 3485 2063 2611 1957 2724 1905 1742 1519 2492 3546 2897 2854 1943 2496 2064 2368 1501 2140 2677 2938 1612 2911 2333 3878 2785 2044 1999 3471 2942 2976 3827 2075 3639 1538 3654 1576 2037 1823 1995 2408 1923 2200 1698 1759 3930 1987 1912 3162 3184 2372 3552 1925 2581 3391 2467 1503 1753 1675 2959 2230 3988 1502 1879 3415 1840 3001 3867 2450 2945 2134 2015 1828 3493 3698 3063 3443 3200 2313 3593 2813 1872 2341 3039 3238 1876 1765 2367 3227 2168 3052 2174 2480 2938 2843 2531 2841 2205 2265 3039 2908 3624 2950 3642 2749 2196 2382 2771 2356 1627 3789 3374 2084 3356 2807 3126 2252 2445 2659 2555 1611 3293 3438 1686
2098 2454 2295 2484 1614 1970 2163 2840 2921 2730 2605 1745 2807 3575 2517 3120 2392 2503 3935 3376 3298 2692 2058 3327 1594 3183 1619 1909 1544 3849 2238 1960 3251 1680 2458 1876 2846 3466 1517 2612 3872 2079 3598 2687 2440 2872 2147 1609 3192 2692 1979 3609 3868 3458 1925 2513 2615 2587 2061 2114 2381 2858 2614 3827 3101 3393 3439 2421 3200 3532 2603 3122 2354 2894 2713 2978 3375 1583 3136 1915 2870 3440 2696 3617 3631 3661 3620 3208 2287 3395 3112 2753 2502 2804 3754 1647 2997 2647 2459 3788 46 67 54 14 0 70 8 64 79 84 73 1 57 17 62 29 24 82 94 94 74 18 31 45 87 58 15 18 1 46 45 31 42 9 42 6 82 45 13 61 61 44 36 4 51 33 26 69 74 3 92 26 28 39 30 98 8 73 87 87 67 79 71 18 8 34 37 31 3 38 12 97 86 92 51 89 13 82 20 20 37 43 61 78 51 69 67 90 84 64 29 89 24 96 65 20 81 22 98 58 2427 2859 3735 2362 3060 1964 2699 2435 2772 1705 1523 2309 3439 2671 3254 3364 2902 2232 2673 2667 3946 3436 3846 3004 3533 2477 3781 3626 2847 2449 1668 2892 3017 3752 2556 1503 2452 2160 2823 1749 3780 3707 2017 3064 2979 2034 2228 1573 3735 1530 2539 3285 3481 1895 3718 2652 2037 3756 2243 1937 2019 2701 1911 1850 2866 3534 2132 2453 3051 1717 2815 2536 2859 3743 3702 2376 2760 1582 3711 3952 2821 2674 1837 3058 3962 2471 3227 2111 1719 2311 1729 3748 2340 2976 3835 1623 2209 3297 3866 2223 2830 1949 3174 1804 1660 3160 3679 2787 3731 2933 2965 2879 2611 2023 1822 3959 1768 3108 2667 1729 2691 2861 3823 1632 1552 3939 3975 2633 2361 3174 3056 3151 1641 2351 3896 3638 1635 3815 3631 3888 2319 3527 3828 3906 3378 3643 1775 3374 1831 2214 3872 2873 3669 3363 1949 2630 3240 2912 2776 3012 2426 3989 2146 2511 2909 2349 1557 3833 3204 3215 2722 3194 3377 2322 2650 3100 2312 3909 2293 2136 1697 2937 1615 3210 1599 3037 2453 2835 3752 1844 3921 1568 2351 1589 2936 3709 3606 2884 1509 1602
3479 2771 1890 1968 3086 3673 2174 1621 2646 2585 3783 1910 2234 2590 1623 1870 2998 3794 3147 2263 3776 2009 3191 3921 2136 1716 3455 3579 3045 2482 2976 2215 2159 2069 2846 1644 3907 3570 2980 1725 2828 2075 3614 3547 2501 3138 3412 2926 1715 2659 2926 2586 3984 3919 2364 2067 3666 2879 1655 3109 2495 3852 2689 3413 3800 2251 3041 3612 1885 2519 2970 3405 2968 2884 2576 3595 1773 1514 2788 3108 3810 3897 3400 1893 3619 1827 3996 3202 2891 2049 2204 3711 2213 1768 3412 3611 2196 1608 3909 3146 20 80 49 80 70 0 27 51 28 97 68 93 78 69 42 5 78 44 29 81 54 53 21 88 7 58 49 75 34 36 92 67 46 89 24 77 37 45 41 5 4 60 36 63 28 83 40 69 45 57 39 39 73 80 6 18 3 80 61 49 55 25 5 62 65 41 77 65 25 88 11 59 97 37 12 93 56 42 92 26 73 70 51 67 17 60 6 89 8 49 45 38 70 19 35 19 54 79 43 14 2825 3834 2966 1566 3279 3661 1890 3900 1976 1592 1741 1804 3341 3371 3159 2609 2893 3099 2710 2558 1747 2798 1737 2278 1534 1725 2610 3417 2792 1971 1520 3709 1825 3764 2101 3281 1562 2263 2723 3209 2190 3766 2302 2120 3091 3226 1784 2249 3986 2659 3405 2491 3297 2051 1797 2896 2814 3825 2857 3753 3653 3049 3669 2523 2224 3507 3904 1964 2763 3588 2725 1550 3138 2621 2349 3299 1645 3826 3139 1520 2798 2290 2474 2564 3735 2867 1569 2571 3543 1592 1829 2299 2806 2186 2665 2399 3873 3792 3966 3666 3894 2970 1571 1733 1522 3850 2069 2360 2473 3016 3065 2928 1650 1957 2958 3414 3235 1962 1899 3059 2720 2093 3550 2896 3764 3108 3306 1806 1745 3990 2462 1970 2215 1921 3544 2519 3393 2987 2997 1985 2678 3838 2980 3097 1554 2017 2532 3317 3083 2284 3175 3064 3306 1669 3902 3233 3475 1657 1982 2427 3270 3514 2921 2783 3596 2927 2916 2899 3299 1533 3420 3229 3576 2580 1925 2709 2386 2105 3831 2748 3489 3391 3539 3828 3826 3044 1708 2774 3789 2048 2540 2106 1836 1631 3750 3352 3659 1704 2199 2564
3691 2313 2635 3876 3523 1726 3264 1983 2826 1576 3632 1693 3277 3345 1740 3933 2158 3255 1617 3307 2924 3509 2317 3755 2803 1958 2886 3948 3942 2939 1521 2855 2175 3645 3591 3754 3451 3997 2965 3072 2180 2286 3453 2081 3762 2849 3333 2336 3979 3006 3768 3151 2233 2445 1552 1995 3617 1684 2373 2279 3008 3819 3853 2594 3725 3331 2719 2717 2717 3360 2186 2937 3710 1709 2635 2083 2015 3714 1554 3873 2832 2392 1841 2502 2801 3362 2432 3925 3817 2189 2881 2486 3129 3267 2865 3682 3645 2122 2394 1569 87 14 97 65 8 27 0 34 39 4 68 87 7 46 28 41 66 88 28 30 25 88 22 34 55 82 45 22 55 96 77 68 88 63 99 26 60 14 71 39 64 98 53 92 24 61 62 86 26 75 42 85 26 37 34 10 46 59 50 12 98 6 93 74 77 25 29 92 64 15 88 59 78 75 32 76 12 90 28 99 21 71 33 30 40 26 18 89 38 91 94 73 69 43 61 54 56 93 9 69 3805 3995 2532 3775 2530 3959 3395 2429 2138 2933 2369 2561 3382 1966 1820 3705 3778 2603 2662 3429 2441 3816 3194 3097 3941 2902 2195 2786 3339 2227 1640 3886 3683 2076 2557 2326 2592 3960 3686 3944 2610 3600 2395 1996 1835 2011 2847 1701 3960 2024 3182 1722 2394 1798 2008 1678 3136 2697 3121 2068 3810 3449 1833 1625 2185 2506 3236 2646 2137 2708 3134 2848 2398 2475 3035 3351 1854 2899 2061 2232 1891 3013 2627 3765 2143 3160 1884 3811 1773 2357 3517 2626 3838 2911 1727 3937 3678 1820 1923 3274 3654 1624 3516 2526 2700 2634 1758 2822 2576 2375 2672 3915 2792 3299 3631 3582 2545 2606 3794 3265 2411 1787 3265 3348 1798 3124 1884 2707 3021 2096 3697 2717 1863 3511 1677 2065 2409 2024 3304 2227 2624 3393 2216 3302 3452 2972 1997 2214 1951 2422 2057 2039 2509 2665 3890 3081 2951 1788 3780 2430 3480 2037 1980 2809 2859 2676 1589 1922 1668 1528 3443 3881 3455 2961 2479 3873 3162 3486 1665 2397 2058 2614 2844 3293 2515 3984 1548 2357 3534 2593 3363 3077 2910 1929 2269 3288 2251 2344 1580 2266
1698 3238 3279 2290 1639 2987 1606 3140 2189 2937 2522 3986 2836 3924 2407 3913 3054 3743 3282 1986 2969 2738 1598 3626 2438 2680 2203 2363 2311 2977 3429 1721 1516 2943 2436 1709 2366 2436 2214 1828 3811 3403 2580 3106 1569 3713 2263 2572 1627 3033 3312 2161 1948 2082 1597 3365 1515 2119 3509 3929 2981 1778 3289 3712 3436 3228 2865 2649 3343 2498 3001 3411 2837 2282 3679 2533 2665 3612 2652 1885 3533 2789 3029 1745 1644 2855 3789 3423 2066 3985 3925 1774 1878 1894 3455 2036 2480 1733 2610 1842 28 58 81 61 64 51 34 0 2 54 37 75 34 91 60 85 20 19 44 96 24 5 26 64 1 83 80 17 84 69 80 94 54 70 52 22 36 45 23 66 85 43 89 61 55 27 54 84 86 73 31 49 11 49 30 66 77 78 87 74 47 42 71 83 8 5 47 79 24 63 31 56 33 19 31 53 56 39 24 7 87 11 61 35 46 96 73 8 39 1 7 1 48 51 35 51 12 19 36 51 3502 3540 2932 2756 1951 3075 2973 3876 3936 2626 3254 2342 3919 2652 2499 3553 3505 3694 2879 2545 1587 1898 1725 2034 3895 3404 1560 2172 1604 2619 2010 2417 1521 2540 2464 3316 1783 2730 2500 1773 2620 3272 3209 2424 3024 1701 3654 3464 3362 3765 1610 2667 3902 3232 2253 3433 2531 3610 3016 2932 2416 3424 3734 2104 3585 1810 2025 3785 1928 2250 2843 2298 1615 3717 1601 2022 3934 1983 3549 2818 3083 2561 1576 2993 1730 3103 3727 2943 2170 3416 2004 3553 2668 2301 2896 3183 2683 2459 2175 2956 3519 2974 3662 2484 2208 1639 3601 1895 2280 1524 3425 3652 2305 2602 3003 3808 1962 3050 3092 2694 2330 3747 3737 3577 3351 2935 1742 1685 3778 2480 1947 2720 3837 3452 1995 3244 1776 3168 2247 3886 2191 2652 2440 3400 1775 1706 2785 3119 3434 3794 1986 1686 2118 3114 2531 2148 2165 3793 2223 3344 2151 2055 2907 2903 3389 3310 2511 2953 2537 2003 3920 3634 3598 1692 1615 3887 2688 3620 3245 3848 2571 2960 1689 2350 2847 1673 3866 3325 1708 2979 3772 1558 2970 3478 2699 2770 3898 1705 2427 3840
1646 3985 3453 3223 3768 2333 3999 2766 1755 2514 3612 1520 2792 3276 3891 2714 1799 2609 3011 2580 2762 3656 2814 2191 3397 3248 2606 2346 2899 2275 2045 2361 1875 1996 2534 2530 1994 3576 3282 2584 2381 2381 2014 2425 1720 3040 1599 3740 2487 3828 1650 2216 2521 2847 2437 3028 1988 2082 3576 3202 1836 2154 3828 2891 3054 1529 1845 1544 2740 3416 1725 3617 1926 3458 3125 2061 3099 1689 3212 3855 1642 2040 2748 3941 3993 1530 3823 1979 3097 1626 2700 2249 3319 3765 2794 3875 2797 2453 1779 2039 21 19 78 45 79 28 39 2 0 78 85 81 82 22 61 62 81 78 47 49 65 15 3 70 33 72 55 45 71 43 81 17 44 10 68 30 53 41 85 91 67 33 91 75 3 91 15 44 58 16 49 7 96 51 23 96 56 90 42 25 91 61 30 88 74 52 60 51 56 21 33 12 44 43 31 10 86 28 72 89 11 20 11 73 23 84 71 27 71 19 51 90 47 1 18 46 41 67 25 61 2980 2878 3417 2058 2288 3540 3157 1597 3881 2761 2728 2866 2805 1853 3388 3889 2270 3485 3073 3426 2760 2384 2889 2655 1928 3937 3445 3460 3357 3729 1690 2358 3702 2617 3351 3717 1925 3479 2018 2552 2821 1901 3207 3507 2953 1875 1748 2476 3772 1513 2753 3471 2654 2664 3392 2196 3468 3316 3390 1530 2822 2516 3571 1926 2293 1575 2812 3132 2202 1891 2319 3470 3953 3575 3449 3347 3405 3297 3312 3577 3255 2034 2774 1844 3862 2220 2756 3174 2680 3117 1590 3339 3902 3589 3720 2614 3408 3399 1660 2408 3899 3430 2774 1689 2814 1613 2933 3262 2069 3320 1752 2863 3969 2313 1703 2076 1877 1932 2079 2218 3692 2948 2882 2357 3050 1911 2970 1860 3328 1636 2675 1727 1808 1935 2071 1547 3132 3902 1977 1865 1652 2510 3642 1694 3014 2483 2517 3790 2351 2618 2693 2581 2426 1949 2010 3923 1817 2418 2756 2066 2042 2763 3527 3781 3431 3008 3305 1647 2694 3783 3102 2161 2168 2606 2873 1969 3052 3048 3891 2042 1800 2944 2384 2016 1652 2321 2359 2137 2416 2540 3577 3225 3549 3138 2976 1903 1684 1887 1701 2244
3178 2409 3610 2441 3014 2901 2953 3920 1712 3629 3786 3467 2781 3049 2189 1671 2894 3608 3152 3406 1887 2658 3501 3088 3145 2173 2744 3186 2703 1707 3299 2405 3644 1624 3545 1916 3980 1989 1593 3674 1831 2978 3215 3942 3835 2724 3058 2264 3971 2435 2950 3205 3294 3751 2390 2650 3298 3690 1685 2537 2630 1914 3269 3778 2588 2305 1914 2797 3600 3090 3372 2590 2691 3032 3443 2489 2327 3339 3496 2673 2164 2370 1702 2612 2656 3615 3232 2524 3130 2949 3142 2297 2399 2366 2792 3626 2181 2162 2349 3818 81 50 78 9 84 97 4 54 78 0 71 47 87 80 44 42 71 93 32 67 47 17 60 16 21 84 97 48 37 23 50 87 85 73 20 91 87 63 6 90 17 75 17 22 79 68 12 21 73 48 24 19 59 97 83 91 97 75 43 47 31 84 11 34 43 32 32 86 77 67 77 76 52 10 27 37 88 34 2 79 1 15 52 99 89 51 65 89 36 4 59 14 23 39 27 64 87 97 7 10 3102 1868 2227 3510 2469 2881 1672 2230 3798 2127 3190 1792 2587 2101 2583 3262 3510 2284 3752 3510 3952 3903 1532 3387 1880 3238 2530 2232 3494 1538 1719 3986 2131 1581 2425 2304 3571 3509 3332 3405 2239 2104 2222 2267 1746 3748 1513 3156 2697 2867 3547 1707 1857 2613 3307 3431 2825 1998 1588 2242 1830 3474 1678 1654 2066 2493 3153 2731 3822 3451 3004 3202 3289 3214 2409 2930 1741 1548 3571 2338 2254 3857 2367 1758 3386 2428 3578 3383 2507 2663 2982 2932 3879 3294 2929 2249 2372 2979 3992 2078 2284 3302 2780 3532 3606 3157 1991 1988 2067 2926 3451 2411 3758 3376 2320 1661 2923 2265 1526 2139 2626 2011 2224 1819 3701 3769 3930 3610 1847 3819 1509 2272 2337 3912 3934 3239 3198 2492 2180 3689 3569 1798 1964 3290 2209 1848 2606 1840 2983 3846 3258 1616 2123 3955 2192 2580 2167 1775 3420 3303 3203 3404 3189 1783 3651 3541 3026 3993 2462 2031 2075 2581 3368 2188 2352 3044 2295 2978 3043 2450 1945 2795 2471 2501 3991 1591 2629 2781 1664 2516 1723 3626 2992 3262 3792 1943 1582 3075 2717 3133
2340 3452 1977 3931 3381 3210 2427 3553 3650 2728 3651 3603 1909 1519 1947 2143 2263 3681 3150 2619 3531 2860 1697 3833 3607 2560 3530 3426 3859 3176 3384 2518 1711 2373 1744 3586 3423 3031 3427 3171 2271 2689 1507 1985 2194 2822 2761 1893 2970 2867 3501 2687 1563 2073 2580 1916 1945 3892 2736 2049 3556 3247 3273 3099 3883 2759 1956 2312 3630 3135 1592 2747 3276 3500 2740 2001 2052 3411 2456 1541 3432 3279 1606 2203 2714 1881 3011 2412 1770 1771 3029 3175 1970 2082 3459 2988 3016 1791 2541 1771 97 81 69 14 73 68 68 37 85 71 0 63 7 87 18 56 33 26 43 43 51 84 46 93 85 69 71 63 95 17 2 24 72 86 18 23 6 98 86 63 21 63 49 76 19 73 5 80 9 60 14 81 99 21 67 80 9 92 58 80 94 72 75 95 30 15 19 79 58 62 42 17 59 41 52 27 23 24 10 87 95 39 73 90 21 85 62 66 32 73 66 38 89 76 39 74 70 26 13 58 3522 3785 2445 3169 3757 3202 2067 3511 3589 2902 3522 3584 2604 1856 2335 3047 3396 2051 3576 3206 3735 3924 2142 3228 3497 3704 1854 1950 2651 3471 3806 1691 2324 3311 1666 1517 2325 2614 2364 2647 1950 2042 1708 3650 2390 2627 3824 3532 3333 3112 2710 2096 2245 2195 3198 3467 2020 2694 3380 2555 1953 3545 3631 2909 1929 2170 2455 3026 2549 3715 2775 3695 3645 3425 1694 3044 3671 3550 2968 3326 3258 3679 1717 3842 3368 2811 3637 1879 3707 2856 3677 2308 3925 1798 2376 2199 1778 1804 1843 1622 2450 2276 3029 3236 1662 2757 2809 3393 2367 2949 2940 2179 2108 2560 2060 3853 1502 3475 3467 3562 2068 2802 2629 3018 3047 2871 2184 2632 1892 1628 2724 3099 2179 3627 1538 2623 1529 1760 3637 3420 2522 3885 3578 3609 1863 1683 3318 2688 3439 3944 3497 2443 3778 2037 2824 3364 2586 2607 1540 2803 3478 3192 1937 3485 1864 1866 3437 3297 2867 3734 2417 3305 3655 3940 2100 3692 1683 2797 3060 2524 2572 3605 3089 3301 2300 2400 3285 3970 3084 3489 2086 3003 3056 2105 2011 1984 3749 3989 3358 2605
2934 1792 3194 2735 2331 3492 2560 1660 1806 3811 1709 3181 3771 2447 2020 1809 2558 1525 2377 2833 3890 3072 2997 2861 3616 2689 2723 2572 3800 3524 2503 3232 2884 1977 2845 1719 3854 2191 2011 3807 2910 2815 3373 3927 3398 2723 2834 2334 1911 2780 2767 2241 3552 3773 2629 2134 2768 1567 2656 3140 3875 3754 3551 3530 2688 1953 1900 2999 2263 1536 2831 1893 1953 2984 3638 2686 2180 3967 1980 3254 3242 1637 2784 1537 3651 3031 2958 2799 3106 3471 3900 1881 2869 2967 2152 1829 2109 3510 2463 1875 82 55 64 59 1 93 87 75 81 47 63 0 3 19 2 65 34 74 36 23 36 53 9 75 73 88 78 6 76 55 7 64 59 98 52 21 71 32 91 67 48 49 22 30 85 24 49 33 22 40 59 45 24 47 82 12 15 1 75 95 65 86 93 49 11 63 61 3 50 98 59 53 23 20 62 71 70 49 26 21 85 4 93 74 54 46 10 70 79 86 24 22 80 65 64 14 29 8 79 13 3982 3957 2663 3930 3230 2123 2733 2217 2099 2570 2349 3824 1549 1778 3043 2772 1583 2666 1542 3359 1557 3269 2716 3323 3049 2614 3204 1607 2980 2916 2184 1683 3923 1972 2895 3272 3101 2919 2978 2540 3556 3375 3080 1856 3598 3154 2823 1971 3063 1892 2272 3627 3598 3186 2084 3718 3784 3408 2510 1844 3119 3502 3551 3794 1855 3168 2878 2151 2367 3005 2091 2269 3631 3756 1757 3716 3003 1921 2044 3552 1960 2414 1638 3142 3517 3325 2787 2637 2636 3277 3531 2006 3932 3738 3678 1618 1619 1683 3618 3477 3770 2150 1930 2702 3318 3355 3293 1882 2953 3245 1989 2966 3616 3301 3232 2470 1617 3573 3230 3486 2033 2006 2216 3523 2579 2467 2598 3991 2499 2290 1789 2193 3784 1842 2686 1635 2085 3293 3541 2328 2432 3597 3431 3603 3782 1640 3980 2052 3355 2277 1835 2854 3923 2210 3821 1509 2692 2597 1832 3388 2354 3692 1669 3103 2687 3829 3943 3879 1549 3193 1678 2818 2703 3811 2493 3851 3261 2186 2754 3695 1655 1950 2843 1750 3622 1708 3031 2439 1562 3584 2529 3493 2486 1521 3235 3498 3707 3697 3802 1886
1875 2713 2175 2923 2739 2976 3008 3617 3284 3640 2191 2942 1704 2589 1953 3649 3987 3818 2095 3016 3449 3737 3905 3222 2250 3873 3523 3515 3754 3302 3782 2482 3821 3924 2252 3413 2010 2600 2628 3334 1699 2124 3638 3026 3908 3985 1929 3303 3868 3100 2602 2837 1520 3599 1508 3076 3534 2348 1745 3014 1766 2215 1998 2109 3100 1971 3227 1866 3064 3545 3067 2593 2914 2876 3000 2212 2706 1966 1761 3098 2740 3940 3294 1971 1753 3071 2127 1898 1983 3112 1939 2544 2082 2651 3261 3798 2220 2335 1967 3274 98 4 33 15 57 78 7 34 82 87 7 3 0 46 92 18 6 65 58 29 71 3 85 99 77 7 17 92 86 61 10 51 66 29 22 7 96 60 66 34 73 63 43 7 91 33 18 66 90 30 51 72 10 63 48 76 39 11 91 95 10 68 67 27 52 44 74 13 48 69 30 80 9 7 57 87 46 85 22 40 27 33 57 99 70 58 11 88 33 90 1 19 6 80 90 20 42 20 36 73 1759 3050 2479 3549 1816 2323 2539 1701 3667 3167 3471 2853 2791 2916 3318 1659 3333 3144 3611 2605 1940 2796 3888 2290 3851 3401 2701 1694 1895 2105 3638 2708 1717 1732 1679 3482 1780 2124 2479 2596 2558 1982 2914 3360 3178 3622 2676 2472 2781 2134 3700 2110 1568 3067 3865 2485 3249 2388 2939 3179 2127 1703 2308 1890 2354 1827 3361 2626 3159 2083 3111 2874 2321 2609 2630 2509 3268 3515 3209 3290 3629 2478 3961 3782 2164 3782 3644 3645 2538 2820 1670 3016 2431 3534 2055 3394 3804 1819 2554 2513 3350 3238 1654 3818 2278 2334 2236 2213 3863 1885 2571 3919 3489 2237 3406 2707 3515 2644 3266 2160 3670 2865 1595 2299 3378 3957 3934 1918 2556 3298 3714 2473 2887 2115 3420 1710 2525 2656 2464 2653 2097 3236 2272 2187 3988 2525 1989 3911 2148 3994 1636 1773 3225 2074 2845 3394 2314 1778 1794 3705 1968 2777 2057 2723 3275 2704 3998 3500 1610 3805 3164 3564 1984 2537 3390 1863 1819 2177 2031 3470 1819 1908 1668 1997 3174 2811 2548 3871 2503 3142 3231 1858 1997 2224 3629 2465 3837 2384 2379 3006
3650 1513 2422 2681 3346 3124 3146 3399 3688 2163 3959 2174 2244 3999 3124 3916 3519 2121 2851 3094 3110 2824 3576 3892 1747 3536 1897 3801 1892 2882 3503 3557 2223 2372 3287 2365 1664 2280 2781 3740 3851 3027 2619 1524 2939 2617 2043 3479 1812 2680 2062 2836 3808 3900 2715 2022 2052 2379 3740 2040 2993 3354 2846 1827 3512 3167 2441 3318 2543 1855 3350 1756 3969 3616 3273 2997 2825 2938 2397 2393 2565 2403 1788 3992 2057 3762 3403 3069 3493 2807 3162 2555 1956 3937 3912 1613 1758 3467 1589 2074 28 23 16 57 17 69 46 91 22 80 87 19 46 0 51 17 34 78 96 57 99 82 40 26 67 5 3 8 82 72 76 95 42 56 96 1 59 76 56 62 94 63 55 20 59 38 57 74 44 51 87 51 71 10 78 46 11 86 71 97 69 86 81 74 11 32 38 47 22 2 79 88 64 52 67 52 29 13 43 94 55 41 84 13 98 57 29 32 90 81 41 67 9 45 24 40 74 88 60 13 2665 3912 2388 3791 2549 2874 2660 2637 2146 2079 1953 2324 2979 1933 2699 2477 1865 2232 3449 3997 2543 1790 3671 3502 2376 3843 3894 3311 3831 2894 2627 3396 1967 3023 1833 2076 2889 2516 3208 1778 3732 2597 3376 3796 3816 3427 3457 3433 2974 2911 2873 2995 1725 2444 2005 1730 1525 2982 1986 2192 2717 2892 2980 3688 2207 3243 3706 3992 3831 2049 2907 1726 2987 2426 3381 1669 3774 1684 3651 2945 2398 2156 2490 2475 3200 1961 2489 3232 2707 2260 3221 3280 1661 2894 2383 1593 2034 2068 1770 3202 2285 2963 2801 1657 3746 2270 2684 2366 1511 1679 2189 2467 3427 3073 2637 1508 1862 2253 2620 2119 2790 2617 2697 2839 2966 2144 2976 2413 3521 3646 3081 1585 2562 1899 2807 3477 2346 2320 1778 3963 3837 1737 2524 2037 1797 1867 1599 3308 2098 2700 2323 2481 3518 3171 2760 3819 2693 2459 1874 3635 2360 2631 3626 3322 3887 3469 3918 3630 3654 3947 2513 3624 1733 2983 3088 1813 2516 2128 1957 1866 3368 3314 2216 3990 1988 1684 3461 2695 3868 3227 1836 3847 3050 3716 3333 1539 2934 3518 2831 2231
2625 2556 2426 3708 3609 3155 3468 2068 1872 3193 3706 2718 1585 3723 2662 2127 3230 3641 2812 1527 2604 2818 1944 3816 1682 3224 3811 3679 3367 3943 2036 3532 2973 2515 2028 2746 3357 2046 2163 2892 3017 1754 2963 1881 3881 3705 3881 2124 2777 2926 3362 2375 2198 1957 1895 3639 3497 3379 1703 2535 2850 3404 1923 3488 3961 1848 1511 1771 3514 1737 3546 2123 3962 3401 3396 2751 2749 3097 1610 3763 3645 2548 2432 3568 2616 3026 2917 3740 3690 3968 3259 1827 3305 2490 2470 3187 1528 3244 1600 2863 73 97 34 1 62 42 28 60 61 44 18 2 92 51 0 57 66 97 72 33 68 98 11 78 49 41 74 6 44 61 90 24 47 91 85 21 43 12 40 78 98 14 4 56 39 33 84 24 71 36 97 58 53 88 28 22 18 15 31 81 60 59 91 34 62 39 19 66 13 49 56 54 53 82 1 86 74 84 22 13 26 84 68 79 28 6 81 20 7 81 53 85 51 84 27 83 27 7 57 14 3925 3072 2683 3139 2352 2788 2201 3243 2821 3477 3759 3919 3203 2538 3776 2902 3270 3522 3888 2383 1754 3528 3404 2509 2102 3178 2244 3851 3184 1833 1555 2673 2418 1821 3298 1637 2317 3768 2203 2766 2369 3217 3065 2905 3630 2281 1965 2879 1640 2585 3803 2685 2615 1694 2276 2280 2454 3704 3773 1689 3176 1719 2099 2386 3464 1802 1512 2305 2865 3110 3403 2366 2817 3695 2790 1649 3910 3399 2582 3365 2425 3294 2144 1852 3531 2315 3183 3023 2663 2588 2217 2733 1891 2288 3150 3406 2411 3778 3169 3082 1756 2808 3346 2272 2814 3848 3055 2433 2950 3528 2013 1612 2357 2106 3091 2850 3542 1556 2537 3292 3047 3455 3663 1946 3502 2738 3735 2125 2047 1667 3520 2730 2401 2616 3975 3949 1530 2807 1650 2488 1588 3680 2026 3168 2116 3899 3142 3866 1502 1690 3559 3289 2991 3374 2780 1520 2853 2100 2537 2565 1755 1772 1912 1811 3468 2919 1510 2653 3638 2981 3402 1946 2412 2050 2070 2381 3535 2491 1703 3707 2761 3319 2882 2931 2181 2561 2514 3246 3187 2632 3527 2395 1760 2001 1583 1618 1597 1512 1563 2434
3737 1535 2939 3556 2998 2060 2828 2071 3819 2307 1741 1978 2129 3314 3571 3875 3024 3833 2238 3508 3830 2523 2353 3247 1897 3357 2073 2438 3081 2103 3240 3464 3976 3215 3136 3397 2537 1581 3395 2035 2165 2827 3152 2131 2102 3939 2317 3025 1899 2179 3181 3397 3867 2365 3576 3626 1642 3383 2026 1973 1965 3446 1500 3815 1759 1540 1994 3746 3803 1613 3408 3963 3342 3015 2793 2208 2606 2149 2813 3318 3208 1659 2107 2877 2883 2099 3876 1666 3900 3840 2633 3371 2873 2194 2591 1841 2285 1986 1714 3987 20 67 5 77 29 5 41 85 62 42 56 65 18 17 57 0 40 22 72 55 81 51 10 46 81 54 69 36 26 95 92 59 76 97 1 57 79 87 87 35 94 69 60 11 86 4 88 20 71 93 45 81 34 84 14 69 56 93 5 9 23 62 85 70 98 56 71 45 45 86 63 93 84 82 59 46 18 78 91 59 95 26 86 53 86 81 63 61 6 93 73 9 67 85 76 72 46 92 19 59 3118 2254 2562 2425 3099 2157 3422 3691 3732 3679 3210 1855 2244 2850 2627 1973 3405 3383 1775 3799 2039 3847 3627 2326 3789 3732 2335 2679 3032 3934 3123 2570 2110 2832 3153 3556 2204 3774 2914 3630 3219 2069 3534 2682 3103 3061 2750 1838 2278 3534 2813 1978 2102 3872 3985 2115 2528 3754 2655 3199 3778 2790 3930 1605 3787 3309 1869 3198 3547 3853 1989 2374 2708 3566 3648 2481 2972 3798 3318 1713 3966 2655 3607 3072 2607 1857 1821 3246 3789 1553 2830 3034 2489 1507 1723 2149 1834 2445 2893 3786 2930 3896 2675 1732 2364 3794 2051 2166 3392 2024 2529 3882 2123 2542 2365 3493 2991 3007 2210 3159 3947 1599 3404 1504 2459 2447 1570 3385 2699 2594 1587 3021 2884 2842 2008 3630 2897 2498 1983 1891 3866 3664 1565 3420 3148 2560 1906 3889 3195 2538 3181 2688 2625 2609 2972 2341 3257 3880 2807 2869 3031 3503 3143 1561 3395 2415 2347 2003 2340 3107 3062 2131 3648 2404 2729 1772 3253 2466 2007 1998 2517 3807 2837 3542 3717 2144 2256 2868 3281 3507 3177 2069 3233 2857 1822 1858 1600 1565 3456 1635
3490 3693 2970 2847 1509 2636 1528 3638 1775 2380 1557 1766 1615 3305 2584 3287 2975 1821 3140 3647 3172 3278 2641 3977 2157 2962 3169 3302 3431 2458 2506 3994 3120 2261 2865 3139 3058 1582 2334 2692 3111 3438 2458 1805 3010 3894 3748 2272 3197 2779 2674 2074 2033 2696 1687 2212 1884 3816 2253 2381 2499 1986 1983 2694 2678 3696 3573 1860 3603 3146 3998 2940 3335 3166 1867 2079 1903 3590 1541 3397 2880 3968 2941 3838 2389 2348 3857 3281 2039 2967 2452 2884 3361 2789 2370 3943 1780 3747 1928 3014 1 90 94 75 24 78 66 20 81 71 33 34 6 34 66 40 0 3 84 36 45 25 46 56 25 16 61 47 28 86 73 8 67 23 76 19 27 11 1 94 87 51 47 6 49 86 21 60 23 35 32 72 70 71 67 12 66 17 32 15 36 47 32 50 1 85 40 16 63 47 9 47 50 20 99 24 95 33 64 33 25 82 29 15 19 62 90 94 70 1 40 63 67 69 34 73 65 60 90 45 2510 2151 1612 3237 2076 2483 3976 3288 3195 2144 2466 3156 3810 3980 2316 2931 3585 1665 2547 2114 1509 3385 3547 2569 3461 3360 3707 2278 3133 2493 3259 1590 3461 3406 2407 2645 3453 3824 2726 2107 3017 2301 3150 1870 3677 2534 3197 1597 3552 3540 3555 2395 3236 3835 3706 2125 2213 3614 3223 3424 2400 3089 3141 3962 2983 3398 1713 1617 3283 3985 2718 2797 1816 3712 3841 3110 2635 1638 2910 2147 2305 2440 2795 2058 1631 3309 3871 2010 2865 3026 2551 1804 2730 3097 1941 2151 2394 3162 1818 3042 2251 2521 3423 3311 3748 3183 1924 3811 3303 2801 3730 3386 1817 3705 3574 2333 2090 3075 1548 1818 3605 2487 2346 3571 3382 2420 1893 2019 2424 1668 3199 2530 2728 3614 2056 3680 2357 2251 2230 3807 3995 2792 2835 2418 2466 3533 3419 3614 3019 1946 2510 2056 2212 3396 2215 3019 2285 2359 3063 3731 3134 1755 3264 3632 3089 1760 2093 2275 2549 2567 2995 3183 3933 3372 3833 3234 2955 1979 3019 1599 3134 3445 1554 3445 3182 2508 3034 3681 2245 3526 1814 1933 3703 1525 2888 2615 2343 3651 1947 3905
3263 3923 2908 1932 2858 3855 2541 3653 1831 2806 3363 1724 2863 1972 3436 2338 2258 2709 2209 2094 3053 2792 2309 3718 2099 3983 1540 1865 1577 2496 1898 3386 3986 1866 3965 2019 1521 2031 3788 2783 2588 2361 3071 1731 3128 3703 2629 3185 1699 3895 1613 2906 3748 2931 2282 3206 1604 1668 2417 3497 2853 2541 1583 1563 1819 1770 3113 3761 3770 2348 3924 2692 3843 2250 3078 1624 3992 3254 3161 3490 1755 3186 3298 3077 1617 3553 2468 3456 1630 2502 1774 3789 1669 2678 3378 3980 3652 1821 1924 3182 87 47 82 35 82 44 88 19 78 93 26 74 65 78 97 22 3 0 47 44 20 34 89 78 38 38 73 47 17 58 14 17 77 86 79 74 63 14 30 53 91 40 28 11 10 48 19 14 27 83 37 72 37 17 78 29 46 75 57 56 39 48 1 27 24 6 26 76 58 53 77 97 28 73 76 50 82 54 66 27 29 17 38 73 8 2 26 64 46 65 50 84 10 73 12 30 80 72 40 7 1512 3551 2402 1799 1957 2794 1959 1652 2095 2803 2436 3302 2669 3350 3369 3334 3277 1539 3370 2449 2916 3836 3881 1668 2717 2875 3225 2400 2553 2033 3611 2633 3320 3495 1943 1997 3523 1955 2292 3546 3471 3915 2449 1950 3161 3779 2488 3928 3565 2914 2508 2893 3790 2053 2421 2128 2783 3622 2086 1675 2351 3682 3807 2981 1684 2697 2439 1983 2065 2209 3472 1838 3044 3147 1886 3291 3820 2614 3631 2771 3131 1732 1913 3335 3585 2952 2771 2918 3586 1877 2303 3689 2098 3949 2482 1511 2186 2697 2450 2569 3147 2647 2968 3747 3338 2613 2722 2863 3710 2754 3070 2599 2249 2429 2490 3157 1778 3617 2338 3213 3142 3517 2846 3253 3102 2611 2278 2066 3680 1570 2344 3747 3736 2221 2170 2295 3486 1790 2018 3507 2783 2019 2528 2976 3555 2529 3283 3210 3302 3156 3031 3128 2679 2045 2858 3645 3782 3649 2510 3980 2916 2407 2668 1633 2697 2159 3354 2183 1900 1866 2760 2478 2724 2844 3144 1938 1667 2567 1829 2879 3579 3200 2397 3236 3040 3213 2073 3446 2097 3853 3956 1711 1816 2159 3422 2655 1533 2792 2737 1514
2076 1717 1662 2347 3164 1774 3458 1506 1933 1960 2576 3860 2620 2379 2321 3085 3500 2205 2685 3354 2971 2244 2301 2659 2705 2830 2051 2458 3484 3640 3994 2007 3220 2034 3853 2562 1643 3191 3820 3100 3098 2075 2796 1770 3390 1955 3145 2059 2922 2889 2056 1621 3273 2001 2441 2040 2435 1900 1782 2420 3055 2560 1948 2259 1880 1898 2355 2860 3166 1708 3479 3261 2178 3289 3510 2576 2083 1547 1511 2872 3940 3605 2708 2307 3186 3392 1516 3134 3508 1870 2445 2012 2775 2243 3699 1882 2631 2364 3299 3505 27 38 6 96 94 29 28 44 47 32 43 36 58 96 72 72 84 47 0 1 11 71 52 42 6 49 26 69 62 69 92 15 30 23 5 35 82 43 68 7 93 27 7 99 92 55 76 70 77 86 26 2 43 51 39 20 39 29 78 80 74 1 76 62 95 60 42 11 52 55 9 33 79 9 92 17 17 56 30 20 7 26 11 45 42 65 32 1 25 61 2 66 82 62 17 86 58 55 26 65 2183 2195 3018 2469 2408 1548 1724 3627 2767 3375 2040 2065 3987 1694 3457 3903 2581 2964 2727 3324 3469 1598 3952 2116 2120 3234 1621 3772 1565 3978 3190 3419 2012 2906 3273 3525 2309 3794 2616 2824 2372 1707 2510 3132 3253 2320 2919 2522 3195 1672 3098 2429 2847 3614 1765 3581 3493 1803 2653 3982 3516 3226 2456 2452 3289 3309 2861 2416 3815 2398 2282 1728 3608 2530 3959 2268 2882 2088 2669 2554 2626 2458 3680 2358 2445 3461 1526 2421 3834 2120 2842 2172 2968 2782 1584 2289 2810 1616 2634 1527 2050 3404 2887 3628 3306 3581 3903 2141 2378 2104 2651 3832 2646 3965 3081 3361 2443 2794 3845 1620 2404 3414 3323 2240 3792 3757 1972 3559 1960 2329 3284 2992 2442 3273 2100 3990 3599 2751 2544 2986 3097 2002 3075 2303 2956 3019 3411 3055 3658 2068 2888 2547 3692 2229 2951 1720 3800 1762 2169 3541 2534 2351 1722 2567 2031 3095 2268 1501 3408 2459 2961 2167 2551 1794 1703 3049 2381 1521 2795 2383 1924 3937 1740 3563 2342 1892 3459 2877 1651 2575 2397 2518 3908 3745 2031 2104 3867 1724 3699 2144
3417 3545 3841 3628 2203 1848 2380 1530 1894 3266 3286 2894 2249 3760 2265 1756 2354 2378 3185 1647 1702 1937 1794 3250 2187 3517 3708 2454 3965 2119 2818 1577 3769 2115 1580 3565 2393 2362 2925 2596 3913 1759 2711 2616 3669 2987 2578 2251 3154 3471 2846 1904 1725 2367 2796 1512 1637 1780 3095 3634 3300 2170 2887 1660 2808 3844 2455 3486 3676 2406 2327 3220 2014 3464 2350 3576 1540 2648 3312 2584 3620 3082 3309 3419 2436 3196 3065 1715 2414 2204 2020 2487 3732 2759 1508 1977 2769 2171 3582 1846 72 5 71 95 94 81 30 96 49 67 43 23 29 57 33 55 36 44 1 0 10 47 59 60 9 67 27 31 17 88 78 57 85 80 87 23 44 44 11 19 19 87 49 29 57 48 82 48 16 45 12 99 37 97 53 80 64 78 57 70 89 50 11 38 3 71 98 14 81 7 73 43 3 54 91 7 7 94 90 41 68 35 54 87 47 72 61 28 50 58 76 52 83 42 11 24 35 28 67 59 3440 2828 3633 1900 2767 3966 3918 2118 2015 2599 3442 2870 3915 3536 2946 3254 3828 3161 3724 2098 1961 2849 1712 3084 1947 2701 1806 3589 1680 1937 3803 1652 3422 3373 3703 1527 3297 1784 3839 2891 1870 3834 2148 3016 3708 3254 2642 2499 3627 3857 2166 1975 3142 3734 3737 2034 1896 3774 3730 1715 3112 1745 2578 2311 1937 3160 3302 1601 2370 3710 2022 3343 1865 3097 2124 2599 1853 3005 1680 3727 2748 2692 2116 2794 2443 1771 3668 2615 2560 2525 3792 2357 1832 3686 2906 3794 2936 1726 2115 2735 3782 1501 1804 2496 1613 3409 3240 1888 2069 2658 3512 3769 2681 3782 3818 2326 3405 1705 3041 2040 2450 2110 3065 3602 1878 2741 1766 3119 2055 3057 2923 2692 1932 3808 3686 2502 3883 3070 1501 3196 2978 1842 1835 2802 1979 3406 2812 1937 3605 3260 2655 1606 3524 3179 3955 3545 1541 1762 3922 2641 2367 2132 1927 3122 1592 3248 3855 3474 2102 2331 2077 3987 3973 3562 3176 2886 2525 2704 2538 1896 2955 3073 3604 3670 3018 3858 3895 3751 3003 2418 2147 2307 3563 1774 3104 3544 2855 2918 1855 2240
1630 3271 3630 3939 3418 2240 2243 1559 2525 1613 3729 3238 2370 2901 1994 3966 3109 3761 3420 2365 2344 3546 2798 3248 3741 2536 3814 3719 1886 2978 1513 3941 2400 2735 3426 2834 3849 3428 3805 2619 2671 3627 3651 2277 2122 2400 2701 3708 2357 2721 2822 2638 3198 3055 2683 1804 2770 1718 2258 2501 2525 2694 3511 1938 3588 2538 3734 3733 2355 2354 2615 2787 2464 3014 3143 3118 3728 3282 1799 3068 3000 3930 2413 2069 2372 1747 1654 2991 1816 1565 3042 3556 3359 3275 1818 2425 1570 3460 3855 2266 47 11 93 3 74 54 25 24 65 47 51 36 71 99 68 81 45 20 11 10 0 90 70 88 53 24 17 72 72 7 72 51 32 6 95 67 27 15 93 59 81 45 10 77 86 6 34 67 42 45 35 52 3 58 57 49 14 54 7 72 94 55 78 55 46 91 57 76 50 75 71 45 60 90 50 83 45 40 79 9 6 52 73 44 67 27 50 9 90 49 76 58 92 35 61 11 60 91 20 83 2704 3570 3280 2440 1812 3803 3640 2505 2769 3640 2002 3337 1934 3902 3764 3498 2545 1620 2098 3984 2465 3514 2839 2290 3115 2161 1662 1568 3342 1735 1743 1978 2886 2995 3333 2109 2444 3841 2896 3817 3713 3637 3122 3340 3003 2879 1555 1746 3752 3602 3161 3596 3677 3215 2699 3901 3101 3886 3304 3829 1957 3310 2278 2131 2761 1613 2619 2275 1707 1712 3835 2856 2525 3395 1531 1863 1704 1530 2474 3098 1577 1923 2153 2671 3419 1995 1927 2864 3228 3341 3051 3694 2626 2685 3334 3172 2905 1900 2471 2075 2971 2423 1573 2850 2931 3516 1719 2251 3656 3682 3784 2738 3913 2241 2802 2768 3404 1610 3093 2722 1797 2731 1718 2508 3935 2641 2354 1501 2843 3929 2837 2041 1759 3149 3675 1625 2828 3065 3635 2006 2020 3726 3417 3802 1879 3210 1707 3349 2226 3632 2770 3367 3272 1759 2224 3606 2413 2830 1673 2945 2660 3548 3507 1558 1797 1842 1784 3932 1608 3008 3146 2234 2411 3760 2044 3126 2987 2423 1728 2723 1659 2699 3141 3061 2654 3305 3126 3571 3181 3173 1807 1798 3960 2187 2647 3261 2386 2056 3396 3490
2925 2251 2469 3722 3438 2790 1601 1985 1854 2582 3392 2027 2802 1842 2634 3021 3177 1509 2568 3158 1995 2994 1892 1537 3157 1536 1616 1953 3523 3908 2690 3264 2803 3265 1874 1971 2328 1542 3040 2999 3085 1913 1649 3620 1613 1827 3048 3828 3125 3319 2821 2384 2255 2781 3642 3925 2268 2225 3069 3086 3516 3955 3923 3039 2293 3072 1774 1695 3720 3646 2790 3622 2174 3660 2790 3660 2522 1973 2491 3475 3632 3732 2761 2364 2771 2229 2230 3305 2070 3856 2054 3019 1831 1611 1883 2520 2238 2095 2985 3846 69 72 47 65 18 53 88 5 15 17 84 53 3 82 98 51 25 34 71 47 90 0 87 45 12 96 24 30 90 91 78 48 6 7 6 42 49 99 37 27 83 78 4 31 39 1 13 17 89 33 95 72 54 80 76 97 67 91 58 98 94 44 64 80 56 58 35 18 96 91 3 92 77 96 62 76 13 91 64 80 81 47 90 37 29 25 47 20 96 15 75 14 17 89 80 14 34 67 29 94 2995 3729 3215 3811 3433 3615 1789 3485 2426 3737 3087 1837 1500 3568 1677 1574 3398 3979 1799 1718 3017 2784 3011 2973 2931 3768 3109 3223 2279 2276 2273 1529 1881 3549 2813 3639 1890 1584 3824 2866 3735 3042 2002 3478 1525 2730 3347 3534 3971 3333 3049 3665 2419 1562 3550 3409 3132 3429 2193 2409 2902 3649 2323 1816 1802 2820 3308 2334 2520 3037 3613 1557 2795 1656 3212 2903 2791 2712 2659 1653 3781 3757 3874 1777 1971 3071 2849 2661 3189 2429 3252 3637 1644 1991 1871 3049 2203 2004 3850 1864 3248 2334 3219 2838 3445 3934 1958 1697 2010 3809 2424 3301 1811 3748 3048 2660 2903 2433 2056 2101 2611 3344 2136 2245 3594 2789 1918 3526 3865 3653 2183 2782 2965 2225 2386 1989 1866 3916 2042 3478 3438 3020 2525 3211 2641 3934 3334 3998 3763 2858 2445 3713 2844 3234 1623 1565 3676 1694 2856 1573 3660 3419 2661 3181 3106 3794 3970 3858 3829 2973 3295 2938 1603 3824 3557 3470 2123 1760 3945 2070 3937 3970 2391 3834 2130 2413 3410 2092 3395 3229 2798 3646 2255 3124 2974 2640 3001 2175 1820 1883
2511 3472 2929 3900 2316 2777 1952 3986 2112 2321 2545 1667 3290 3047 2992 3518 2660 3846 2422 2774 1950 1657 3132 1563 3571 1774 3626 3965 2323 2759 2676 1686 2647 3097 1788 1982 3795 1789 2535 2326 2408 2144 2613 3773 2816 3680 3669 3085 3246 2688 1890 1513 3374 3627 2585 2765 2931 2779 2519 3365 2631 1834 2222 1554 3356 2801 3343 3032 3933 3856 3307 3114 3146 3014 2518 2455 1831 2116 3868 3269 1511 2527 2456 1597 2900 2348 2807 2336 2094 1517 3713 2580 1548 3915 2595 1611 1792 2260 2456 2037 74 7 76 67 31 21 22 26 3 60 46 9 85 40 11 10 46 89 52 59 70 87 0 96 57 72 23 34 97 2 58 72 61 43 46 46 72 19 7 39 27 17 16 59 19 32 31 22 70 69 69 19 24 38 27 56 9 91 93 52 30 66 90 47 20 12 2 34 5 9 55 80 16 53 44 80 13 87 3 8 6 39 12 79 6 38 6 82 41 8 51 44 95 77 77 79 82 74 10 57 3229 3768 3760 2672 3377 2236 3538 2777 3971 2918 2018 3938 3411 3095 1786 1873 3452 3554 3584 1967 2614 2759 3858 2624 2008 1833 3722 3603 3893 1678 2821 2854 1845 3595 2847 3733 3544 3924 1866 1562 2171 3815 3715 3984 2756 1943 3685 1580 3021 2725 2390 3963 3824 3602 2836 2425 2616 1941 2153 1928 3281 1998 2926 3021 1965 2377 2487 2763 3537 3696 2602 3731 3735 2230 3026 2094 2100 2819 3231 1876 3654 1928 2636 3246 2334 2701 1804 3404 2668 2943 3667 3956 2881 3747 2591 2387 2568 3678 2356 1705 1535 2104 1835 2097 2460 1848 3580 3647 2063 3633 3742 2967 2958 2669 2013 2495 3728 3099 1942 2535 2737 1772 2570 1825 2840 3640 1840 2029 2676 3605 3703 2564 3491 1887 2013 3979 2999 2458 3410 2343 2712 3674 3192 1647 3298 2120 2824 2891 1763 3461 2657 2574 2224 2929 3695 1951 3966 3632 3688 1985 3110 3669 2886 2677 3094 2124 1768 2698 3695 1566 3682 3850 1753 3195 3694 3883 1940 2657 2277 2627 2328 3658 2515 3431 3612 2164 1558 2242 3244 2883 3042 3900 2542 2448 2701 2422 3229 3579 1839 3321
3991 3905 1911 1688 2209 3260 3957 3937 2436 2221 2111 2552 2446 3137 2236 2595 2543 2622 3601 3489 2955 3276 2227 2096 2041 3001 1733 3673 1768 2336 2951 2558 1911 1500 3077 2796 2694 3444 2282 2431 2542 2397 3303 3890 1701 3565 2531 3599 3743 3448 2779 2158 2397 2306 1956 3443 2446 3925 3954 2082 1823 2806 3839 1885 3265 1798 3689 1527 2001 3536 1711 1980 3304 3853 3748 1664 2886 2661 3157 3608 2233 2215 3865 1635 2836 2713 2929 3130 3050 2701 1938 2985 3805 3863 2595 3666 2905 1794 3564 3375 17 10 23 28 45 88 34 64 70 16 93 75 99 26 78 46 56 78 42 60 88 45 96 0 83 28 96 36 63 39 2 92 59 76 96 23 56 9 88 50 37 34 84 92 39 80 17 4 13 64 95 25 50 74 75 80 35 31 30 59 49 57 52 4 38 82 89 3 52 58 55 81 63 4 35 86 21 67 67 71 6 46 68 34 51 87 98 29 86 73 3 7 16 24 10 56 75 90 64 62 2145 3988 3704 1713 1944 2068 2264 3827 3519 3442 2966 3444 3793 3608 1795 2779 1779 1660 1690 3404 3933 1514 3261 1671 2479 3494 2465 2568 1604 2388 2924 2513 2959 3132 3813 2441 2746 2494 1907 3419 2488 3790 2404 1866 3607 3713 3984 2655 3764 2272 1773 1908 2790 1978 3205 3648 2541 3754 2925 3960 3832 2767 3125 3945 3330 3370 1920 3470 3999 1629 2904 3142 3981 3395 3848 3343 3766 3801 3424 1872 1821 2447 2444 2216 1749 2716 1987 3367 2749 2111 3781 2786 1969 1968 3093 2137 2812 1649 2407 2143 3151 2500 3491 1658 2283 2424 2168 3400 3387 1974 3496 2525 3118 3626 2866 2148 3375 2382 3777 1657 1721 3217 3622 3891 3634 2295 2442 2675 2125 1660 2649 2582 2270 2166 3506 1928 3246 3130 3135 2513 3239 3919 3572 2476 2440 3009 1910 1730 1834 2934 2760 2702 3216 1598 1757 2823 1904 3413 2526 2817 3337 3915 2828 2821 2243 1790 2084 1591 3017 3944 3449 2842 2902 2804 2115 3842 3590 3351 3068 3984 2141 3059 2402 2754 2469 3466 3576 3808 3701 3767 1588 3881 3690 3099 2976 3832 2732 2139 2058 3585
1996 3497 3086 2550 3641 2742 3492 3601 2071 1657 3606 2617 2504 3659 2486 3359 2790 3878 2870 2376 2883 3126 2628 3162 1958 3507 2290 2053 3346 2966 3595 3791 2152 2937 1871 3797 2567 3277 3601 1807 1884 2542 2698 3782 2527 3552 2774 2592 3494 3282 2003 2297 2817 2133 3640 3646 1719 3240 1768 3935 3673 3986 2358 1754 2407 3661 2061 3966 3793 2194 2200 3486 3379 3243 2143 3059 1898 3251 3289 1816 1669 2260 3399 2401 2821 3313 3086 1899 3271 3145 1694 2530 3418 3868 3115 1758 3554 2073 2500 2654 17 68 11 43 87 7 55 1 33 21 85 73 77 67 49 81 25 38 6 9 53 12 57 83 0 67 72 73 41 59 34 92 85 96 83 37 46 70 28 35 35 5 97 84 98 50 10 63 13 77 69 6 23 68 65 96 37 11 62 62 74 95 92 45 82 3 93 65 89 86 70 90 86 49 13 71 47 15 36 30 3 18 66 13 3 90 26 19 5 55 97 82 6 7 89 8 75 84 80 64 3657 3271 2386 1813 3267 3901 3004 2030 3743 1654 2865 2482 2937 3502 3159 2968 2034 2282 2094 2076 2188 2021 1561 1668 2785 3102 3062 2006 2530 2474 3553 1760 3230 2104 2923 2291 3395 3134 2115 3756 2140 2393 3396 1765 3542 1747 3112 2259 2758 3955 3175 2987 3294 3080 1697 2198 2849 1548 3999 3209 2613 2719 3441 2599 2955 2433 3692 2864 2861 3748 1958 3748 1905 1690 1634 3163 3901 1936 2217 2671 3181 2089 1681 1568 3326 1948 1993 3768 1916 2894 1677 3197 2721 2832 2197 1793 3981 3375 3019 2908 2396 1568 1991 3477 1531 3031 3521 3564 2307 1848 3147 3287 3936 2096 2970 3388 3207 1611 3441 2052 1919 2202 2335 2955 3493 3915 1982 3760 3466 2091 2929 2326 1742 2855 3420 2205 2132 2659 3219 1892 3138 2249 1832 3279 3018 2048 2130 3629 2553 2091 3279 3731 1829 2090 3639 2598 3990 1740 1801 3897 2125 3103 2814 3647 1832 3829 2712 2362 1564 3626 1645 2320 2496 2072 1856 2234 3567 1767 2491 1543 3996 1697 1542 2627 3606 2112 2087 3101 1820 3532 2124 2510 3265 3220 2649 3509 3511 2216 3174 3016
3866 3231 3692 1523 3224 2137 1687 2938 1762 1600 3369 3402 2149 2698 2416 3880 1542 2558 2050 2794 3194 2311 2317 3068 3714 1886 3245 2567 3556 2695 2068 2105 3445 3020 1739 1931 3583 2210 2881 3922 3714 1601 1906 1793 3788 3572 3654 1839 2026 1536 3943 3777 1732 2900 3772 3522 2886 2163 2606 1888 3655 2766 3746 2355 3727 3920 2183 3254 2350 1847 2404 2704 3871 3026 3194 2206 1746 3247 3458 3696 2878 2997 3509 2821 2752 3771 3791 3968 2833 2874 3864 1746 3207 3315 3259 2320 3118 2310 1599 2784 36 45 66 34 58 58 82 83 72 84 69 88 7 5 41 54 16 38 49 67 24 96 72 28 67 0 81 30 83 56 29 17 23 97 78 17 61 19 14 90 47 47 50 99 43 63 31 2 66 81 91 61 13 99 58 71 78 18 36 35 48 40 63 74 66 42 21 33 9 75 70 50 43 26 75 62 27 81 93 75 8 61 10 85 42 42 88 67 33 69 64 41 64 97 15 96 41 25 57 49 3209 3937 2149 2081 2218 2852 3927 3623 2646 2117 3457 2001 2154 2732 3645 2252 3706 2789 1767 3825 2269 2902 3678 1975 2187 3335 3900 2280 3309 3534 2618 2940 2117 1817 3399 2867 1626 2619 1897 2073 3514 2554 2164 2355 1604 2197 1549 3111 2541 3593 3102 2984 3538 2036 2768 1746 1709 3213 3106 2531 2417 1964 1791 1967 1580 1965 2495 1643 3132 3749 2768 3803 3182 1536 2024 2882 1601 1707 3485 1742 3555 2905 1802 1614 3725 2313 3995 1777 2722 2649 3198 1723 2812 2329 3308 3766 3669 2054 3072 1834 2811 3265 1808 2689 3122 3939 1902 2315 3659 3267 3730 3123 2850 3488 2079 3569 2371 2304 3338 1984 2032 3664 3621 1537 1725 2836 2595 2225 2015 3737 3059 3651 3171 3201 2231 1709 1745 2621 2880 3493 2778 1814 2833 2194 1877 3345 2781 2235 1601 3087 2260 2124 1779 3428 2100 3550 3414 2786 3641 1608 3378 3058 3105 3981 3808 3109 3528 2575 1733 3373 1512 2417 3607 3117 2392 3138 3028 2117 1501 2604 1828 2045 2404 1655 2050 1675 3685 3146 3203 2491 1739 1518 1660 2614 1985 1500 2560 3464 1820 3171
1726 2305 3820 1666 1500 2109 3912 2564 3069 1939 2351 3267 2720 2871 3858 3424 1621 1529 3223 3226 2309 3617 2831 2686 2869 3119 2662 2175 3007 3826 3044 2352 1826 2644 1573 3777 1813 3704 2343 1696 2942 2258 2818 2316 3437 1593 3611 2442 3720 1734 1830 3395 3355 2084 1758 2863 1981 1705 3416 3068 1998 2821 3571 2367 2914 3102 2541 2155 3179 2526 2451 2710 1929 3009 3497 2345 2704 1672 2647 3116 3860 3966 2589 2081 3030 2210 2939 2284 3031 2357 2176 3954 2311 3926 3574 3517 2477 1997 3804 2713 60 70 6 96 15 49 45 80 55 97 71 78 17 3 74 69 61 73 26 27 17 24 23 96 72 81 0 28 43 16 26 15 81 42 57 82 55 92 34 70 44 2 34 95 8 44 6 13 90 74 68 17 15 50 17 33 19 17 12 65 41 41 69 83 3 82 52 95 5 37 57 95 84 57 20 70 83 88 62 25 90 61 89 42 97 32 47 34 49 86 31 14 14 28 87 22 64 58 58 16 3033 1675 1634 2762 3744 3951 2228 2810 2921 1831 2612 3536 2893 3515 2956 3959 2395 2495 3523 2322 3944 3812 3332 1512 3340 1985 1570 3747 2368 1531 1807 2341 3445 3867 3288 2899 2892 2131 1755 2167 1638 1765 1582 1961 3106 3318 2764 3505 2439 2286 2765 3677 2969 3237 2769 2645 2010 2148 3913 1882 2317 2993 3908 3657 1813 2219 3607 2237 3394 1527 2628 1937 3911 1694 2322 3073 2789 3338 2838 2810 3370 1858 2769 3052 3470 2503 1549 2709 3784 1954 3327 2056 3934 2187 1682 3755 2980 2838 2428 3462 3698 3680 2893 3292 3324 3243 2780 3583 1606 2153 2940 2431 1590 1889 2266 2803 2998 2698 2789 2200 2840 3168 1741 1815 2670 3706 2175 2874 3832 2613 3493 3378 3432 3026 1624 1704 3157 3140 2194 1932 2675 2622 3522 2496 2833 1779 3256 3678 2950 1884 2483 2857 3874 2738 2832 3767 2661 2470 3681 2696 2873 1975 2809 3611 2187 2644 2117 1609 2294 3635 3309 3325 3288 2314 2554 2780 2496 3674 3686 3826 2091 3000 2432 2525 3638 3974 3790 2874 2863 2005 1651 3413 3336 2878 2246 3022 3496 3376 2278 1638
3057 3016 3736 2231 2173 3161 1563 1829 3020 2581 2782 3016 2837 3466 2623 1820 1884 1901 2152 3521 1863 1859 2535 3597 3571 1884 3662 2752 3256 2619 2344 3773 3980 3598 3779 2606 2617 3231 2347 2588 1933 3693 2713 1983 3031 3578 1868 1907 2063 1844 3551 3916 2108 2190 1842 1733 1812 3387 1902 2824 1621 3438 2923 3174 3934 2242 1726 1863 1996 2256 2382 2569 3429 3319 3175 2197 2437 2456 3804 1686 1618 3512 2380 3188 2594 3241 3494 2495 3653 2737 2968 3673 3801 3166 3948 3675 1669 2365 1894 1834 67 43 76 33 18 75 22 17 45 48 63 6 92 8 6 36 47 47 69 31 72 30 34 36 73 30 28 0 26 39 47 20 14 8 95 14 92 75 18 99 85 43 8 49 3 76 36 71 48 3 23 17 7 14 1 91 70 90 7 79 51 54 32 57 50 78 32 33 12 1 3 89 1 19 52 79 34 49 5 62 48 43 31 41 6 95 57 90 34 53 19 56 53 88 93 37 89 15 61 31 2245 3327 3390 1660 2934 2190 3183 3294 2778 3621 2826 2304 3132 3468 2366 3772 1875 1537 2252 3484 3255 2823 1820 3226 3846 1751 3585 2633 3872 2231 2254 2976 2058 2566 1902 2323 3813 2812 1685 2057 1569 2280 3803 2460 2374 1597 2341 2344 2329 3209 3344 2212 3317 3784 3161 2975 3869 2778 3288 2847 3197 3702 3532 2033 3684 3809 3916 2203 2659 2677 2379 2885 3923 3715 1675 2480 2026 3892 2718 2351 1731 3428 1523 2938 1687 2514 3017 2987 2283 1729 2559 3154 2799 2151 3923 1546 1831 1574 3043 3443 3950 1603 1549 2115 2051 2542 2185 2502 2798 2434 2278 3534 1657 3159 2569 1981 3193 3420 2489 3768 1606 1561 3848 2046 1704 3665 3374 3182 1992 3830 2082 3576 2159 1920 2278 1519 3282 3379 3275 1934 2881 2709 3012 2077 3644 2499 2420 1583 3543 2577 2746 1638 2252 3816 2027 1653 1744 2492 2366 3548 3197 2212 2562 2095 3940 2965 1525 3701 3450 3124 2740 1764 1883 3912 1864 3117 2737 1978 2727 3465 2831 2306 2904 2322 3569 2967 2294 3301 2344 3952 3980 3842 1501 2120 1900 3891 3252 1640 3241 1974
2950 3491 1637 2947 3080 3563 2923 3150 1798 3126 1746 2657 1837 3635 2384 2098 3359 2360 1713 3437 3409 1924 3225 2813 2896 2012 2550 2916 1556 3392 3253 2280 3294 1723 1512 3450 2402 2358 3947 3400 1596 3231 3137 2021 2069 2955 3439 2717 3640 1684 3166 3575 3940 3554 2453 3418 3140 2939 3970 3760 2561 1739 3027 3758 3048 3263 3508 2022 3925 3727 3948 2008 2806 2188 1936 2080 2206 2893 2265 1960 2585 1783 1503 1524 3631 2592 2537 2801 2803 1618 3038 2452 3174 1929 2529 2658 1666 1968 3207 3120 13 20 89 54 1 34 55 84 71 37 95 76 86 82 44 26 28 17 62 17 72 90 97 63 41 83 43 26 0 1 31 46 33 42 45 58 46 60 79 72 95 37 89 84 87 7 19 51 72 84 38 27 80 93 37 66 89 47 35 84 92 90 56 82 25 50 50 69 91 41 22 90 42 43 40 54 90 49 8 2 36 53 11 1 18 72 40 75 76 4 5 39 33 46 51 83 23 38 55 62 2084 3386 1986 3865 2737 1779 2264 2161 2185 1950 3048 3697 3615 2802 2319 3146 1662 3518 3344 2718 3154 2550 1712 3480 3046 2459 2694 1646 2666 2652 3482 3458 3136 2208 3165 3656 3111 2230 2650 3931 3497 3496 3136 3674 3411 3448 1897 2725 1977 3016 2041 3543 2297 1925 3510 1952 2765 3052 3452 2411 1697 2732 3439 1803 2281 1842 3127 1991 3961 2723 2895 3578 2745 3044 1756 2443 2667 1683 2055 2906 3906 3221 1714 1990 2368 2819 3028 3453 2447 2278 3359 1665 1735 3258 2437 3754 2830 3451 2111 3458 2990 1557 2285 1750 2166 2193 2208 2768 3249 3057 2042 3614 2117 3105 3580 3949 2647 3056 3897 3658 1690 2706 2492 2471 2985 2034 3814 2909 2843 1886 3762 2851 1623 2244 1722 1770 2768 3068 2619 2466 1560 2521 2990 2494 3367 2397 3465 2758 1696 2010 2745 3543 2689 1899 2296 1800 1593 3837 2020 2693 3809 3524 3249 2001 3912 1545 2488 3830 3923 2201 3807 2424 2864 2708 2074 2319 3579 3856 2885 3267 2122 3663 2442 3491 1732 2278 2913 1609 3430 1835 2091 1990 3918 3134 2974 3975 2595 1741 2158 3707
3747 3286 1620 2501 3058 3962 2038 1511 1901 1919 1617 2293 2256 2187 3973 3445 2928 1806 3662 2403 3105 3975 2656 3302 2409 2034 3242 3549 2132 1782 2316 3124 3094 3201 2116 1620 1815 1921 2997 3648 2549 2601 2733 2195 3035 3224 2253 2491 3488 1813 1908 2449 1502 1825 3230 3127 1579 2542 3123 3171 3998 3002 1860 1503 3657 3143 2086 3484 2756 3501 1646 2166 2670 3534 3422 2063 3924 3745 1826 2646 1700 1977 3046 3405 2859 2429 2699 3083 1818 3750 2624 3259 3527 1584 3163 1972 3416 2178 1804 3677 69 18 39 40 46 36 96 69 43 23 17 55 61 72 61 95 86 58 69 88 7 91 2 39 59 56 16 39 1 0 10 1 65 18 84 65 46 47 21 2 46 89 47 57 17 78 25 21 22 84 87 94 78 46 40 78 99 32 98 92 10 10 39 29 42 91 9 94 32 8 20 62 6 43 56 52 47 60 74 61 64 5 17 84 51 20 23 19 98 43 54 64 2 27 44 87 12 52 73 22 1709 2504 1772 3678 3468 2577 3940 2992 2748 1564 2809 1936 2109 3938 3687 2811 2216 2530 3406 3744 2288 2842 3960 2844 3886 1567 1966 2831 3387 3784 1752 1990 3509 3716 1790 3718 2903 2014 2893 2542 3099 2946 2799 2067 2910 3269 3951 1991 3052 3266 1706 2335 2688 2813 2532 1759 3138 3503 2658 1783 2798 3904 2373 2134 3641 2446 3702 1521 2880 3280 2005 2887 2525 2095 1801 2147 2576 2562 2582 1697 3902 2971 2580 2964 3067 3369 3344 1844 3583 3504 3242 3755 1676 2330 2777 3753 2262 3740 2491 2714 2836 2750 3723 2570 2885 3135 3340 1858 1690 3487 2087 2305 3676 2796 2044 3813 1600 3929 3752 3757 2408 2059 3092 3813 3376 2209 2380 2033 2958 1504 3990 3183 2909 2502 3025 2938 3754 3604 2386 3997 3621 2924 3955 1654 2798 2005 3315 2089 3474 1570 3016 3169 1587 2122 2046 3091 2197 3177 3333 2015 1706 2824 3954 2266 3530 2194 1550 3554 1561 2037 2068 2967 2864 3200 2831 2265 1526 2762 1796 2980 1713 2955 2830 3624 1977 3314 3516 1934 1584 2088 3311 2550 1751 2334 1888 1786 2700 3335 3885 2131
2246 2063 3342 2518 2252 2583 3004 3887 2032 2003 2570 1725 3297 3342 1826 2122 2393 2596 3836 2063 3611 1899 3214 2915 2458 1597 2570 1593 3922 3807 2967 3983 3941 2797 3773 2826 2515 2992 2987 3107 3132 3473 3586 2329 2917 3933 2716 2574 2779 2969 3801 1515 1877 2483 3292 2011 1801 3604 2875 1665 3542 1639 3116 3465 2965 2313 1987 3790 3917 3873 3892 3270 2912 3896 3667 2139 2772 2363 3445 3010 3892 2711 3097 1501 3445 2513 3619 3220 3457 2060 1912 2782 1512 2201 3456 3880 2247 2779 2322 3680 12 55 18 33 45 92 77 80 81 50 2 7 10 76 90 92 73 14 92 78 72 78 58 2 34 29 26 47 31 10 0 38 51 66 68 88 30 86 40 55 12 6 33 22 40 1 73 92 80 35 29 10 65 77 89 16 75 51 72 41 84 98 10 6 21 27 29 54 24 53 18 47 77 62 58 31 41 41 62 91 40 58 31 82 20 90 4 63 52 37 88 10 2 76 3 61 23 91 34 96 3304 3075 2477 1820 3949 3663 3321 3104 3947 3991 3830 2988 2908 3890 1891 1738 2740 1696 2916 2916 3112 1942 1774 2603 3727 3624 2053 3852 2035 3977 1600 3787 2829 2331 2502 2585 2454 2246 3289 2955 3715 1820 1617 2401 3038 3717 3163 2555 1546 3537 2460 3794 3065 2821 2430 2480 2181 3587 3407 2332 3855 1645 2747 2408 1887 3426 1910 2471 1658 3207 3633 3125 3547 1620 1815 3044 2532 2620 3036 3221 3307 2625 1956 2418 3142 2804 3826 1693 2809 1631 2239 3579 3364 3500 3217 2982 2279 1986 1863 3773 2597 3732 3129 2823 3289 2373 2316 3029 2362 3736 3562 1939 2081 2898 2431 2874 3192 2907 1561 3020 1659 1689 3117 2675 3315 3425 2481 2929 2934 2891 2592 2379 3384 3806 2517 3904 1677 3522 1908 3204 1679 1920 2963 2776 2921 3347 3673 2859 1735 2215 3524 2256 3748 3740 3927 2230 2461 2806 3832 1590 2407 2872 3964 2191 3979 3124 3133 1632 2556 3492 3912 3498 1740 1645 3957 2461 3700 2798 2599 1963 1967 2312 1870 2031 3005 1771 2973 3803 3230 2002 2415 3493 3050 2705 2748 2599 2154 2922 2528 2304
3755 2530 1995 3926 3755 3420 1840 2522 2871 3825 1743 1732 1778 1580 1701 1562 1690 3259 2395 3287 3116 1567 3857 2945 2128 1829 3281 3732 3482 3292 3938 3568 1740 3479 2289 2048 1617 2933 1500 2222 2978 2334 2190 1925 1510 3768 2601 1512 3112 2173 1921 3593 3791 3027 3876 2438 3501 3288 2377 2626 1813 3765 2035 2580 2528 3567 1877 3760 2457 3581 2405 1692 2196 2823 2753 3359 3825 2386 3418 1730 2806 1800 2647 3027 2290 3634 2902 3265 1521 3656 3916 2630 3930 3491 2976 2697 3702 3240 2718 2753 89 72 32 21 31 67 68 94 17 87 24 64 51 95 24 59 8 17 15 57 51 48 72 92 92 17 15 20 46 1 38 0 84 27 49 67 99 20 20 73 51 91 50 29 23 34 71 54 95 59 31 49 46 4 60 30 76 19 50 64 38 35 79 50 81 39 99 54 40 78 80 54 4 39 73 4 26 34 27 56 66 72 77 93 53 3 67 91 62 37 15 6 73 84 19 5 64 1 14 73 2018 1513 2014 3168 2900 2074 3218 2899 2515 3263 2325 3187 1581 2330 3993 2711 3736 2372 2130 2469 3057 3429 1932 2439 3120 3841 3793 2981 2256 1968 2254 1502 3083 1925 3813 2949 3859 1808 3765 2342 1960 3269 3361 3661 3776 2770 2056 3206 3975 2836 2090 2064 2179 1576 1510 2811 3645 1793 3265 3573 2049 3080 2776 2924 3140 3234 1540 3697 3151 3725 3392 3201 1988 2826 3628 2209 3577 2940 2798 3014 3942 1943 2243 2536 3782 3403 2428 3628 2282 3873 1720 3436 1582 2011 2847 1521 2811 3427 3896 1927 3663 3070 2150 2843 2746 3791 3511 3500 2354 2833 1616 3492 2466 1971 1582 1698 2455 2483 2786 2067 1896 3953 2469 3012 2634 3865 3074 1730 3505 2543 1571 3002 1968 1604 1991 2944 3098 1822 2033 1895 2176 2355 3926 2128 2986 3001 2300 3583 2489 3338 3015 1512 2032 3318 2264 2545 2874 3139 3294 1794 3096 1621 2695 2366 2032 1827 3521 2245 2418 1765 2943 2158 3896 2565 3896 3289 2841 1767 2177 2088 3520 3659 3354 2636 3714 1852 3656 1808 2072 3936 2920 1774 2959 1702 2361 3904 3298 3866 2497 2073
3179 2405 1972 3994 3071 3613 2271 2798 3786 2434 3183 3886 2264 3991 2751 1634 3582 2503 2602 1708 3149 1500 2250 2650 2949 1764 3673 3721 3999 3157 2318 2843 2152 2019 3303 1635 2104 3387 1872 3351 2884 1930 3639 3655 2962 2915 3968 2705 2414 3151 2670 3260 3290 3873 2933 1579 2246 2889 3484 3670 2663 3362 3947 2297 2276 2292 2421 3799 1625 2195 2632 1653 3778 1559 3783 3926 3809 3561 1507 1852 2405 2933 3167 2553 2811 1940 2910 3616 1764 3009 2417 1666 2253 2269 2649 2942 2818 1716 2533 2485 46 27 8 65 42 46 88 54 44 85 72 59 66 42 47 76 67 77 30 85 32 6 61 59 85 23 81 14 33 65 51 84 0 48 89 69 16 32 58 48 66 54 35 74 38 84 48 56 14 29 93 53 70 9 5 4 43 83 51 2 60 98 2 75 9 3 34 43 7 68 44 10 45 34 17 62 50 58 32 29 60 66 92 57 2 85 82 88 69 25 35 83 57 46 77 48 46 37 51 85 3740 1547 2111 2662 2433 3588 3166 3199 3082 3363 3137 1826 2488 1864 3759 2465 1866 2444 3647 1729 2208 3084 3009 3873 2630 3199 1769 3697 3378 3758 2905 3578 3271 2095 2859 3795 3880 3855 3684 2273 1918 3161 3883 2331 2461 3442 2536 2793 2212 2844 2623 3698 2206 2614 1848 1767 1844 2697 2531 2646 2096 3910 2235 3375 3085 3142 1966 3215 1843 2432 2716 1916 2601 2164 1724 1903 3271 3276 2139 2214 3762 2320 3856 3836 3726 2416 1711 3165 3480 3125 1783 1995 2547 1514 1855 3775 3201 3263 3069 3437 3229 2186 1815 2211 2423 2880 1880 3798 3679 1600 1939 3348 3685 3266 3093 2224 1867 2439 1776 2192 1947 3140 2438 2207 2177 1908 3503 1936 2395 2290 3072 3236 1990 2547 2966 1748 1517 1502 2227 3317 3769 2584 2379 3663 2170 3218 2356 1855 2137 2030 2363 3725 2608 2390 1742 3961 3101 2651 2744 3892 3883 2944 3375 1603 1893 3531 1621 2097 1728 3184 3292 1591 3803 1591 2461 1844 1872 3786 3415 3341 2342 1604 3326 1596 1740 1969 1628 1992 2191 2239 3101 3906 1564 2446 2020 2455 3961 2967 2683 2838
3725 3236 3090 1678 2337 3007 3486 2586 2553 1765 2200 2270 2353 2581 2521 2019 1803 2916 3930 2817 3305 3371 3790 1789 2919 2972 2434 3187 3065 1813 1505 1666 1636 3715 3837 3986 3089 3734 3059 1531 2508 3149 1702 3242 3116 3620 2109 2967 3963 1832 3731 3990 1604 2743 3017 2577 2067 2306 3545 2062 3496 1976 3162 2750 2072 3846 2377 2897 2627 2616 1774 3167 3003 2864 3852 3051 3838 2112 3033 2465 1569 1620 2356 2673 2208 2519 2129 3586 3273 1696 2934 2064 2549 3942 3574 3291 1870 3281 3317 3321 22 14 96 29 9 89 63 70 10 73 86 98 29 56 91 97 23 86 23 80 6 7 43 76 96 97 42 8 42 18 66 27 48 0 46 63 56 71 86 7 41 65 88 29 3 45 14 11 32 52 8 6 27 86 62 61 62 80 25 95 48 15 44 61 83 61 26 90 8 96 2 3 66 53 13 80 86 58 69 8 43 12 82 77 51 60 24 69 32 87 97 93 76 76 38 22 30 78 23 25 1887 2148 1521 3141 2494 3703 3368 2694 3945 3177 1589 3770 2713 2367 1740 3433 2845 2433 3029 2571 1870 3433 3969 2751 3413 1797 2364 2987 2825 3869 1607 1814 3644 2799 1630 2951 3392 1986 3254 3164 3002 1708 2936 2083 3101 2258 1944 2419 3438 2040 3811 2704 3012 3525 2310 2186 2085 3890 3304 1971 2630 2463 2187 3771 1911 3529 3415 1568 2970 3359 1929 3026 2346 1962 2090 3656 2542 1767 2676 3887 2130 1618 1805 1790 1665 2668 2868 1655 3531 2628 2125 3718 3705 3037 3487 3360 1733 3444 2119 2146 2595 3266 3900 2422 2421 1747 2093 2467 3041 2910 2258 2814 2614 2073 1861 1999 2188 3194 3044 3290 2184 3467 3039 3944 2397 2756 2348 3385 2044 3152 2613 3843 2454 1888 3381 3594 3112 1889 3057 2279 3658 3903 3337 2705 3227 2688 3296 2343 2237 3974 2588 2387 2318 3563 1713 2728 2590 1801 3326 1957 3061 2448 2890 3088 3318 1803 1949 2954 1799 1571 3750 3604 1754 3033 3392 3708 2558 3904 2958 1641 3771 1942 1544 3423 1913 3317 2866 3912 2176 3869 1828 2605 2971 3270 2897 2356 3543 1880 3988 1911
1998 2543 1649 2370 2128 2163 3904 3850 1794 1517 3998 2439 3409 2353 1926 2087 2531 1571 1652 2480 2154 2464 3244 2339 3828 1536 2604 3682 1808 3788 3933 3985 2003 3329 1871 1718 2402 3794 3061 2760 1581 2942 3634 3312 3076 1969 3107 1580 2875 2889 2036 2149 2543 1784 3898 1660 2008 2679 2822 2678 3356 2355 2744 1929 1618 2389 2543 2897 3751 3228 2576 3423 3107 2943 3391 2230 3461 3274 2183 3384 2893 3746 3509 3606 2083 2294 2733 1535 1871 1531 3114 2496 2750 3890 2539 3085 2682 2316 1774 2770 83 85 31 26 42 24 99 52 68 20 18 52 22 96 85 1 76 79 5 87 95 6 46 96 83 78 57 95 45 84 68 49 89 46 0 74 33 18 51 22 69 84 51 50 14 65 27 80 7 53 85 50 78 24 49 77 84 71 16 76 94 36 31 55 49 73 34 39 31 94 67 77 32 46 77 60 15 27 43 9 41 90 59 21 83 23 40 90 29 28 8 34 83 94 97 57 76 82 15 66 1672 2642 3629 3215 3308 2001 3554 1750 3333 3363 3893 1551 2742 1561 3373 2285 3498 2166 2218 3840 2736 3668 1620 3258 3838 3060 2298 2858 2731 2273 2618 2419 2476 2629 2912 3367 2413 2852 2994 2992 2537 3101 3706 3779 1827 3411 3421 3627 3010 2097 2944 1862 3792 3199 3930 3381 2234 3605 3916 3696 2608 2580 2243 2844 3479 2317 2401 3725 3724 3835 1512 3830 3804 2634 2039 1754 3600 2326 2335 3634 2462 1908 2958 2858 1539 3200 2217 1993 1652 3676 3644 1547 2258 2726 3354 2369 2195 2283 2169 1548 2307 3022 3480 3537 3806 2714 1706 2030 3410 1784 3183 1942 3497 2271 3111 1532 3981 2625 2355 3796 2294 3182 2768 3958 1715 2187 3814 3427 2434 2797 3628 2336 2524 3987 2325 2921 2267 3908 2565 3096 3232 3378 2603 3985 1572 3530 2122 2015 3803 3405 1884 2486 1940 2410 1665 1710 2280 2938 3944 1920 3971 1690 3767 2225 2178 2497 3999 2627 3649 2464 3877 2539 3983 3575 3010 3613 3690 2396 3060 2263 3943 2197 2179 3189 2465 2861 3567 2946 1744 2620 1734 3311 2613 3480 3172 1933 2241 1874 3601 1803
3395 2548 3472 3453 2456 1832 1879 2832 1575 3621 3618 1993 2716 2624 3789 2251 3486 3766 1830 2318 2122 2974 1730 2897 2854 3581 3459 2950 1671 2563 3094 1881 1653 1624 3240 2908 2614 3006 2581 3060 2584 1889 3883 2446 1702 2910 2398 3888 3049 3620 3980 2000 2459 3144 3212 2529 3254 2835 1773 3795 2314 2727 2304 1947 2698 3897 2411 3858 3465 3349 3058 1516 3212 1644 3385 3770 1520 3616 1751 3800 3386 2750 2374 3338 1778 2745 1647 3978 3425 3356 1936 1576 3589 3910 2268 3452 1992 2077 1661 2531 38 48 40 36 6 77 26 22 30 91 23 21 7 1 21 57 19 74 35 23 67 42 46 23 37 17 82 14 58 65 88 67 69 63 74 0 24 78 74 38 92 67 29 94 20 8 99 73 63 45 40 15 21 65 36 93 50 2 36 45 15 59 20 40 9 87 3 82 83 78 13 21 55 60 46 23 82 8 70 6 62 99 29 12 55 2 74 62 34 46 94 65 6 6 70 46 4 11 11 93 3044 1539 3011 3009 2221 1668 1719 1957 1798 1952 1885 3546 3803 2617 1804 1999 1765 3323 3039 1621 3747 2999 3559 1716 1873 3303 3876 3326 3881 2007 1992 3735 1661 3282 1822 2416 1738 2045 1756 2002 3327 3201 2843 1987 1710 1807 1684 1639 2834 2619 2139 3388 3997 2395 1831 3433 3090 3851 3396 1604 2350 2821 1922 2756 1955 3494 3914 2594 1726 3639 1554 3987 3613 3321 2024 1654 2851 3160 2350 3639 3091 2115 2716 2949 3240 3830 3112 2102 2334 2611 2939 2587 3048 2108 2577 2477 2700 2361 1675 1907 1702 3894 3200 2757 3989 1597 3340 2942 3934 3929 2202 3269 2237 2109 1948 3258 3589 1813 2047 3603 3971 3443 1571 3190 1908 3342 3955 3293 2902 3912 1844 2686 1516 3688 3907 1940 1791 3455 1968 3663 2461 2120 3306 2957 1604 3164 3721 2279 1959 3400 2419 3410 2946 3987 3834 1826 2467 2701 3468 2618 3543 1718 1915 3607 1946 3061 1605 2061 3116 2049 3540 1790 3991 3442 1710 1669 3866 2835 3297 3701 2238 2718 2067 3391 2743 3148 2362 3204 2114 2261 2813 1948 2411 3722 3471 2601 2398 1668 3582 1550
3855 2853 1947 2404 2024 3854 3788 3535 2056 3781 2292 1561 3209 2789 1601 3721 3204 2112 3253 2043 2718 2329 2961 3004 1767 3913 1890 3549 2650 1766 2900 1960 2797 3799 3902 2425 3526 3204 2591 3078 1922 3233 1596 1993 3960 3373 2509 2408 2286 2839 3739 3758 1905 2777 2698 3770 1604 1912 1852 2617 2662 1560 1854 1818 3733 2738 2773 2569 2505 1823 3538 2423 1955 2917 2772 3979 1732 2087 2415 3818 2833 3197 3320 1766 3040 3768 3010 3333 3039 1586 3009 1541 3125 3838 3620 1747 1530 3792 1575 2084 3 2 52 87 82 37 60 36 53 87 6 71 96 59 43 79 27 63 82 44 27 49 72 56 46 61 55 92 46 46 30 99 16 56 33 24 0 13 52 19 10 59 69 21 40 22 30 1 3 85 28 86 38 20 82 73 46 86 21 91 72 78 5 27 40 30 4 78 70 18 38 55 4 76 3 15 59 23 86 95 43 80 90 8 9 56 58 13 20 71 16 13 81 37 50 71 96 9 7 29 2265 2270 1670 3167 3738 3255 3592 1910 3867 3684 2444 2934 2628 2025 2055 2107 1957 1581 2761 1543 1807 2091 2366 2773 3924 2121 3836 2919 3357 2264 1715 2090 3578 2381 2473 3314 3055 3369 2178 2413 2620 3215 2323 1565 1559 2907 1919 3497 3543 3876 3587 2485 1638 3338 3086 2082 3526 2295 2640 3169 3621 3107 3291 2951 2551 2814 3323 1875 3634 2277 3368 2340 2847 2800 3013 3676 3851 2497 2497 1748 2596 3514 1939 3815 3845 1842 2339 3450 2315 2256 3993 3393 1952 3228 2802 3443 2177 3418 2778 2159 1531 3088 1728 3488 3217 1500 3347 3680 3913 2408 1979 2570 3055 3860 3993 2927 3353 1904 3651 1550 2516 2328 2775 3312 2012 1920 3624 1628 2399 2901 2251 1707 2610 2567 2560 1520 3123 3126 2663 3991 3841 2349 1815 2166 2584 1595 3552 2493 2173 3552 3223 2368 2566 3826 1854 2233 3542 2320 3590 3185 2654 1768 2686 2113 2585 3337 1663 2770 3273 2170 2854 3776 2665 1978 2389 2302 2537 2481 2402 3330 2286 3321 2887 3544 3144 1735 3319 1759 3837 1695 2402 3982 3772 2570 3771 2149 1593 1898 2437 3582
1621 2948 3016 2688 2451 3026 2349 3201 2909 3513 2563 2863 3484 1651 2945 1911 2902 3587 3642 3176 2172 2673 1931 2360 3283 2908 3432 3112 1629 3634 2978 3785 1625 1738 1553 3742 1510 2802 3889 3084 3260 3080 3183 3353 1653 2487 1540 1595 3236 3009 1979 1702 3075 2855 3418 2558 1939 2913 3972 2428 2037 3332 2827 2724 3206 1945 2139 2812 3678 3675 2303 2453 2813 2236 2981 3410 2105 2839 3309 3200 2965 2663 3842 1878 2277 2727 2277 3897 2133 3379 3314 3978 2162 2740 3231 3823 1853 3053 2094 2429 41 69 55 60 45 45 14 45 41 63 98 32 60 76 12 87 11 14 43 44 15 99 19 9 70 19 92 75 60 47 86 20 32 71 18 78 13 0 53 24 55 55 74 36 82 7 92 9 88 46 61 40 59 38 5 68 14 41 13 64 19 96 72 74 19 24 50 80 81 98 17 53 32 56 74 93 90 55 45 57 36 60 96 65 25 50 72 36 32 59 42 31 84 64 68 56 80 19 82 98 2693 1587 2623 3554 3341 3140 3541 1625 3777 2746 3583 3460 3618 2764 2172 3362 2991 3233 2387 1644 3836 2521 2660 3850 2343 2498 1626 3377 2125 2440 3055 2989 3604 2719 1607 1896 3786 2404 3060 2065 3007 2475 3618 2081 1965 3545 2706 1688 2161 2505 3557 3742 3253 3124 3114 3322 2638 2829 3021 3086 1506 1884 1667 1734 3992 3279 3510 2428 3027 1666 1881 2250 2362 1905 1838 2783 1614 3404 2802 3386 3496 2769 2939 2815 1950 3124 3686 3429 3954 3992 2389 3942 1506 2576 3423 2155 1506 3682 1925 1980 3617 2373 1765 1937 3044 2055 2283 2930 1705 2060 2060 3503 3122 2434 2824 3520 1945 1878 1752 2629 1730 3999 2312 1704 2546 2557 2670 1537 2521 2290 2159 2821 1664 3626 2499 2729 1811 3866 2310 3556 2598 3958 3350 1605 3311 2637 2369 2010 1767 2233 1961 3246 3327 2956 2713 3617 3856 3838 1777 2677 2113 1836 2809 3721 3774 2281 1646 3579 1844 3730 2618 2082 3324 1683 3058 3574 3333 3043 2669 2385 2524 1625 2817 3457 2650 2360 2724 3500 1647 1875 1810 3767 1899 2078 2383 3662 2555 2297 3632 3079
2412 1781 3076 2792 3065 1779 1622 3571 3771 3602 3753 1872 3107 3077 2059 2839 2590 3862 2560 2538 3839 3754 3724 3021 3847 2969 2761 2194 1840 1707 3843 3524 2113 3682 2121 2658 2991 2161 3568 3072 3502 2045 2522 3493 3568 2277 2692 3145 2761 2633 3787 3139 3439 3781 3245 2686 2749 1732 3160 3909 3998 3140 3808 2494 2451 1959 2299 2049 3858 3404 1716 2028 2587 1501 2642 3411 3675 1982 1878 1522 3779 2712 2909 1700 3444 2996 2264 2151 3511 1644 2114 3241 3727 2861 2339 2783 2028 3746 2399 1600 1 96 58 36 13 41 71 23 85 6 86 91 66 56 40 87 1 30 68 11 93 37 7 88 28 14 34 18 79 21 40 20 58 86 51 74 52 53 0 93 89 15 60 13 32 34 39 86 46 37 59 54 73 70 12 86 7 64 9 90 40 36 72 29 10 7 77 47 21 29 43 66 31 60 28 43 4 71 54 44 35 47 77 62 57 82 94 82 45 2 15 73 7 81 97 84 58 12 10 42 2646 3549 2813 2262 3964 1551 1808 3783 3547 2742 1873 1501 2190 2299 2973 1903 1974 1844 2615 3242 2930 1972 2450 1821 3724 2766 3122 3970 2014 3130 3201 3448 1906 3210 2895 1785 2055 2254 3612 2267 3248 3614 3341 2890 3826 1948 1723 2653 3465 1952 2703 3839 2906 3312 3133 3067 3764 3649 2500 2987 2505 1711 2708 3407 3091 3060 3073 3099 3850 3105 2704 3599 3347 2584 3167 3103 3944 2607 3263 2235 2574 3091 2710 2170 1570 2970 3849 1929 2986 2505 3864 3206 3374 3209 2390 3481 3625 3661 1846 1692 3313 2036 2089 2156 1978 2501 3656 3665 1808 1595 3528 1563 2369 3777 3964 2724 2182 3276 3751 3001 2727 2248 1845 2399 2482 1639 1837 3071 2720 1644 3262 3887 3864 1845 1770 3927 3235 3757 2394 3116 2538 1869 3567 2951 3466 2557 1695 3670 2637 2219 1855 2709 3155 3699 3146 1797 3219 2859 2865 1727 3130 3699 1843 2062 2785 3787 3255 3893 2242 3386 1503 3906 3388 3557 2533 2799 2539 3877 3850 2255 2888 2152 3450 2333 3222 2962 3573 2831 1744 3167 3021 3077 3237 2184 3425 3101 2196 2145 2351 3704
3091 3812 1978 1824 3475 2541 1533 1884 1670 2780 2185 2556 1950 2326 2397 3487 2318 1894 2881 1806 1871 3736 2874 2881 2034 2010 2399 3548 3645 3196 2309 3814 1677 3676 2820 2437 3206 1867 3538 2316 2063 3380 3407 2728 2033 2686 3863 3454 2545 2106 3952 3018 1605 3612 2103 1619 2884 2890 2140 3316 1997 2008 1764 2405 3208 2093 3903 1755 2490 3620 3648 3772 2783 2915 3954 2634 1816 2835 1764 2037 3454 2703 2088 2425 3243 1907 2204 3422 2622 3004 2967 1872 2728 1796 2645 2093 3708 2228 3729 2443 78 85 31 2 61 5 39 66 91 90 63 67 34 62 78 35 94 53 7 19 59 27 39 50 35 90 70 99 72 2 55 73 48 7 22 38 19 24 93 0 86 33 94 64 76 8 98 46 77 14 87 96 27 78 39 21 42 24 41 90 42 64 82 98 3 37 27 26 59 15 60 25 5 58 38 80 52 5 62 95 54 28 25 57 21 29 72 46 90 82 79 85 65 43 32 2 13 28 32 78 3967 1938 3676 1611 1512 1699 2853 2557 3579 1724 3157 2031 2243 2674 1633 1830 3935 3400 2248 2567 3155 3052 1885 2668 2582 2585 2906 3124 1840 3941 1812 1714 2962 1640 3525 2275 2152 2043 1795 3218 3651 3188 2883 3052 3379 2328 2812 1746 2814 2912 2539 1845 2266 2214 3250 1854 3765 3213 2514 2191 3763 2657 2014 2724 2497 2213 3528 1936 3759 2719 1985 3112 3402 3345 1869 1542 1779 3079 3675 1889 3559 3865 3208 3271 1730 2674 3501 1836 2420 3846 3484 2638 2268 3860 3479 3044 3813 3188 3334 2130 2352 3639 3273 2816 1572 2771 1977 3351 2839 2326 3845 1516 2597 2769 3004 3401 2833 2168 1930 2575 3363 1822 3370 3621 2131 1582 2174 3388 3081 2893 1707 2837 1786 2319 3118 1577 2673 1975 1788 2027 3977 1621 3753 1577 3683 2107 1858 3731 2100 3867 2929 3706 2845 1636 2293 3090 1720 1597 3568 1621 2075 1845 2052 2078 2313 2879 3150 3246 2854 2888 2211 3288 3337 1990 2369 2682 3354 2043 2153 1658 3212 2966 3136 1691 2306 2174 3970 1875 2476 3054 2905 3822 3428 3038 3607 2179 2166 2828 2722 3205
1763 2517 2502 2625 2742 3422 3158 2334 3452 1736 3867 1668 1534 1537 3788 3915 1888 3772 3804 3005 2576 3764 3237 1965 2842 2539 3491 3277 2534 2667 3251 3219 1829 1700 1741 3940 2875 3731 3536 3779 1867 2943 2010 2265 3752 2965 3026 2810 3229 2295 1689 3682 3917 3541 2101 3017 3433 3370 3742 2452 2216 3191 3230 3670 2764 3464 3073 2154 1952 3141 3135 2176 3881 3611 2173 3110 2055 2075 2796 3159 1679 2335 1656 3840 3869 1525 3034 3081 1774 2393 1588 3275 2036 3403 1597 2047 2642 3460 1988 2754 23 23 11 81 61 4 64 85 67 17 21 48 73 94 98 94 87 91 93 19 81 83 27 37 35 47 44 85 95 46 12 51 66 41 69 92 10 55 89 86 0 86 30 67 8 49 91 91 3 64 95 64 47 27 14 97 96 87 81 76 54 37 5 17 91 55 84 30 59 27 97 56 35 36 10 35 40 14 31 39 4 5 2 58 38 14 91 99 49 57 45 77 53 4 96 68 49 82 16 38 2519 3298 2222 2731 2519 2575 2886 2568 3198 1951 3030 2734 3142 2092 2771 2745 2507 1858 3104 2832 3096 2034 2607 3544 1587 3935 2550 3183 2439 3324 1636 1557 3101 1733 2380 3536 3652 3593 3186 3320 3390 2748 2767 2366 3083 2309 3261 2940 2786 3514 3119 2941 2471 3399 2494 3102 3829 3467 3010 3880 3255 3923 2021 3794 3219 2097 2428 1503 3386 2990 3444 1779 3645 2066 3200 2305 2160 1930 3685 2002 3993 3513 2236 3842 3811 1971 3771 3323 3884 3840 2681 3150 1546 2068 2317 2435 1680 2873 2276 2314 2851 1921 1728 2151 1713 3671 2884 2523 3989 2387 2111 1806 2372 3612 3501 3111 3779 3072 3667 1803 3702 2126 2426 2429 3445 2454 1568 3721 3347 2394 1847 2354 2671 3579 2040 2195 1833 2583 3551 2719 3378 1971 3952 2807 1538 2350 1594 3670 2436 3748 2113 3098 2613 2121 2310 2907 1712 1530 2573 2117 2873 3136 2655 3130 3293 3799 1721 2866 3310 1640 3553 2766 2059 3651 3304 2101 1783 3660 3405 3745 2847 3971 2680 1945 3784 3917 3611 3723 2528 2493 3752 2639 2684 3862 2314 3628 2068 3104 2447 1890
2775 1938 1794 2415 2649 2747 3828 2295 2775 1740 2837 2397 2827 3088 3392 1933 1596 2008 2841 2742 2944 2546 2199 2825 2427 2782 3805 2367 3399 2156 2723 2414 3657 3213 2336 2387 2365 1537 2649 1768 3381 1952 2186 3747 2767 1546 2202 3788 1765 3342 3854 3543 2570 2833 1748 1778 2370 3044 1655 1512 3942 1944 1779 3618 1512 2303 1622 3552 2804 3993 2688 2602 3652 1964 3634 3654 1596 3653 1908 2643 2052 3528 3970 3704 3854 3820 3019 1795 3489 3298 3921 2370 3738 2334 2256 3328 3281 3389 1942 2835 6 16 58 27 44 60 98 43 33 75 63 49 63 63 14 69 51 40 27 87 45 78 17 34 5 47 2 43 37 89 6 91 54 65 84 67 59 55 15 33 86 0 79 88 3 6 47 91 33 62 37 76 83 7 70 83 29 79 43 43 53 23 99 30 64 98 73 93 90 99 40 8 3 32 18 59 95 83 12 15 47 37 18 30 47 31 52 40 40 16 71 22 14 98 39 81 6 82 47 16 3261 3542 2530 1578 3731 3141 3844 1686 3347 2293 1849 3692 2047 1507 2187 1563 3390 2217 2748 2663 3138 2596 3332 3565 3656 3710 3359 3548 2872 2188 3192 2367 1755 1720 3562 2669 2040 2159 1756 2426 2941 2778 2622 3194 3711 3741 2168 3730 2332 1986 2968 2294 3035 2931 2131 1547 3791 3359 2473 2606 2812 1742 3781 3517 2586 2301 2640 3069 2438 2712 3920 3676 2402 3810 3370 2433 2165 1600 3900 2081 3202 3512 2672 2103 2022 2277 3369 2640 3642 2729 2411 3729 2259 1645 2741 2583 1763 3960 3769 3328 3118 2887 3059 1777 2130 3155 2862 1950 3619 2875 1542 3188 2905 2610 2004 2420 2798 1855 3100 2233 3404 1874 3074 1858 2601 2567 2943 3701 2756 1711 2161 3394 3833 2778 3937 2752 1594 3792 2529 3248 2492 3628 1631 2175 2782 2104 3114 3567 2933 2565 2955 1614 2972 1891 1916 3109 2794 3782 2115 3342 2429 3901 2259 1514 3518 2404 3272 2171 2444 2936 2972 1680 3808 2935 1641 2556 2709 2144 2602 2916 1506 3709 3661 3329 2310 2739 2618 2940 3331 3093 3482 2619 2737 2505 3316 2407 2276 2176 2334 1760
3072 1500 3952 2532 1968 1550 2373 1700 2620 3211 1690 3981 3541 2847 1598 3556 2798 1825 1940 1913 2223 3156 1729 1710 3309 2431 1678 3618 3302 2105 3999 3938 2074 2394 1856 1966 2280 3967 2232 3436 1695 3233 3515 3367 2201 3189 2090 1528 3419 3623 2776 3446 1973 3890 2224 3531 2790 2284 2451 1724 2992 2870 2758 2626 2808 3368 3838 1587 1965 3316 2720 2432 1540 3518 3189 2886 2476 3700 2452 3516 2841 2375 3368 2706 2698 2331 3014 3801 1955 2736 1837 3897 2920 2876 1799 3574 1790 2549 3475 3919 38 95 60 42 36 36 53 89 91 17 49 22 43 55 4 60 47 28 7 49 10 4 16 84 97 50 34 8 89 47 33 50 35 88 51 29 69 74 60 94 30 79 0 80 54 61 44 62 60 88 63 81 68 84 66 65 56 30 21 87 10 73 10 53 54 41 13 83 54 4 83 85 76 5 62 3 33 35 15 96 43 24 13 76 22 74 38 79 9 44 90 12 33 81 68 98 89 64 95 62 1977 3304 1645 2185 2671 1767 3222 3943 3261 2725 3280 3422 1924 2246 3508 2940 3553 2572 3154 2323 2181 3114 1917 1744 3323 1742 2982 1888 1578 3159 1534 2153 3638 3307 3170 2143 2506 2666 1754 2938 2200 3328 3851 2450 3699 2942 1976 3436 2306 3141 1711 1874 2842 3128 1905 2643 3382 2878 1684 2089 1568 2542 3111 1538 3223 1789 3675 3932 2231 2256 3483 3140 3130 2391 3882 2066 2787 3797 1511 2582 3550 3826 3391 2433 2650 2519 3179 1786 3518 3545 3493 3360 2367 2347 1826 2709 2176 3299 3528 2644 3610 2691 2447 2806 3766 3761 2319 3272 3884 1809 2133 1933 2354 2311 2591 2356 2858 1507 3132 2913 3113 2292 1661 1514 1593 2367 1722 2723 2298 2996 2858 2995 2304 3279 2804 3743 2330 1981 1736 1744 3524 1988 3056 1707 3854 1592 3512 3394 3597 3553 2783 2949 2901 2546 2652 3466 2892 3978 2673 3569 2308 3359 2516 2022 3681 2850 2724 3404 1871 3209 3788 1546 2933 3413 3518 2524 3906 3760 2365 3433 1601 3607 2935 2953 1603 3087 1802 3349 1929 2260 1546 1978 2846 3318 2152 3710 3999 1759 3115 2688
3409 2587 2764 2452 2771 2199 2302 1632 2336 3533 2325 2465 1824 2470 3952 2651 2738 3960 2833 3233 2291 1671 2337 3464 3888 3240 2642 3605 1840 3732 3716 3019 3174 2240 2102 2236 2407 1697 2118 2008 2727 3032 1944 2180 3413 2198 2877 3413 3945 2828 3093 2744 2580 2230 2591 3655 2340 2429 3586 2470 2901 1685 2988 2974 1729 1633 2438 3457 2774 2986 3888 3983 2396 2131 3612 2269 3651 1951 3556 2276 2615 2164 1772 3523 2135 1930 2035 3654 2664 2146 2357 3583 2502 2203 2335 1645 2293 3180 2897 3212 83 56 31 41 4 63 92 61 75 22 76 30 7 20 56 11 6 11 99 29 77 31 59 92 84 99 95 49 84 57 22 29 74 29 50 94 21 36 13 64 67 88 80 0 83 74 66 38 42 95 32 52 95 18 54 16 31 11 11 18 23 68 98 60 70 28 4 8 77 94 23 46 36 76 84 55 37 68 31 3 44 44 12 98 51 37 93 39 26 27 1 25 90 73 63 86 54 84 47 31 2897 2824 1780 3774 2899 3352 2365 2245 3066 3848 3764 3447 2998 3739 1585 2294 3033 3552 2402 1958 3725 1782 3149 3595 2769 3807 2073 2718 2430 2653 3726 2231 3220 3219 2141 2621 2878 1811 3352 2614 2831 2813 2365 2140 3108 2050 3200 2251 2450 2134 2572 2483 2836 3825 1963 3373 1739 3888 2938 3861 3331 3733 3543 3946 3076 2081 1921 3173 2348 1554 3632 1714 3199 3895 2201 3828 2677 2493 3593 2802 3669 3794 2367 1637 3613 2466 2487 1641 2278 2347 2282 2353 2667 3196 3732 3345 3301 3368 1541 3885 2481 3328 1559 3968 3022 3737 2749 3833 2339 2557 1858 2711 2297 3960 3865 3735 1713 2742 1557 2226 3583 1553 3479 2718 2017 3161 2254 3192 3584 3852 2696 2437 3265 3140 2719 1944 3673 3433 3182 3582 2471 3120 3092 1557 3422 2513 2699 3659 3299 3888 2147 1805 3370 3249 2772 3641 2592 2172 3023 2510 2477 2991 1846 3303 2425 3503 3391 2692 2200 3688 3214 1741 3106 3138 2837 2700 2476 2018 1674 3226 2657 3990 3058 2836 1859 3483 3831 1834 2082 3449 2462 2170 2973 1819 3002 2545 2422 2283 3233 2224
3817 3360 1870 1506 3715 2090 1669 2369 3923 2729 1893 3050 3046 2675 2954 1613 3912 1624 2406 2127 3481 3073 3431 3749 2377 3551 3890 3625 1914 2342 3183 3611 3683 2132 1782 1741 3353 1798 1524 1575 2055 3947 2990 1908 1918 3283 1918 3381 3328 3950 2850 3839 3755 3991 3336 1643 1686 3135 2132 2482 3163 2506 1853 3031 1679 2941 1763 3992 2877 2424 3306 1552 3935 3870 3264 1830 3096 3827 3319 2956 3910 1855 1643 3535 3046 3540 2801 3067 2949 2665 3616 1724 2204 3138 2907 3022 2785 3219 1597 2631 18 35 80 80 51 28 24 55 3 79 19 85 91 59 39 86 49 10 92 57 86 39 19 39 98 43 8 3 87 17 40 23 38 3 14 20 40 82 32 76 8 3 54 83 0 35 63 33 67 73 64 37 26 62 94 3 41 81 85 43 88 18 33 21 84 6 22 32 11 63 62 43 12 55 16 96 7 59 18 59 64 1 87 45 16 31 45 85 31 8 43 50 28 96 76 1 55 8 2 25 3410 1925 1570 3989 3247 1526 3639 3615 2636 3991 3312 1514 3247 2202 1975 3542 2877 1786 3542 2949 1821 2725 2070 3738 3084 2575 3514 2040 2738 1869 3708 3861 3996 3290 2613 2769 2529 2659 2091 1692 2314 2546 3131 3010 3976 2432 2354 2775 2504 2444 2987 3412 3494 3885 2729 1638 1573 1822 1911 3982 1832 1804 2147 3016 2264 3122 1568 2551 3946 2394 3862 3021 3383 3883 2199 3771 2548 3863 2405 3755 3786 2742 2138 2250 2324 2496 3341 2691 2817 1884 2225 2434 3394 2535 2963 2738 2657 2835 2499 2320 2402 3999 1909 1880 1818 1664 2032 2334 3242 2343 2020 2813 3101 2498 3451 2322 3124 3434 3118 2955 3083 3587 3744 1570 2626 1946 1932 3773 3170 2422 2471 3701 3779 3182 2283 1866 2642 2066 3229 2396 3281 1750 2364 1928 2249 3242 2640 1633 2675 1771 1779 2429 2752 3182 1853 3851 1772 3030 3686 2442 3815 3897 2439 2223 1638 3788 3022 3410 2524 3319 2702 3509 2546 2692 3435 3862 2180 3204 1749 3269 1524 1867 2283 2053 1736 2157 2196 3096 3184 2951 2437 3134 3665 3659 3635 1860 1606 2087 2755 1917
2524 2240 3538 2108 3155 2592 3607 3991 2472 3193 2270 2519 3186 2952 3375 1823 2569 3909 1956 3291 3013 3471 3994 3650 1877 1916 3181 3977 3862 3932 2223 1647 2401 1841 1571 1598 3954 3414 3783 2234 2239 1503 3085 3565 3585 2881 3434 3366 3469 3967 3356 3722 1550 3753 2949 1621 2172 1664 3372 3587 3737 3170 1580 1963 3521 2992 3743 2464 3605 2875 3904 3965 3153 3706 2083 2012 1926 3028 2734 3436 1695 1855 3748 2280 2927 2714 2907 3682 3405 3900 3073 2891 3767 3052 1543 2958 2406 3505 1876 2588 85 97 42 12 33 83 61 27 91 68 73 24 33 38 33 4 86 48 55 48 6 1 32 80 50 63 44 76 7 78 1 34 84 45 65 8 22 7 34 8 49 6 61 74 35 0 20 93 94 93 10 60 61 81 58 48 62 33 51 34 47 11 55 87 70 32 69 69 83 40 83 13 10 34 40 44 66 1 53 71 36 55 10 53 43 23 53 16 2 27 89 94 98 47 57 40 70 1 31 16 3814 3139 2422 2793 2769 1963 3354 3208 1693 2922 3720 2886 2214 1788 3282 2615 3669 3647 2240 2562 3314 2078 1608 1726 2734 3426 2497 3929 2118 2385 1987 2522 3370 2120 2255 3099 1754 3830 3025 3399 2298 3995 1788 3447 2886 3442 1606 2723 3849 1516 3850 3311 1979 3115 3788 2969 2226 1691 3396 2767 3783 1684 2499 2071 2914 2962 1879 2443 2677 2676 2734 3049 3620 3077 2197 3366 1960 3737 2932 1842 2857 1872 2141 2098 2893 2941 2145 3237 2596 3822 2066 3505 3225 2598 2053 1755 2575 1596 2570 3441 2828 3332 3565 1958 2010 3820 2654 1957 3522 3449 2785 1924 2222 3582 1718 2808 2618 2278 1806 2081 3601 3559 2746 2143 3648 2783 3015 3522 2674 3946 3196 2566 2161 3096 3728 2463 2438 2610 2950 3316 1816 3584 3813 2393 3447 3463 3559 3257 1576 2811 3935 2341 3235 2697 3465 3285 3838 2042 2771 2825 2833 3752 3647 1538 1797 2170 3984 2119 1612 3650 3926 3477 3007 2674 1531 2744 3771 2358 2464 3424 2124 2641 1999 1995 2763 3246 2357 1881 3167 3707 3886 3250 1671 1794 3789 2951 3396 3090 2763 2645
2600 3629 3349 3231 3705 3676 2661 3334 2317 3554 3333 2427 3016 2196 2998 1515 2114 3279 3596 1938 3898 3698 1728 2390 1621 2662 3198 2530 3812 2502 3698 1505 3981 1571 1909 3791 1840 2344 2398 1885 2102 3784 2936 1640 3208 1756 2764 1554 3855 3872 2293 3983 3518 3651 3804 3489 3764 2336 3719 2078 2449 3199 2348 1754 1799 3202 3485 2260 2564 2743 3379 1697 3612 2795 1562 3287 3344 1649 3998 1671 3372 3231 1524 3616 3106 2617 1999 2974 3872 2066 3184 2011 2795 1523 3671 1643 2373 3257 2627 3789 59 2 88 41 26 40 62 54 15 12 5 49 18 57 84 88 21 19 76 82 34 13 31 17 10 31 6 36 19 25 73 71 48 14 27 99 30 92 39 98 91 47 44 66 63 20 0 63 83 67 43 11 76 14 99 61 14 93 27 13 23 67 31 3 27 98 67 12 48 40 54 60 58 87 2 14 46 50 35 38 68 26 5 40 66 52 80 15 40 9 5 41 35 62 53 93 55 3 34 94 2451 2631 3708 2214 2525 3681 2351 1924 3768 3627 3854 2662 1564 3674 2220 3279 2090 2116 3846 3254 2406 1999 1975 3333 1892 2382 3892 3293 2521 1769 2691 3023 1527 3379 1722 3176 2053 3179 2754 2857 1712 3335 2637 2994 3541 2964 2331 3163 2420 2938 3546 3676 2853 2224 3440 3275 3864 3692 2845 2299 1907 3388 2064 2285 3925 3526 3081 2467 3320 3862 2224 2213 2853 3489 3593 1850 2018 2806 1532 2505 3781 3603 3259 1756 2879 2031 3537 2916 3256 3124 2519 3770 2930 1575 3480 3622 3976 1939 1956 3971 1711 3739 1999 3464 3702 2037 1759 2373 2275 1665 2496 2405 2691 3809 2183 3934 3154 1531 1823 3111 2701 3606 3528 3496 3399 3512 2841 1789 2967 2732 1939 2186 3032 2761 3326 3697 3364 2453 2364 2695 2212 3175 3323 3671 3884 3533 3657 3338 3018 2923 3358 2574 2381 3808 3140 3142 3676 2062 3031 3297 3450 3521 1966 2451 3648 3263 2491 2685 2037 2175 1874 3406 3753 2561 2972 3161 3907 2554 2743 3203 3608 2311 3915 3955 2238 2486 2934 1908 3344 2486 2210 2808 3841 3521 1887 1630 3332 1957 2436 2808
2685 1999 2042 2235 2791 2388 3904 2559 2602 3661 1995 2565 2607 3947 3778 3440 2621 3928 3438 1800 3287 3066 3897 1503 2874 1936 2502 2472 3571 3108 2700 2949 2944 3570 2838 2755 3674 1501 3845 3018 3324 2629 3146 3976 2163 2637 3771 3402 2464 2094 1579 2158 3577 2868 2174 3209 3803 3102 1992 3495 2034 1606 2652 2454 1587 1687 1906 3415 3205 3681 3482 3123 3009 3495 1672 2093 1793 3470 3015 2932 3093 3583 3476 2311 2541 1892 2806 3896 2199 1855 3348 2996 1597 3783 2175 2174 1920 3570 2458 3482 10 51 22 30 69 69 86 84 44 21 80 33 66 74 24 20 60 14 70 48 67 17 22 4 63 2 13 71 51 21 92 54 56 11 80 73 1 9 86 46 91 91 62 38 33 93 63 0 85 18 57 81 25 50 34 29 85 80 15 21 90 59 58 19 96 14 19 58 58 34 69 96 85 2 90 10 32 28 45 78 87 86 53 85 37 46 85 15 36 11 58 16 75 88 14 34 41 48 16 4 3347 3776 3846 3760 2473 2433 2604 2829 3825 2325 2172 2281 1771 1901 3163 2880 3856 2634 3952 1833 2160 3712 2447 1930 2676 2560 2060 2119 1844 1579 1776 2166 3067 3165 3812 2103 1738 2880 2100 2947 3355 1811 3889 2572 2189 3718 3986 1696 1838 3873 3369 1607 1990 2364 2706 1714 3800 2615 3386 2657 2519 3004 3372 2948 2246 2170 3623 3360 3116 2212 2626 2676 2235 3497 1856 3775 1974 2778 3619 2367 3262 3885 2207 3338 2399 2242 3175 3581 2736 3343 3510 3870 1794 3300 3802 3870 3762 3160 1974 2284 2721 3441 3789 3277 3869 3590 2043 3539 1822 1948 1963 1934 3101 1965 3218 2161 3766 3661 3806 2569 2450 3824 3703 1977 2128 2920 2096 2159 1986 1660 3625 3621 1601 3163 2909 2975 1817 1583 3911 2337 1996 1801 2922 2226 1669 3674 3158 2348 2543 2757 3128 1858 2182 3651 1870 2484 3542 3049 3324 2668 3896 1585 1654 1871 3943 1634 1774 3730 3165 1674 2124 1573 3788 2593 2452 2758 1550 2754 1554 2151 3034 1507 2026 2097 1973 2030 3934 2069 2112 2956 2070 2967 2500 2931 3172 2328 2382 1549 2712 3224
3886 1847 2347 3974 2873 2375 3555 3500 2984 1946 2568 3124 3589 3039 3614 2599 1978 1940 1618 1638 2942 3147 3957 2759 2007 3826 2797 1771 1824 2014 2663 3309 2316 3996 3046 3954 1975 2994 3468 2874 3908 3179 3211 3011 3682 2475 3840 1755 2151 2572 3733 3076 3828 3184 2445 2979 3649 2711 1707 2886 2274 2018 3657 1847 3015 2335 1918 2882 3455 1805 3307 1848 3189 2752 1632 2105 3138 3894 3657 2199 1860 2870 2802 3682 2106 1914 3551 2300 3315 3581 3664 1965 2778 3604 3503 2252 3007 1801 2085 2934 65 7 74 70 74 45 26 86 58 73 9 22 90 44 71 71 23 27 77 16 42 89 70 13 13 66 90 48 72 22 80 95 14 32 7 63 3 88 46 77 3 33 60 42 67 94 83 85 0 69 39 43 80 54 2 6 98 41 13 58 87 24 4 80 77 77 12 66 98 59 36 27 41 93 38 50 84 75 19 5 43 15 14 44 96 39 71 57 69 94 55 81 48 74 18 98 98 63 21 32 3134 3985 2996 3264 2085 1548 1560 2229 1578 2117 3177 2862 3157 3718 2482 2436 2307 3298 3559 3881 1678 2114 1870 3963 2282 2943 3240 1849 2749 3919 1718 3431 2131 3774 2547 3173 1976 3653 1654 2220 3266 2271 1943 3735 2978 3693 1765 1621 3620 3076 3095 1930 1539 2546 1992 3106 2485 3824 2043 3691 2819 2573 3967 3174 2680 2449 3089 2347 1786 2884 2794 3403 3710 2301 3488 1925 2216 2480 2610 2181 2392 1651 2583 2444 2497 3922 2772 3661 2036 2782 2870 2511 3599 1951 2284 3178 2573 3203 1825 2851 2117 3901 3535 2698 3647 1510 2117 2088 2485 2970 3465 3971 2281 2551 3089 2385 3667 2767 3130 3595 2997 1910 3161 3972 2637 3726 2717 2183 3605 2320 2468 2252 2407 2496 1579 3944 3662 1814 3460 3721 2245 2715 2182 1748 2739 2798 3449 1516 3694 3145 2815 1634 3371 3131 1977 3779 2226 2948 3072 1507 2531 3813 2858 3729 3087 2191 3177 2081 3147 2028 2564 1618 1922 3667 3391 3521 1739 3330 3200 3400 2530 3169 1977 3154 3411 3926 3784 3354 1947 2161 3395 3164 2138 2493 3975 2326 3959 2509 2370 2588
1989 2477 1687 2549 1767 3695 3318 3196 2121 2001 2378 2317 3241 2273 2910 3178 1930 3253 2508 3358 3146 2035 1716 2657 3903 2345 2934 3493 3681 3807 1839 1814 3435 2654 2055 3273 2451 2620 3753 2580 3258 2147 3287 1572 3853 2489 3277 3799 2593 2535 1903 3018 3660 1938 1609 3787 2948 3537 1522 3211 1741 2050 2811 2620 2548 3050 2085 1990 2901 2262 2641 2376 2131 1518 2497 3470 3895 1754 3274 1616 1587 1623 2975 3751 3728 2066 3232 3458 1611 1596 3318 2985 1778 3311 3110 3694 3867 3582 3415 1709 71 90 51 35 3 57 75 73 16 48 60 40 30 51 36 93 35 83 86 45 45 33 69 64 77 81 74 3 84 84 35 59 29 52 53 45 85 46 37 14 64 62 88 95 73 93 67 18 69 0 71 2 11 78 27 83 34 90 62 70 84 70 76 12 91 94 98 89 57 66 37 62 20 96 77 21 77 49 31 60 2 65 30 73 54 90 46 31 38 7 93 3 2 44 17 49 42 86 29 32 2294 3269 2275 1615 2028 3597 3880 3578 2749 2684 3921 2091 1703 2334 2438 2807 1883 2063 2816 3588 2573 1968 2283 1767 3600 3536 1676 3610 3369 3993 3470 1680 3251 3756 2584 3770 2727 2783 3689 3210 2442 3385 3909 2162 3635 1975 3715 1885 2040 3966 3583 2523 3961 3914 2805 3802 3572 2724 1583 1860 1767 2432 2342 1865 1669 3889 1760 2225 1759 3252 1775 1982 2576 2305 1615 2152 1628 3671 3182 2183 3562 1683 2178 1872 1939 2933 2120 2440 3487 2486 1967 1834 3981 2932 3359 2585 2542 3090 2351 2648 3251 3571 3986 1766 2657 2672 2808 3552 2296 2463 1603 2343 2803 2557 2338 2365 2462 1903 3564 2245 3595 2103 2219 3536 1594 3277 3257 3556 3059 3039 3523 3789 1681 2499 3425 1688 3003 2390 1593 3263 1821 2862 3450 2354 2945 3910 3731 3030 3388 1762 3621 1871 2903 3588 1780 3109 3016 2737 3884 3201 3024 1696 3385 3036 3752 1580 3512 1848 3525 3493 1658 2596 2684 3019 1507 2382 2966 3486 3948 1804 1977 2760 1963 2059 3212 3036 1762 1543 2695 3049 2715 2917 2682 3573 1925 3075 3972 3389 2986 2649
2749 3259 2891 2405 3265 3831 3295 1746 2008 1950 3982 2022 2025 3303 1768 1734 3607 2244 2656 1849 3029 1863 3219 2655 1962 3131 3162 1858 3395 3638 2200 3209 2411 2099 2527 3437 2818 1705 1616 2084 2592 3138 2344 2642 1632 1976 2086 2450 3425 1850 2495 2145 2822 2177 3509 1901 1856 1901 3296 1882 3567 3497 1555 1976 2693 3142 3360 3050 1567 2239 2344 2050 2072 1513 3246 3277 2522 2621 2176 2211 1634 2887 3633 3449 3767 2152 3843 3622 3926 3174 3598 2408 2023 3654 3623 2001 3451 2764 2667 1753 26 84 61 82 92 39 42 31 49 24 14 59 51 87 97 45 32 37 26 12 35 95 69 95 69 91 68 23 38 87 29 31 93 8 85 40 28 61 59 87 95 37 63 32 64 10 43 57 39 71 0 65 21 69 27 73 57 4 97 73 95 30 93 92 99 74 69 34 48 83 60 39 87 13 83 32 87 50 12 92 96 72 17 5 59 77 25 73 91 7 12 4 34 78 54 22 87 36 67 43 2298 2472 1776 1809 2437 3201 2445 1825 2650 3880 1995 1875 2611 3878 3088 3145 1796 2822 3663 3540 3074 2089 3038 1708 3665 3724 2527 3683 3049 3437 3528 2814 2554 2780 3520 3844 2522 2374 3247 2891 3365 3937 2893 3542 3138 2127 3209 1780 3527 1670 1967 3242 3988 3141 2075 3895 2243 3245 2623 2187 2094 3791 3764 2565 3725 2841 2959 3726 2890 2310 1992 1893 1864 2795 2851 2900 1792 3042 3372 3677 1992 1590 2029 3063 1767 2163 3465 2563 2709 1592 3744 3830 2657 2038 1575 1726 2004 3440 3389 3399 2026 2250 1550 2322 3402 2632 2899 2551 3752 3682 2937 3594 2033 2061 3842 2077 2859 3879 3952 1759 2023 3092 1536 3941 2995 3727 2098 2935 1980 3246 1688 3345 2892 1694 3589 3486 2963 2577 3318 3984 2026 3621 3199 3470 1658 3911 3344 1594 3688 2935 3718 3939 2995 2675 1685 3184 2559 3609 2529 2328 3884 2663 1669 2849 3397 2330 3354 3896 1506 2649 3228 3107 2102 3102 3617 3151 3567 1664 3235 2268 3512 3270 3090 2821 1919 1609 2426 1759 2110 2797 3468 2948 2034 1738 3058 2907 2639 3490 2874 3670
1624 2248 2877 3905 3757 1553 2151 2213 3666 2391 1914 3399 2272 3578 2252 1622 3049 2269 3065 1771 2962 2544 3154 3210 3081 2755 1715 3559 2017 1980 3341 2716 3672 3059 3512 3004 3344 2098 3837 3366 2293 1570 3270 3819 2125 1648 3577 3983 1979 1867 2785 3272 3872 2910 3594 3002 3966 2956 3998 3843 1573 2726 3107 3042 2415 1542 3123 1957 2453 3028 3655 1637 2929 3318 2787 1516 3633 3569 3317 1760 2808 2193 3413 1718 3792 1870 2955 3722 2928 3458 3337 3007 2241 3931 3929 3665 2320 2246 1644 2802 81 95 59 79 26 39 85 49 7 19 81 45 72 51 58 81 72 72 2 99 52 72 19 25 6 61 17 17 27 94 10 49 53 6 50 15 86 40 54 96 64 76 81 52 37 60 11 81 43 2 65 0 53 70 1 60 30 85 89 90 50 2 15 83 42 70 33 37 58 77 84 98 79 37 16 16 31 51 87 43 83 73 9 72 54 63 13 86 89 32 17 94 32 67 28 95 24 15 29 66 3070 2095 1570 1888 2389 1750 3069 3974 2912 1546 2958 3633 1894 3429 2057 2261 2330 1794 1969 3698 2658 1550 3070 2210 3717 2109 3566 3839 2460 1987 1501 3773 2655 2245 2175 2896 3469 1785 3605 2092 3223 1835 3814 2055 3625 3043 1521 2989 2628 2966 2868 1557 2444 2713 2473 2917 1808 3320 3879 1733 3756 3704 2446 3511 3125 2502 3095 3768 1846 3831 1966 3240 2882 2544 3591 1956 3119 2087 2075 1543 2974 2315 1670 1893 1850 1766 3083 3883 2377 1697 3588 3582 2533 1739 2533 2650 3414 2221 2848 3175 3387 3559 1916 2070 2243 1636 3011 3238 3603 1767 2531 2650 3724 3796 1701 2470 2763 1550 3311 1610 3229 2584 2678 2407 1857 3396 2170 1689 2571 2720 3773 2910 3249 3547 1688 3595 1536 2725 1998 2661 1927 2214 3361 3336 1788 3787 2727 3730 2896 2489 2259 2213 2306 2621 2031 2986 2799 2264 2183 2740 2056 3640 1726 1796 2782 3779 2289 1514 3751 1665 2595 3880 2559 3536 1511 1754 2067 2104 3511 3001 3719 3538 3889 3037 3977 1671 2963 3983 3397 3941 3068 3131 3338 2773 3439 2448 1724 1732 2007 2489
2563 3552 1632 1999 2628 3823 3669 2947 2648 3885 2008 3852 2983 3175 2367 3856 2450 3997 2607 2986 2952 1978 3098 1581 2713 2034 3208 3545 3613 2828 1708 2003 3525 1826 3558 3222 2573 2974 1703 2781 2157 1788 2690 1875 3568 1800 2889 1593 3657 2448 2970 2741 3249 1846 1542 1582 2060 2041 2803 3264 3890 1728 1903 3585 1854 3718 1528 1981 2513 2018 2466 1536 3567 2899 1871 2219 3529 3479 3253 3206 1557 3099 3476 2454 2864 1974 3005 1551 3484 2771 3821 2803 3447 3539 2506 1827 2488 2768 3100 3158 83 1 57 64 28 73 26 11 96 59 99 24 10 71 53 34 70 37 43 37 3 54 24 50 23 13 15 7 80 78 65 46 70 27 78 21 38 59 73 27 47 83 68 95 26 61 76 25 80 11 21 53 0 32 93 16 28 13 50 15 47 45 31 53 6 7 40 78 74 6 36 98 2 48 36 82 26 27 28 39 26 22 39 72 6 35 89 2 18 5 1 26 96 28 18 32 80 82 91 75 1592 2327 2893 3780 3140 3379 3161 3288 2397 3016 3358 3365 2043 3503 2492 1779 3419 3205 2960 1688 2474 2579 3828 1628 1682 3728 1850 2709 2406 2111 2614 2119 3488 1816 1646 2810 2542 2368 2378 2192 3050 3790 2695 1749 2690 3512 2463 1608 3380 2122 2550 3733 3798 3731 2307 2602 3555 1674 2054 2891 2543 3291 2187 1751 2076 2846 3707 3416 2194 3868 1769 1865 1836 2877 2145 1942 2786 3600 2909 2592 2684 2252 2522 3441 2055 3036 3885 3922 1548 1754 2074 3142 1759 2756 2481 2456 3625 3146 2320 2373 3073 3074 3140 2945 3731 3935 2238 3623 2617 3511 2596 1888 2204 1619 3796 2920 2012 2716 3608 3428 2841 2642 3906 1740 2402 3010 2290 3832 3253 3270 2843 3921 3092 2798 2027 2308 1541 2583 2510 3573 2522 3526 1510 2289 3245 3175 2594 2653 3256 3314 1895 3577 3124 2592 2445 2428 3965 1638 2712 2882 2496 1765 3707 3357 2407 3627 2522 2053 2098 3713 3996 1743 2047 2514 3913 2120 2187 3489 3081 3057 2681 3474 3292 2282 1527 2067 2574 1685 3338 2741 2038 3946 3812 1819 2087 2703 2111 2402 2424 1909
3863 1552 1979 2647 2922 2148 2730 1855 2611 3345 2935 2822 3322 2477 1837 1949 1660 1796 3104 3493 2344 2123 3884 2387 1782 3455 2551 2673 2061 2770 1694 1590 3232 3373 3720 2582 2986 2037 1698 2990 2901 1867 2199 1598 2133 1710 2677 2875 3598 2661 1634 2437 2767 3529 3377 2391 2762 2139 2165 3915 3584 3216 3684 3489 1692 2613 3406 2934 1798 1884 2724 3755 3505 3343 3742 2446 1731 1785 2949 3953 2031 1979 3583 2730 3496 2502 2610 2663 2002 3487 2182 2828 2939 1649 3676 2218 2261 3113 3261 2299 8 18 37 60 39 80 37 49 51 97 21 47 63 10 88 84 71 17 51 97 58 80 38 74 68 99 50 14 93 46 77 4 9 86 24 65 20 38 70 78 27 7 84 18 62 81 14 50 54 78 69 70 32 0 30 50 41 2 66 77 78 21 83 43 1 69 63 2 14 41 74 82 18 55 84 4 93 28 47 65 75 24 4 68 64 65 8 8 18 27 59 9 96 32 27 48 40 8 12 23 2390 2958 3224 3749 3841 2222 3608 3779 3538 1897 2903 1646 1828 3696 1948 3922 3901 3479 3497 3966 3639 2950 2771 3803 2319 2900 3751 1842 2790 1814 3969 3830 2501 2316 3770 2923 3592 2174 2057 3506 2306 3249 3844 2570 2366 2470 2525 2960 2100 2307 3018 3911 2656 2633 1748 2456 1797 3676 2634 1536 3224 3325 3803 2266 2008 1766 1706 2068 3464 3363 3017 2861 3855 3879 2689 2410 1850 2300 3704 3680 1539 1503 2407 2863 3248 2081 2549 3244 3946 3003 1520 2681 1589 1546 2807 2354 1713 1846 1799 3431 3752 2155 3727 3487 3359 2933 3416 3700 3362 3619 3114 2559 3702 3187 1914 2754 3730 1798 2564 3630 3462 3906 1661 1827 2260 3301 1952 3323 3451 2858 1913 1983 3713 2399 2044 2415 3532 2095 1539 2156 2954 3008 3704 1825 3364 2711 3510 2455 2402 3351 1649 2252 3579 1792 1630 2735 2678 2464 3610 1822 3112 2900 2469 3638 3757 1560 1623 2219 3874 1561 3929 2577 1614 3818 3445 3365 2132 2133 1732 3066 2695 3118 2203 2242 2815 2975 3006 3085 3110 2880 2379 2921 3204 2079 3057 3080 2043 3683 2764 2921
3050 3954 2636 3517 3503 3500 2056 2412 2113 2020 2013 3081 3934 3765 1817 1595 2776 3707 2823 2728 3020 2308 2569 3056 2708 3709 2022 2519 2760 2495 3920 3874 1616 3132 2698 3120 3395 3530 2177 3163 3403 2136 1746 3045 2468 2416 3997 3418 1982 2483 1689 3753 3648 3325 1680 3066 2635 1907 1642 1609 3068 2217 3577 2175 1526 1968 3405 2570 3654 3591 1958 3838 2580 2863 2212 3989 3249 2727 2935 3020 2747 3695 3935 2592 1677 3597 3532 3570 3024 2151 1844 1936 2068 3502 2723 1981 3793 2999 3049 2057 58 40 65 76 30 6 34 30 23 83 67 82 48 78 28 14 67 78 39 53 57 76 27 75 65 58 17 1 37 40 89 60 5 62 49 36 82 5 12 39 14 70 66 54 94 58 99 34 2 27 27 1 93 30 0 20 1 95 72 36 44 98 38 12 3 1 25 34 27 98 68 92 58 64 45 11 40 53 92 25 95 19 34 92 41 31 55 68 60 14 80 31 33 3 71 98 29 75 98 3 1587 2540 3202 3616 2252 2976 1871 1930 2302 2721 1888 3325 1705 2418 3576 2739 3748 2835 1786 2587 2471 2200 1676 2732 3347 2758 2355 3258 2393 3968 3014 2576 3297 2557 2354 3670 3355 2351 2180 3302 2592 2426 2156 2681 3614 2469 1711 2381 3886 2118 3965 1634 2562 2360 1613 1773 2436 2209 3062 3782 2678 2718 3052 2485 3809 3184 1976 3960 3807 2995 3195 2611 3652 2752 1554 1546 3421 2851 1665 1948 2070 3850 1581 2086 3899 3019 2176 3297 1977 2638 3892 2339 3131 3112 2541 2996 2896 2843 2776 3779 1627 3904 3572 1791 1716 3025 2346 2276 2376 1646 1614 2683 3984 2538 1943 2417 3626 2881 3693 2198 2553 3699 1970 1632 2344 2113 3516 2688 3421 1881 1649 3395 2230 2414 3284 3095 3682 2583 3410 3235 1935 3773 2827 2949 2901 1695 2712 3243 2495 3415 2927 2628 3327 1615 3800 2055 1526 2986 2451 2421 3584 3740 2765 1501 2219 2711 3119 2317 1658 1728 3571 3035 1754 3568 2781 2797 1966 2296 2691 3529 2851 2437 3239 1977 2624 2526 1536 3231 3694 3019 2606 2150 2629 1914 2375 3126 3585 3013 3230 3581
2374 1617 1668 3875 2355 1969 3456 1983 3915 3873 2442 1528 3012 2659 3856 3061 2376 3742 3669 3151 3319 1901 1990 3477 2286 3017 3407 3486 1594 2756 1892 3406 3855 3213 2962 1987 2587 3294 3449 2400 3823 2885 3868 1753 2293 1879 2569 3371 3759 2333 2237 3552 3249 1738 3865 1840 2866 3932 3920 1693 2117 2243 2147 2440 2870 1847 3155 2483 1686 3524 3145 1831 3381 1976 3285 3199 2145 3075 3809 2439 2670 3004 3379 2368 2794 2393 3990 3558 1934 3159 2496 1837 2682 3383 2693 2606 3130 3505 2956 1958 98 35 42 61 98 18 10 66 96 91 80 12 76 46 22 69 12 29 20 80 49 97 56 80 96 71 33 91 66 78 16 30 4 61 77 93 73 68 86 21 97 83 65 16 3 48 61 29 6 83 73 60 16 50 20 0 45 81 12 15 98 73 37 79 58 2 84 34 24 61 31 74 60 55 39 52 11 22 1 50 83 16 34 73 15 69 31 16 77 18 20 51 66 71 93 14 31 69 70 42 3573 3069 2928 1637 2962 3917 3234 3253 2689 3836 3279 2060 3963 3349 1912 2428 3964 3577 1905 1964 2462 1560 3475 2849 3777 2343 3391 2161 2785 2588 2317 2629 2535 3740 2067 3559 1979 3122 3219 2476 2751 2135 3157 1561 2664 3108 3645 2723 3236 3726 2527 2994 2221 2035 3112 3577 1896 3432 3931 2293 2869 2593 3401 1765 3407 2760 2045 3455 1615 1776 3182 2055 2252 3392 3923 2284 1829 3104 1776 2540 2040 3491 3775 3640 2258 3582 2997 1980 3980 1928 2874 1709 1679 3997 3403 3801 2041 3116 2592 1690 3982 3872 2061 2331 2788 2956 2703 1802 1575 2675 1749 3535 3766 3114 3806 2121 3355 3081 3526 2772 2431 2877 1597 3897 2180 2074 2818 2511 3082 3546 3358 3597 1938 2235 2273 2717 1642 2731 3133 3632 3925 3129 3390 2474 2477 3076 2499 2633 3289 2551 1955 3182 3556 2368 2682 2122 2940 3513 3042 1897 2450 3068 1683 2301 2829 1680 1847 3368 1511 1998 3041 2762 1647 1519 3069 3872 1552 1732 2976 3073 1680 2897 1642 3810 3762 3638 2294 3178 2840 2210 3158 3230 3647 1717 2572 1843 3875 1589 2600 3620
3987 3609 3354 3826 3584 2490 1524 1859 3301 2587 1891 3722 3574 2662 1711 2122 2904 1887 1521 2743 3436 3582 1611 2467 3039 3348 2723 3862 3560 2734 3549 2498 2548 1947 2238 2511 3716 3289 3627 2691 2652 3937 2305 3053 1570 3558 3170 3178 2003 3965 2839 2091 3089 3727 2286 1578 2898 2558 3461 2135 3870 2708 2040 2290 2246 3152 3066 2128 1617 1965 2771 3663 3637 2403 2450 2200 2104 2689 2742 3131 2694 2941 2430 2373 2386 2336 2804 2580 1979 3350 1678 3156 3967 3298 2429 2112 2103 3332 1723 2040 43 76 66 54 8 3 46 77 56 97 9 15 39 11 18 56 66 46 39 64 14 67 9 35 37 78 19 70 89 99 75 76 43 62 84 50 46 14 7 42 96 29 56 31 41 62 14 85 98 34 57 30 28 41 1 45 0 33 43 65 58 14 10 14 60 19 32 13 59 87 14 47 90 76 45 83 49 31 90 27 66 29 19 5 5 43 58 59 78 9 5 95 30 25 46 69 84 70 93 8 2709 3492 2063 1993 2219 1663 1677 3139 1820 2887 1553 2991 3669 2402 2667 1577 2744 1709 1975 3955 1948 2259 3808 2451 1932 1915 3847 3266 2644 3553 3256 3029 2656 3639 3730 3149 2711 3164 3283 2205 2692 2002 2132 2330 3484 3664 2678 3701 1971 3585 2098 1569 2433 3786 2894 1967 3490 1935 2495 2754 3383 1954 2593 3469 2373 3185 3788 1635 2662 2335 1705 2972 1807 2260 2937 1864 3376 3430 3080 2991 2058 3142 2937 1833 3598 3629 2424 1951 3570 3401 3337 1828 2064 2072 3580 1999 2826 3017 2508 3117 3667 3301 1873 2935 2543 2936 3534 3289 3327 2040 3628 3727 2843 3857 3171 1588 3812 3277 2876 3526 3189 1538 1656 1545 2796 3329 3855 2154 2635 1682 1765 1663 1916 2348 2021 3514 3584 2130 1525 3216 3513 2051 1785 3079 2149 2451 1909 2244 3607 3225 1830 2478 3201 1838 3787 3022 2013 3662 2887 2230 3475 2937 3621 2151 3511 3596 2785 3843 2727 2209 2899 2473 2968 2627 2222 3725 2262 2997 3497 3963 2169 1833 3540 3081 1983 3300 1825 2391 2753 2861 2656 2103 2214 2046 3208 1794 2375 3181 1918 3436
3009 1508 3433 1576 2363 2610 3246 1537 3889 3442 1598 2526 2198 1584 1985 2556 3021 3648 3816 2096 2437 2584 2945 1517 3210 2856 3597 1637 2477 2760 2393 2466 2937 1821 1939 3341 2967 2762 2682 3347 3094 2816 2721 2341 2886 1816 2861 2168 2089 2218 1525 3019 3408 2241 1884 3544 1770 3430 2745 2909 2290 2925 2734 3900 3365 1664 3606 3189 2938 3042 2236 3391 3577 3279 1537 3454 3285 2672 3921 3409 2569 3599 2508 2569 2986 3623 2530 2958 2594 3222 3892 2795 3342 2889 2462 2616 2321 3985 3969 2462 22 8 62 89 73 80 59 78 90 75 92 1 11 86 15 93 17 75 29 78 54 91 91 31 11 18 17 90 47 32 51 19 83 80 71 2 86 41 64 24 87 79 30 11 81 33 93 80 41 90 4 85 13 2 95 81 33 0 87 55 90 71 29 63 89 76 35 49 96 86 40 82 85 49 35 58 91 38 25 72 75 25 86 74 49 91 56 16 87 10 26 50 15 88 51 66 76 34 85 80 3697 3720 2441 3233 2399 3362 3451 3403 3483 1652 2152 2353 3685 1856 1936 2187 1785 1757 2173 3169 3883 2177 3115 3850 1556 3512 3289 2116 2819 2178 2146 3340 3184 2869 2986 3735 2084 1629 3405 3764 3701 1709 1739 3545 1514 3843 3594 3862 2937 3967 1931 1764 3175 3572 2825 3476 1656 2736 2661 2510 2709 3178 2802 2109 1668 3086 1857 1788 1804 3905 1988 3004 2416 2404 3576 3366 3214 3037 2028 2917 3508 3148 2558 1637 3067 3231 3399 3490 2523 3438 3746 3894 2218 3518 2319 3981 3781 2120 2050 3650 2874 2277 2246 1689 1538 2383 3191 3393 3873 2247 2872 3880 2077 1785 1785 1810 2176 2807 2658 3389 3318 2581 3236 2605 3405 3665 2722 3114 1656 2262 3227 2888 1772 2022 2759 3200 3748 2887 3886 2639 3499 3611 3528 2079 3301 3612 1942 2362 3348 2827 2241 2584 3109 3243 3067 3490 2032 2357 3401 1526 2082 2893 3427 2077 2711 2094 1689 2014 1613 2073 3987 3541 3289 2530 2691 1851 2171 3195 3776 2195 1567 2409 3233 3380 2463 3476 3404 1930 1792 1704 2812 1665 1609 2460 2986 3786 1614 1744 2612 1819
3872 2560 3274 2755 3410 3645 3991 2491 1960 1918 3073 1906 3799 3280 3905 1626 2953 2429 2045 3744 2564 3721 1890 2012 2855 2018 1683 3567 3741 1517 3870 2950 3267 2085 3167 3629 2634 2010 1752 3165 2893 3226 2512 3629 1819 1789 2260 3000 2777 1934 1868 3164 2989 1650 1508 1567 1988 2438 3908 1953 1529 1801 2076 2781 1714 3642 3504 2286 1539 2164 2765 2972 2569 2019 3288 2115 3832 3971 3395 3637 3260 3594 2022 1767 3197 1536 3875 3751 3126 2061 1732 3622 1651 3060 1682 2510 2604 3405 3430 2629 61 15 59 87 87 61 50 87 42 43 58 75 91 71 31 5 32 57 78 57 7 58 93 30 62 36 12 7 35 98 72 50 51 25 16 36 21 13 9 41 81 43 21 11 85 51 27 15 13 62 97 89 50 66 72 12 43 87 0 92 22 86 45 83 1 89 52 62 26 53 72 52 73 42 33 70 76 73 46 68 40 8 41 40 13 76 38 73 8 79 25 20 16 56 31 12 37 5 17 66 2179 3015 3042 2771 3905 2278 3677 3263 1741 1554 2385 2120 1535 1789 2352 2972 3455 1732 3979 1615 1891 3647 2142 3404 3495 2733 2117 2985 1785 2565 1619 2246 2331 1711 3924 1514 2355 2294 3113 2145 2247 3181 3133 2698 1902 2039 2823 3665 1533 3270 2678 3721 2054 3299 3745 3197 2343 3236 3814 2192 3579 3650 1596 2005 3447 3679 3755 1663 3321 3960 2563 3027 3411 3453 3997 2796 2211 3379 2691 3723 3781 1851 1697 2518 3117 2265 3483 3469 2336 3692 2377 3428 2266 2409 3851 3902 3066 1836 3029 1990 2926 1770 3165 2108 2681 1543 3295 3527 1589 2663 1813 3707 2593 2579 3702 3553 3962 3605 2251 1628 3064 2815 1756 3963 2158 2936 2057 2935 2032 1518 3118 3180 3222 3557 3783 2940 1516 1808 2387 3132 3639 3405 3386 3441 3891 2182 1970 3322 1972 3750 3161 1577 3181 3121 2869 3831 2290 3710 1841 2908 3849 3169 2451 2636 3268 3318 2665 1501 2263 2162 3183 3120 1795 3622 1682 2304 3888 1667 3150 2201 3946 1836 2672 3766 2423 3289 2560 2042 3762 3126 2316 3477 2462 2171 3467 3529 2974 3709 2907 2451
1540 2273 3553 1665 3435 3922 3568 3220 1577 3295 2040 2062 3695 1797 3488 2255 1736 2634 2843 2923 2727 2198 2630 1912 3804 2752 2352 1749 1826 3010 2722 3825 2545 3754 2521 3249 2386 2348 2457 3917 3579 2512 3275 2133 3682 2336 2602 3124 3650 2103 3650 3065 1798 2320 1583 2563 2535 3599 3562 3423 3822 3550 1848 2137 1547 1639 3577 2893 3004 2334 3547 3816 2034 2599 2381 2642 1659 1704 3613 2680 3097 3816 2510 3076 3169 2656 2039 2372 1794 2620 2363 3039 3817 2376 2980 2367 1653 2967 3703 3433 88 6 5 86 87 49 12 74 25 47 80 95 95 97 81 9 15 56 80 70 72 98 52 59 62 35 65 79 84 92 41 64 2 95 76 45 91 64 90 90 76 43 87 18 43 34 13 21 58 70 73 90 15 77 36 15 65 55 92 0 63 35 99 11 57 18 66 5 75 66 23 3 40 64 58 59 14 84 91 19 9 39 32 94 56 56 79 49 33 81 76 96 7 49 64 98 26 33 27 79 3848 1740 3549 2295 2746 3845 2280 3307 3853 2145 1533 2122 2424 2524 3578 2697 2065 2008 3147 2281 2996 3670 3032 3621 3713 1853 2194 3404 3445 1807 3432 3323 2251 2464 3147 2222 2011 2082 2097 2189 2241 3405 1843 3639 1810 3893 2608 2373 2947 1890 2281 3471 2113 2744 1779 1515 1621 2058 2297 3844 3304 3767 2891 2665 3910 3592 3910 2306 1542 3199 2145 3099 3134 2485 2206 2625 3010 3374 2881 3268 3447 2667 3569 2670 1649 1872 3338 3545 3746 3871 3938 2291 3675 1785 2500 2989 3034 2069 3849 2190 3106 2650 3707 3607 3685 2403 2742 3322 1780 2111 2154 3896 3297 1770 3800 2793 3719 1776 3129 3328 1858 3632 2437 2387 1658 1805 3152 1562 1509 3910 3582 2356 3830 2231 3759 2300 3729 1917 3358 2409 2116 3486 3643 2752 2447 3769 3009 2496 2617 1683 1631 2365 3547 1649 3789 1974 2310 3207 3068 1962 1789 2600 2692 1614 3493 3124 2073 1898 3520 2388 2344 2538 2118 1669 2657 3593 3419 2556 2391 2599 2205 3884 2445 3953 1963 2794 2004 2722 1604 1830 2634 2206 1957 1500 3689 1634 2213 2896 2769 3905
2650 3949 3502 2564 2107 2642 3335 3115 3715 2312 1941 3456 2808 1948 1964 2975 3517 2518 3172 1603 2779 3349 1963 2878 3744 3031 1905 1798 2333 2025 2924 2598 3280 1676 2642 3814 1623 2037 1512 1643 3113 3854 2250 3238 2680 2701 3091 2765 1905 3123 3247 3461 1835 3807 1987 3126 1661 1669 1648 1847 3970 3265 2626 2020 2309 3935 2478 2838 3869 3768 2007 2474 1993 3131 3052 3662 3054 1854 3409 2973 3966 3931 1637 3607 1764 2644 2148 1921 3087 3028 3510 2324 2520 3430 2028 1934 3632 1827 3978 3391 75 67 1 51 67 55 98 47 91 31 94 65 10 69 60 23 36 39 74 89 94 94 30 49 74 48 41 51 92 10 84 38 60 48 94 15 72 19 40 42 54 53 10 23 88 47 23 90 87 84 95 50 47 78 44 98 58 90 22 63 0 50 6 34 56 65 65 48 97 64 61 48 22 91 25 97 6 69 8 88 92 84 30 77 10 41 59 58 1 36 98 69 93 1 2 51 33 16 87 30 2707 2212 3645 3396 1623 3865 3885 2862 3171 2708 3660 2287 2562 3124 2048 2802 3918 2466 3067 2442 3604 3930 3764 3109 1864 3990 1649 3358 3322 2231 3436 2528 3838 1608 3876 3160 3225 2109 2127 3357 3875 3178 3369 3179 3814 1858 3556 3310 1533 3684 2213 3179 3909 1825 2084 2556 3940 3171 3547 2926 2363 2835 3609 3993 2971 2689 2543 3329 2883 1785 2971 2715 2051 3733 2207 3398 1938 3982 3330 2650 3288 2181 1635 3896 3407 3977 3193 3147 3133 3173 2339 2804 3226 3756 3434 3852 2338 2433 3030 2014 2147 2902 3742 2257 3640 3034 3663 3257 1620 2245 1772 3403 1972 2237 2381 2347 3966 1705 2927 3814 3103 2468 2547 2463 2532 2545 1801 2497 3412 2743 3698 3985 3665 2848 2598 3285 3302 3627 2471 3014 2975 3899 2521 1665 3251 1986 2220 2798 2624 2119 2912 2322 3812 2037 2972 1546 1553 3163 1771 2332 3513 3740 2428 2434 2549 3120 2575 3725 2315 2256 1809 3788 2172 2878 3108 2247 2271 2711 3291 3962 2196 3668 3099 1954 2036 3802 3352 2037 3207 3832 2313 3596 3145 2586 3306 3768 2288 3043 3838 1905
3587 3137 2495 1569 3199 2893 2861 3974 3581 2823 2696 2988 2638 1673 2984 3074 1611 3415 2015 3799 3317 1758 1927 2859 2402 3781 1637 1591 1588 2355 3014 1699 3171 2954 2072 2525 3753 1652 3265 2861 2335 3112 3248 3331 2769 1880 2517 3948 3676 2477 2852 2165 2218 2664 3347 2826 3977 1983 3704 1554 2432 1932 1805 2091 2871 2309 2714 3382 2199 3618 2561 3835 2378 1621 2994 1888 1873 2996 2541 1814 3744 1664 2556 2004 3615 3588 2217 2430 2196 2867 1670 3272 3575 2417 2701 1966 1918 3601 2604 3775 60 77 44 96 79 25 6 42 61 84 72 86 68 86 59 62 47 48 1 50 55 44 66 57 95 40 41 54 90 10 98 35 98 15 36 59 78 96 36 64 37 23 73 68 18 11 67 59 24 70 30 2 45 21 98 73 14 71 86 35 50 0 38 61 58 74 60 57 42 35 43 70 75 12 54 53 45 50 15 94 76 26 74 77 20 53 72 30 76 30 73 69 35 50 77 22 22 28 4 23 1869 1816 2048 3225 1810 2393 2702 1828 2705 3048 2530 2700 1744 3392 3159 3534 2313 3808 2512 2038 3227 1693 1528 1744 1673 3711 1542 3787 2802 1676 2916 2203 1511 2032 1840 3732 2859 3255 3625 1740 3935 2025 3074 3949 1514 3128 2984 3500 2723 3251 1558 1614 2210 1931 3312 2766 2994 3910 2345 3609 3388 3433 2930 2475 1642 1515 2081 2476 2344 3512 1782 1752 3465 1718 3440 2368 2076 1780 3270 2946 3269 3263 1718 1754 3200 2977 3882 3089 1512 2863 2823 1663 1878 3870 1977 1866 3004 1796 2656 2112 3800 1603 2464 3949 3186 1653 2555 2248 3295 3030 2623 2574 2094 1949 3610 3403 3467 3434 2272 3285 3130 2385 3873 3564 1999 2418 2232 1939 1967 1748 1814 3723 3365 3509 3640 2623 3085 2561 3120 3136 3444 3629 3801 2653 3031 2612 2138 2329 2644 2789 2360 3887 2919 3693 3424 2504 2955 2993 3537 1558 2795 2278 3355 3954 2361 3671 2801 2553 2440 1780 1854 3869 1622 2610 2038 3422 1656 1806 1894 1772 1889 1939 3436 2832 3415 2488 1711 2911 2862 1661 2893 2883 3952 1612 3190 2808 1699 2828 3112 3746
3394 3934 2623 2208 1561 1815 1882 1787 3742 2326 2712 3395 1689 3132 3464 1587 2519 1647 3341 2172 1801 3455 2350 1500 3559 2815 2855 2960 3250 3855 2794 3994 3150 3034 3965 3382 1589 3312 3917 2688 1735 3043 3257 3038 2613 1937 2363 2107 3768 3590 3151 3340 2892 3735 2821 2831 3591 3259 1781 3566 1865 3567 3881 3577 3571 3531 2015 3542 2699 3655 1766 1908 2603 2408 3707 3149 3662 3601 3651 2830 1733 2740 3497 3084 3883 1509 2099 2985 1653 2150 3675 1961 1832 1898 2571 1656 2058 3784 3035 3501 21 27 3 88 71 5 93 71 30 11 75 93 67 81 91 85 32 1 76 11 78 64 90 52 92 63 69 32 56 39 10 79 2 44 31 20 5 72 72 82 5 99 10 98 33 55 31 58 4 76 93 15 31 83 38 37 10 29 45 99 6 38 0 61 38 48 35 96 47 63 93 12 93 50 18 76 29 36 8 95 86 91 66 60 56 18 88 15 72 38 81 5 70 25 44 4 61 10 14 62 3994 1553 2241 1597 3729 3388 2056 2623 2068 2583 3141 3886 1943 3460 2010 2098 1869 3877 1529 1980 2191 2753 3128 2266 1727 1568 2309 3782 3734 3909 3140 2160 3647 2419 3484 2665 2909 1746 2122 1726 1996 1920 3011 2951 3133 2596 2489 2777 2188 3280 1822 2375 2218 1753 3026 3354 3748 2072 3617 2957 3957 3300 3037 3388 2711 3497 3417 2268 3072 3534 3851 3715 2648 2892 3920 2655 1853 1947 1787 2006 1856 2313 3213 1849 3526 2966 1724 3525 3135 1882 3266 2811 3538 3047 2123 2564 1669 3774 2963 2919 3559 2496 3356 3489 1965 2511 2411 1686 2200 1632 3113 1978 2835 3165 2125 2737 3239 2710 3001 3450 3667 2910 2606 2775 2059 2323 2195 3330 3733 1798 2306 1867 3817 3360 3194 1638 3746 3908 1641 1822 3701 2886 3477 2391 3064 2660 1787 2536 3870 3364 2484 3488 1743 3876 2208 1815 3057 3823 2722 3179 3543 2026 1675 1770 3958 2124 2759 1901 1745 2864 1560 1876 3865 2193 2287 3445 3434 3439 1791 1638 3728 3785 2618 2451 1789 1941 2196 2351 2244 3347 2301 3573 3493 1734 3330 2393 3823 2972 3821 1715
2518 2536 2235 3164 3381 1653 3143 1729 2192 3678 2195 3598 2786 1638 2516 3710 1876 2989 2813 1624 3232 3408 3425 1652 2003 1561 1921 3648 3981 2780 1509 3810 2898 2030 2937 1901 2281 3409 2180 3500 2884 2067 3753 1901 1526 2014 3541 2265 2126 1966 3184 3123 3326 3169 3665 2769 3301 2716 1866 2192 3889 3224 1808 1540 1996 2396 3225 2958 1741 2868 3994 2268 3217 2328 2541 3980 1716 3500 3418 2816 2724 2595 2304 1703 1947 3894 3987 3721 1537 3777 2046 2888 2681 1553 2459 2128 3411 1551 1932 1640 72 60 73 30 18 62 74 83 88 34 95 49 27 74 34 70 50 27 62 38 55 80 47 4 45 74 83 57 82 29 6 50 75 61 55 40 27 74 29 98 17 30 53 60 21 87 3 19 80 12 92 83 53 43 12 79 14 63 83 11 34 61 61 0 81 75 12 48 24 26 96 94 74 54 39 14 14 80 41 2 26 52 16 59 40 68 20 45 97 97 77 98 80 87 23 61 79 13 74 33 1884 3452 3383 3764 3599 1509 2074 3410 3061 3338 3411 3165 2243 3587 3537 3566 2809 1813 2282 3872 1556 1594 1684 3698 1634 1533 2567 2503 3646 3989 3432 2655 1728 3957 2346 1643 3101 2166 3149 2784 3472 3304 3394 2965 2594 1868 2133 1623 3198 1927 2070 2471 1778 2327 2068 2795 3963 2698 3474 2783 3224 2261 2854 2486 3546 3225 1697 2339 3975 3826 2260 2242 2033 3293 3683 3697 1878 1537 3866 2281 3908 2200 1596 2977 1837 2451 2099 1542 3074 2264 2642 3350 2174 2142 3503 1926 2739 2842 2328 1528 3329 1706 3237 3200 2369 2665 2354 3566 2203 2557 3758 2388 2244 2677 3308 1522 2016 2257 2664 2996 2991 2455 2389 2120 2670 1579 1970 3130 2876 1745 1569 2863 1625 3905 3085 2914 3985 2506 3500 3781 3162 2497 1633 3106 2851 3276 2624 3492 2043 2690 3466 2310 2817 2989 3738 2423 1947 3292 2550 3877 3380 3393 1907 1989 2651 2207 3662 3654 3023 3485 1625 2144 2937 3569 3924 3468 3826 1819 2832 2888 3837 3490 2396 3250 3476 3515 2431 3792 3234 1951 1690 2049 2026 1638 2446 2289 3064 3244 1893 3317
2743 2759 1925 3609 3145 3629 2340 1695 3421 3019 2142 1683 3156 1830 2231 3436 2765 2723 3183 2263 2781 1736 2587 2045 3586 1927 2448 1748 2956 2077 2973 1905 1687 3260 2470 3139 3737 1795 1949 2189 3503 3811 2004 3680 2510 2246 3161 1578 3717 2085 2828 3846 3560 3704 3939 1886 3300 1632 3647 2414 3097 3726 2075 1501 2136 3747 1894 2906 3840 3959 2899 2302 3978 2814 3599 1543 3125 3985 3605 3814 2526 2177 2062 3090 3843 1741 2564 3542 2289 3582 2865 3022 2472 3863 2778 3785 1529 3426 1525 2004 89 94 72 63 8 65 77 8 74 43 30 11 52 11 62 98 1 24 95 3 46 56 20 38 82 66 3 50 25 42 21 81 9 83 49 9 40 19 10 3 91 64 54 70 84 70 27 96 77 91 99 42 6 1 3 58 60 89 1 57 56 58 38 81 0 13 43 16 61 53 64 15 86 72 34 21 37 53 28 42 74 11 51 4 78 90 54 95 65 22 70 36 61 21 43 53 32 51 22 7 2421 2381 1681 3857 2184 2384 3379 2588 3265 1909 1532 3329 3842 1873 3120 1619 3798 2885 2106 3505 3363 1843 2470 1846 3274 2372 2561 2112 3990 1576 3897 2921 2255 2689 3343 3807 2151 1817 2170 2764 2950 2421 2132 2723 2103 1849 3915 1845 2533 2059 3790 2626 3517 2858 3110 2609 2788 2850 1744 1705 2547 3594 1635 2809 3038 1785 2397 2958 3988 2615 1828 3723 1921 3133 3679 3854 3509 3622 2761 3613 1800 2806 2311 3598 2017 3459 1971 3423 1507 1550 3367 2348 2944 2394 3390 2992 3029 3754 1764 1856 1853 3966 3618 2951 3719 3675 2804 3574 3370 3701 2732 3359 2965 2415 2473 1889 3641 3036 1857 3818 2868 2117 1698 2048 2052 2593 1725 3393 2044 2974 3587 2881 1899 3988 1757 3307 3213 1638 2478 3188 2915 2627 2743 2965 1933 1740 2412 3419 3521 3539 2886 2118 3949 3128 2822 3150 2634 2090 2612 3643 3543 2351 2110 2917 3773 2321 1759 3426 2500 3712 2444 1928 3850 2479 3249 2911 3247 3683 3600 2440 2602 3002 2458 1967 2066 3065 1932 2777 1880 3119 2732 1759 2110 1964 3033 1780 3547 2303 3173 3504
2550 2755 2192 2050 1586 3899 2407 1913 1601 2945 3705 3358 3950 2168 2267 2673 2943 2579 3997 3280 3761 3627 3654 3175 2666 2696 2207 2488 2471 3263 3577 1580 2314 1781 2403 3491 2856 3692 2063 3243 1658 3924 3061 2448 2774 3933 3256 1643 1621 2952 2954 2002 3081 3657 2055 3704 2336 3563 3062 2308 3352 3502 3443 2399 3792 1951 2811 3122 1749 3764 1874 1724 3889 3503 3157 2561 2493 3579 3547 2634 1592 1524 1549 3006 3958 1810 1532 2411 3981 3217 3075 3932 3262 3499 3002 1986 2470 2012 2290 2902 88 39 46 57 34 41 25 5 52 32 15 63 44 32 39 56 85 6 60 71 91 58 12 82 3 42 82 78 50 91 27 39 3 61 73 87 30 24 7 37 55 98 41 28 6 32 98 14 77 94 74 70 7 69 1 2 19 76 89 18 65 74 48 75 13 0 90 23 21 70 38 27 43 16 53 67 2 43 87 68 54 72 28 72 16 86 3 95 65 79 76 73 98 51 36 34 23 99 97 49 2348 2495 1996 2907 3409 2442 3268 3943 1741 2630 3023 3420 2614 1545 3965 3827 3827 3301 2215 2340 3855 2445 2272 1608 1588 3737 2801 3606 3846 1526 3838 2672 3989 3699 2920 3774 3583 3732 3164 2481 2808 2761 2996 2666 3095 1532 1653 2585 3395 3906 2066 3433 3915 3266 2936 3217 2215 2146 3824 3276 1680 3737 2727 1937 2789 3991 2854 2387 3078 3994 3640 1614 2499 3103 3179 3765 3127 1615 1917 3598 2119 2392 3232 1934 3805 2099 1810 3390 1522 2730 2483 3417 3946 1808 2118 2282 2734 2679 2663 1856 3787 1876 2120 3381 3618 2079 3820 2949 3070 2345 2550 3590 3974 3227 1784 3241 1928 3098 3509 2915 2499 1832 2800 3836 2545 3663 2177 3372 1936 2243 3061 1585 1840 2499 2559 2420 3615 1719 2418 1909 3052 2231 1594 3425 1762 3553 3825 3112 2934 3892 2476 3905 1858 3455 3493 3035 3522 1574 1682 1802 3586 3723 1544 3322 2582 1994 2794 2067 3727 1731 1717 3062 1806 3391 1655 2212 2853 2974 2944 3946 2883 1880 2898 2364 1640 3143 1514 2840 1587 3867 3072 1544 1615 2129 3972 1692 2909 3867 3681 2044
2823 3383 3308 2520 2528 3540 3937 2664 3714 2822 3723 2015 3570 3489 2124 1971 1707 1978 3839 2520 3637 3024 3738 2272 3086 2774 2691 2839 2104 1577 3929 3784 2419 3175 3601 3254 2623 2547 2800 2642 3868 2007 3296 2812 1893 2398 3221 3614 2773 3514 1634 3604 1674 2955 3964 3348 3627 2430 2540 1875 3642 1733 3126 2534 2142 2607 3450 1769 2759 2648 2892 1645 2250 2428 1996 2228 2718 3119 1681 3238 2383 3778 3033 1815 3872 3595 3233 3122 1506 2927 2640 3264 2383 3367 3896 1777 2227 2480 3311 2854 15 89 11 75 37 77 29 47 60 32 19 61 74 38 19 71 40 26 42 98 57 35 2 89 93 21 52 32 50 9 29 99 34 26 34 3 4 50 77 27 84 73 13 4 22 69 67 19 12 98 69 33 40 63 25 84 32 35 52 66 65 60 35 12 43 90 0 94 55 27 11 28 89 66 86 84 35 35 33 34 5 26 10 77 18 21 37 81 79 27 35 73 91 53 57 71 44 90 60 29 2972 3225 2436 3856 2240 3832 3958 3494 2807 3611 3613 3728 1853 2283 3565 3159 1882 3233 1834 3461 3292 1939 3274 3074 3420 3173 2477 3922 2778 3314 3050 3192 1921 3098 2673 2802 3603 2554 3159 3912 1663 3244 3438 3743 3944 3877 1525 2720 2089 2785 2299 2934 3300 1806 2732 3428 3011 2997 2114 2320 2029 2715 1958 3714 3545 3254 2418 3871 3569 2395 3390 3110 2403 2203 2516 3341 3777 3866 2767 2119 1944 3453 3892 2307 2884 2335 2183 3909 2953 2659 3685 1684 3355 3386 3588 1872 3865 2583 2986 3260 2888 2479 3439 2384 2855 3636 2354 3543 3510 3942 2016 2977 2560 3928 1866 3774 2922 1653 2639 2567 2691 2491 3200 3809 1703 1917 2981 3541 2775 2071 1882 1736 2475 2982 3046 3321 2169 2880 2119 2220 3354 3211 1544 2576 3253 2935 2642 1589 2947 3170 2866 3780 2828 2879 2111 3192 3066 2689 3315 3397 3554 2369 2904 2243 1648 3685 3453 2332 3983 2244 2950 3148 2779 3126 3300 1552 3047 2328 3013 1688 1948 3844 1812 1511 3852 3236 2048 3068 2840 2466 1588 3447 3239 3272 2149 2119 3388 2617 3449 2562
2075 2772 2402 2941 3643 2026 1978 3504 3965 1721 1645 1807 2647 2553 1540 2058 3984 3444 2230 3193 2530 3973 3659 3806 2962 2775 2737 3334 2466 2573 3295 3764 3060 1601 2206 3759 3107 1926 1961 3935 3467 2062 3209 1825 2609 2273 3656 3545 1621 2352 2897 2286 2271 2119 2443 3316 1836 3151 2752 3553 2579 1632 2700 2034 3805 2159 1609 2183 3368 3606 2005 2043 3611 3037 1815 3161 2599 3678 3834 2880 1685 3749 3265 3825 2730 1603 3886 2698 1927 2110 3320 2246 3042 3521 2802 3885 2498 3446 3250 2648 87 46 69 34 31 65 92 79 51 86 79 3 13 47 66 45 16 76 11 14 76 18 34 3 65 33 95 33 69 94 54 54 43 90 39 82 78 80 47 26 30 93 83 8 32 69 12 58 66 89 34 37 78 2 34 34 13 49 62 5 48 57 96 48 16 23 94 0 12 78 89 40 42 65 96 47 98 71 65 96 5 28 90 91 69 95 97 21 81 36 18 70 95 45 98 91 79 68 13 82 3286 3098 1535 3586 1994 1751 2411 2360 2428 1963 3505 3038 1839 1582 2804 2599 1773 2086 1895 2697 2207 3173 1875 2339 1661 2725 2486 3743 2222 3223 3059 3660 3197 2747 3198 3371 3794 2547 2449 2911 2229 2621 2131 1978 3837 3793 2997 2730 1902 2242 2954 3866 3097 2031 3807 1957 2358 3884 3872 3565 1829 1564 1976 3991 3135 2372 1603 3542 3957 2445 1866 1822 2482 2411 3656 2421 3914 3047 1892 1577 2785 3472 3306 2431 3992 1841 2045 3144 3249 2798 1995 1549 3268 3950 3210 1637 1971 3667 3494 1819 3376 3648 1562 2247 3409 2780 1788 1666 1889 1554 2320 3372 3742 3130 2774 2989 3729 2421 3650 3417 3124 3153 1838 3729 3742 3744 1860 3341 2988 3907 2369 3619 2909 2433 2168 2637 1607 3927 3544 2219 2115 2125 3374 1548 3490 3953 1588 2148 2286 2841 1683 2187 1680 2235 3661 2423 2036 2736 1973 1922 2856 2061 2642 3266 3898 3641 1627 1864 3626 2786 2869 3509 3317 2955 2426 3518 2751 3043 2283 3501 3655 2781 3212 3180 2059 3082 2520 2402 1695 2299 3720 2222 1763 3073 3994 2864 3001 3796 2075 2975
3464 3784 3991 3427 3735 1838 3883 3101 2255 3891 1834 3586 2216 3529 2808 2358 3691 3542 2869 1799 1712 2975 2375 1588 3921 3723 2265 3721 1990 3167 1734 2889 3197 2217 1948 2295 1968 3570 1655 3867 1849 3965 2548 3381 1741 2456 2173 3185 1949 3711 2258 3591 1534 2539 3352 2222 2205 2047 3674 2818 1650 3130 2482 3841 2918 2020 3872 1761 2868 3416 3677 2520 3653 1883 2338 3794 2677 3267 2369 3257 3133 2463 1724 2803 3324 2222 1613 3803 1671 2396 1516 3903 3240 2528 3661 2403 2580 1697 1983 2267 69 46 14 68 3 25 64 24 56 77 58 50 48 22 13 45 63 58 52 81 50 96 5 52 89 9 5 12 91 32 24 40 7 8 31 83 70 81 21 59 59 90 54 77 11 83 48 58 98 57 48 58 74 14 27 24 59 96 26 75 97 42 47 24 61 21 55 12 0 82 8 42 78 82 42 43 21 59 80 21 7 24 16 37 19 69 67 67 4 96 56 3 72 64 35 57 72 92 32 40 3418 2649 2873 2706 3292 1685 3908 1774 3496 1662 1570 2314 3284 3823 1593 3982 2564 3059 3685 2887 2436 2372 2160 1879 3003 1813 2655 2025 1510 2544 3390 1698 2271 1928 2177 2406 3633 1877 2459 3206 2949 3917 3580 3368 3417 1549 3000 2217 2597 3148 3456 1626 2355 3906 2002 3182 1547 3201 3360 3822 2777 3472 2757 2338 2440 2495 3009 2712 2960 3251 2301 2386 3040 1671 2803 2260 1730 3556 1855 2428 2547 2572 2632 3274 3133 2277 3533 3745 1849 1525 2590 1969 2957 1713 2300 3655 2804 1928 2516 2292 2238 2088 3716 2620 2235 3469 2599 3528 2347 1765 1727 3000 2279 2659 2631 2509 3852 3876 1691 1507 2715 3095 2216 2817 2076 3185 3944 2397 2437 2695 2247 1558 3507 2308 2141 2791 2154 2085 1602 3853 3635 2243 1820 2985 1523 1797 2800 2156 1715 1629 2476 2286 3041 2573 1802 3926 2046 3304 2561 1551 2546 2830 1602 3438 2847 2498 2617 2771 3319 3147 3992 3898 2151 2236 3729 3495 2138 2134 2756 3680 3824 2687 1993 2596 3021 2719 2104 3746 3216 2082 2215 2470 3327 3408 2547 2706 1916 2363 3061 2418
1694 1979 2942 3488 2398 2848 3243 3090 2405 3910 3119 2751 3036 1928 3764 2834 2079 2873 2091 3060 3253 3120 2754 3585 2877 2971 2157 2239 2899 3077 2402 3123 3646 1802 2961 3131 2497 1914 2501 1891 3118 3132 1960 2895 2005 2723 3167 3292 1678 3476 1951 3720 2409 2216 3618 2996 2865 2537 1907 2147 3374 3217 3522 2693 2415 3612 3077 2693 2550 3391 2408 3733 1988 3127 2051 3689 2220 3204 2213 2875 1613 1566 2602 2652 2923 3129 1943 3229 3666 3692 2546 2988 3841 2063 1919 2018 3104 2391 2634 2871 61 65 79 84 38 88 15 63 21 67 62 98 69 2 49 86 47 53 55 7 75 91 9 58 86 75 37 1 41 8 53 78 68 96 94 78 18 98 29 15 27 99 4 94 63 40 40 34 59 66 83 77 6 41 98 61 87 86 53 66 64 35 63 26 53 70 27 78 82 0 13 91 94 32 66 70 8 14 38 76 62 75 88 27 56 30 18 66 44 45 24 53 51 81 44 17 10 68 41 6 2994 3586 2144 1705 1737 3022 1576 2051 1922 3663 3595 1529 2392 2767 3327 3795 2672 3958 3608 2086 3877 1897 1636 2998 2357 3723 3736 1925 3281 1777 3307 1982 1756 2359 2614 3630 1794 1600 2003 2915 1901 2684 1738 1665 3298 2850 2784 2254 1892 3750 3010 2701 2827 3600 3663 2166 1823 2690 2512 1577 2580 3217 1654 3335 3700 1760 3887 1637 1503 3921 1850 2837 2772 2254 3266 3679 2538 1989 2710 2255 3356 2572 2701 2267 1613 2795 1553 1861 3260 3486 3485 1641 3013 2896 1771 3334 2219 3490 3794 2668 2649 1689 2290 3538 2283 2972 1792 2490 3977 3884 3566 3513 2524 2843 2803 2999 3804 2531 2932 2002 1547 3081 3269 3412 2128 3620 3422 3833 1613 2170 1632 3645 3296 2257 3885 3193 3805 2134 3081 2855 2378 2527 3791 2820 2674 3990 2649 2349 3661 1584 3071 2537 3651 2651 3318 2271 1763 3083 2103 2675 1610 3504 2647 2209 2375 1853 2885 2953 1536 2566 3542 3736 3390 1771 1762 2258 1930 3837 3933 3791 3505 1906 3090 3031 3229 3322 1533 3052 3615 2329 3016 2954 3953 2360 3487 2870 1980 3669 1917 3573
2536 2690 3163 3989 3649 3666 2904 2169 1629 3519 3653 2972 2651 1848 2007 1684 3182 3718 2635 3772 3768 2218 1675 2333 3980 3545 1707 3995 3909 3558 1983 3555 3943 3102 2477 2061 2223 1641 1709 2262 3268 3590 1931 1723 3005 2241 2505 2794 2007 3196 3392 1886 3331 2183 2919 1983 1515 3529 2347 2825 3947 2560 1562 1524 3385 2215 2428 3773 3479 2887 1741 1686 3372 1597 3642 2746 3216 2236 2986 2046 3778 2393 2180 2739 3501 3180 3184 1501 3583 3441 1808 3277 2582 1852 3858 2264 2864 1654 1594 1689 62 96 34 96 12 11 88 31 33 77 42 59 30 79 56 63 9 77 9 73 71 3 55 55 70 70 57 3 22 20 18 80 44 2 67 13 38 17 43 60 97 40 83 23 62 83 54 69 36 37 60 84 36 74 68 31 14 40 72 23 61 43 93 96 64 38 11 89 8 13 0 21 54 50 24 83 99 69 78 86 7 70 95 60 42 86 98 67 32 42 47 4 1 3 65 56 24 98 24 19 2289 2184 2468 1981 3911 2999 2513 2781 3079 3397 2463 3238 3319 2135 3354 3699 2087 2778 2179 3861 1549 1689 2608 3254 2084 1690 2842 3129 3001 2056 2910 2641 2757 1512 3421 3996 1971 1838 3220 2339 3903 3962 3356 3797 2418 2444 2210 2672 3233 1600 3907 3843 3134 3248 3021 3900 3302 2316 3409 3304 3298 1919 1740 1889 2136 3786 1679 3237 3287 1714 2487 1962 3087 3556 3729 3788 3121 1999 2403 3712 1610 3117 2081 2944 1867 3858 3905 2686 1721 2370 2285 3438 1905 1542 2259 3541 2354 2883 3337 3539 1679 3366 3666 3128 1827 2700 2427 3739 2910 2379 3708 3715 3041 3686 3500 3527 2198 1723 2812 1930 2317 3956 3604 2531 1642 2453 3526 3495 3375 1942 3433 3665 2575 1575 2412 1565 2399 3536 1999 2372 1593 2806 3334 1701 3857 1607 2866 3321 3553 1887 3800 3420 2933 2495 2903 3862 1911 3805 3426 3119 1632 3418 3846 3908 1502 2353 3780 3268 3512 2023 2660 3001 1656 3398 2053 2557 3075 2420 3326 3124 3218 3778 2374 1688 2363 2975 2388 3406 3758 3568 3351 2106 2071 3430 3874 3528 2521 2659 1648 2960
2204 2116 2819 2329 3702 3782 1507 3869 2766 3125 3652 2663 2295 2797 2907 2990 1667 3576 3350 3073 1591 1643 2212 3250 3515 1959 2425 3641 1749 2760 2688 2984 2657 3102 2066 2682 2737 3653 3799 2585 3949 2244 2583 3388 3372 3360 2678 2556 2840 2903 1500 2069 3928 2512 1528 3906 2531 2309 3611 1500 3920 1794 3153 1515 2053 1756 3762 3681 3081 2213 2881 3504 2584 1623 2223 1702 3984 2544 3788 1645 2931 1528 3788 3008 1571 1711 3282 3835 2919 2610 1522 2748 1947 3071 2723 1907 1632 1562 3139 3067 87 70 2 1 97 59 59 56 12 76 17 53 80 88 54 93 47 97 33 43 45 92 80 81 90 50 95 89 90 62 47 54 10 3 77 21 55 53 66 25 56 8 85 46 43 13 60 96 27 62 39 98 98 82 92 74 47 82 52 3 48 70 12 94 15 27 28 40 42 91 21 0 53 16 94 87 81 57 58 71 62 35 94 68 75 93 93 4 19 61 54 77 54 92 96 13 34 12 11 99 2323 1971 3412 1881 2055 2778 2052 3411 2673 3002 3312 2361 2774 2132 2849 3294 2211 2776 2940 2505 1921 2689 3934 2137 2271 2535 2653 3490 3652 2713 3395 2896 2447 2801 1789 2349 3810 1946 3510 1582 2134 3632 1860 2470 3212 3508 3914 3863 3410 2207 2660 3501 3363 2565 3367 3533 3475 2728 3876 1907 3596 3609 1664 3635 2650 2546 2303 2197 3318 2012 3371 2852 1581 2678 1602 2711 3073 2528 2973 2051 3050 1873 3346 2052 3949 3248 2583 3919 3933 2584 2966 3872 1696 2393 3298 2498 1763 1923 1794 2030 1984 3781 2294 2483 2233 2144 2050 3840 2636 3786 2867 1855 3475 2951 3350 2368 2801 3853 2678 3884 3102 1817 3244 1708 1915 3750 1963 2102 1504 2086 2577 3028 1779 3571 3407 1511 2008 2613 2047 3742 1923 3266 3866 3679 1818 3699 3609 2673 2997 3563 3860 3795 3941 2796 2793 2295 3971 2602 2255 1724 2184 3141 2366 2150 3907 1653 2563 1726 3227 3066 3439 3748 1744 1698 3613 2220 3752 2389 3679 2723 2213 2734 2971 3187 2546 1816 2025 2020 2058 2485 2262 1878 1623 3534 3777 3258 2988 1707 2725 3699
3336 3659 3492 2872 2834 2797 3596 3921 3770 3358 3850 1524 2208 3812 3439 2629 2334 3051 3176 1928 1846 3980 3402 3662 1504 3703 3380 3666 1673 2565 3250 2994 2760 3737 3542 1555 2117 3615 3549 3403 3929 3103 2859 3177 2730 1767 2184 2787 3115 1926 3073 3575 2206 3305 3448 3402 2735 1660 3763 3698 2978 2038 2487 2288 2825 1974 2553 3910 2461 2526 1772 2356 2493 1561 3815 2487 1626 3924 1585 3569 2552 3975 3298 2534 1961 2859 3157 3120 2199 3154 3842 2260 3615 3913 3152 2534 2355 3139 1970 2475 16 84 50 23 86 97 78 33 44 52 59 23 9 64 53 84 50 28 79 3 60 77 16 63 86 43 84 1 42 6 77 4 45 66 32 55 4 32 31 5 35 3 76 36 12 10 58 85 41 20 87 79 2 18 58 60 90 85 73 40 22 75 93 74 86 43 89 42 78 94 54 53 0 31 10 94 74 95 18 77 84 62 98 52 24 45 39 35 18 95 12 64 58 42 84 96 73 40 49 7 2579 3437 3256 3559 1666 2106 2817 2315 2259 3147 3002 2017 3949 2525 2546 1689 3165 3872 3211 3084 2623 3880 1613 3333 3760 1968 1978 1571 1508 3664 1851 3641 3243 2966 3920 1817 2804 1948 3876 3049 3474 1822 2766 2060 2971 1760 3472 1714 3363 2832 2956 2549 2387 3989 2379 2127 3156 3545 2695 2677 3583 2524 2626 3990 1565 1702 2160 2888 3275 2661 3189 3840 3863 3086 2302 3402 2632 3556 2855 3530 1578 2900 3984 3695 3385 3341 2706 2060 2308 2051 2966 2460 3123 2632 3195 3037 3039 3558 2580 2333 3866 3019 2956 3306 2765 3489 2648 3984 3205 3711 2672 2940 1782 1732 2192 2992 1638 2983 3223 2001 3481 3857 3238 3665 3908 2520 2210 1614 2711 1808 3545 1699 3912 1565 2628 2182 2402 2747 3429 1822 2824 2889 2867 2079 3773 2351 2678 3076 1948 2444 2705 3047 3824 1912 2789 2495 1884 3955 2137 2003 2067 2164 3211 3937 1830 3222 3048 3645 2286 2184 1645 3014 2500 2738 2245 1708 2444 3680 3429 3515 3652 2337 2500 3617 2480 1680 3354 2848 3991 3950 1619 2974 1723 3966 3367 3338 2465 2782 2882 1900
3373 1843 2388 2114 1829 2544 3459 2411 2747 2023 3802 2598 2722 3387 3421 2023 2071 1931 3726 2291 3139 1691 2449 3784 2145 1874 1542 2265 3068 3480 2265 2004 3358 2054 2319 3752 3288 1920 3517 3769 2471 3725 3295 2908 1874 2406 2285 3146 1505 2915 2732 3873 2636 2132 2167 3446 3560 3878 3174 3864 3747 1528 3809 3924 1718 2496 2400 2032 2692 2542 2132 3061 3867 3159 2382 3373 3003 3911 2665 3433 2668 2751 2460 1529 1641 2845 2554 2088 2866 1615 2814 3611 3775 3700 3831 2099 3962 2023 2346 1518 12 54 9 83 92 37 75 19 43 10 41 20 7 52 82 82 20 73 9 54 90 96 53 4 49 26 57 19 43 43 62 39 34 53 46 60 76 56 60 58 36 32 5 76 55 34 87 2 93 96 13 37 48 55 64 55 76 49 42 64 91 12 50 54 72 16 66 65 82 32 50 16 31 0 45 27 62 31 30 8 67 43 48 27 95 33 58 68 8 60 38 13 73 18 32 38 56 2 11 10 2662 2608 3571 3861 3145 3023 2096 1869 2698 2189 2343 3752 3491 3903 3510 2906 2448 3352 2459 3202 3732 3417 3108 1849 2157 3576 2906 2116 3615 3115 3907 1567 2331 3228 2140 2729 2892 2692 3050 1953 1607 3094 2140 3398 1955 3239 2440 2654 2771 2783 3015 2527 2804 3262 2296 1819 1751 3609 3634 2476 3063 1540 2472 3506 2926 2423 3645 3065 2881 1995 2131 3191 3708 2568 3140 1578 3004 3246 2719 2326 1840 3200 2849 3726 2047 2974 2673 2791 2535 2191 2535 1945 2857 1953 1701 3687 2640 3933 3723 2319 2121 3011 2283 2329 1658 3331 1526 3025 3904 3526 3371 2995 2867 2021 3320 2009 2579 2795 3419 3121 2909 1587 2793 3219 3360 2766 2887 2338 3963 3583 1506 2593 2233 1674 2267 3224 1631 3107 2360 2872 2158 3995 3949 1999 3856 1749 3177 2712 2419 1715 2058 2354 2722 3800 2759 2787 2002 2770 2227 3166 2339 2171 1788 2043 3060 3772 2043 2694 2272 3828 2416 2129 2056 3763 1907 3498 1683 2625 3571 3291 2117 1936 2002 2255 1790 3870 3173 2771 3779 3665 1617 2831 1635 1934 3447 1877 2116 3536 2944 2893
3277 3253 3030 1515 2443 3358 1636 2926 2942 2241 3058 3651 1950 2722 2605 3984 1943 2056 2936 3587 2635 1537 1603 2085 2751 3942 2107 3445 2554 3247 2371 2863 2893 2123 2704 2575 2836 3080 2014 3369 3137 2667 3232 3691 1609 2561 1709 3858 3911 2992 2613 2583 3900 3888 2620 3444 2558 2431 2351 1600 2251 3792 2023 3206 3478 1773 2026 2919 2636 2235 3923 3390 2905 3902 3398 3547 3243 1974 3945 2900 3617 2634 2466 2253 2063 3624 3456 1918 3414 3095 3742 1538 3827 2824 3171 2166 2145 3082 2359 3041 72 25 98 86 51 12 32 31 31 27 52 62 57 67 1 59 99 76 92 91 50 62 44 35 13 75 20 52 40 56 58 73 17 13 77 46 3 74 28 38 10 18 62 84 16 40 2 90 38 77 83 16 36 84 45 39 45 35 33 58 25 54 18 39 34 53 86 96 42 66 24 94 10 45 0 90 62 37 76 39 30 86 21 46 82 31 43 58 20 32 33 49 97 5 88 3 44 22 92 26 1959 1691 3639 3315 1518 2486 1524 1691 3861 2516 2984 1782 3218 3045 3538 1916 2364 3145 3054 2674 2302 1752 3792 1876 3735 3452 2918 3686 3392 1987 3044 3203 2862 3573 1788 2879 2074 1953 2909 3809 1511 2233 1927 3379 3180 3201 1711 2851 3232 2467 2714 1896 2271 3736 2821 1606 2855 3214 3638 2575 2792 1813 3364 2010 2477 3802 2674 3601 1849 2020 2388 1790 3025 2203 2666 3255 2130 2283 2877 2345 1794 2294 2291 1644 3665 3734 2810 2325 2475 1731 2371 2282 1926 2544 3263 2949 3547 1756 3283 2679 2345 1678 2885 2033 1607 2562 3901 2839 1675 2456 2056 3279 2828 2346 2345 2240 3050 3557 2335 3820 1642 2926 1572 2160 3166 1860 1877 3762 2624 3723 3378 1806 2335 3613 3091 1767 3462 2832 3077 2993 1827 3680 1903 1665 3392 2501 2200 2657 2278 3993 2944 3381 2665 1646 2785 3674 1731 1678 3633 3265 2990 1688 2528 2130 2673 1683 2582 3543 2361 3755 1565 3182 3083 2451 3661 2092 3102 1555 1870 3741 2627 2000 3414 3975 3330 2062 2389 2385 1534 2896 3613 3636 3378 3060 2589 3782 3557 2882 3132 2142
3811 3779 3093 3313 3161 3764 1518 2570 3762 2272 2710 2422 2198 2420 3148 3330 3971 3154 1988 1555 2764 3205 2575 3306 3591 2952 2535 3222 3794 3533 3948 3799 2597 3926 2932 2258 3620 2708 2600 2553 2702 1637 2197 2402 3445 2963 3467 2130 3711 3809 2418 3496 2354 2028 1824 2325 2085 1656 2684 2315 3100 3721 2862 3758 3319 2587 3262 2454 1553 3927 2201 3311 2665 3801 3658 3715 3272 3394 3056 2224 3368 2349 3692 2520 3279 2163 3817 2766 2957 2505 1546 1648 3519 1526 2827 2078 1975 2783 1581 2508 4 82 73 48 89 93 76 53 10 37 27 71 87 52 86 46 24 50 17 7 83 76 80 86 71 62 70 79 54 52 31 4 62 80 60 23 15 93 43 80 35 59 3 55 96 44 14 10 50 21 32 16 82 4 11 52 83 58 70 59 97 53 76 14 21 67 84 47 43 70 83 87 94 27 90 0 7 74 97 80 19 1 44 63 3 85 30 5 55 84 47 76 96 46 26 56 10 42 24 1 3000 2726 3664 3693 3643 3897 2274 1933 3978 2102 2736 1979 2530 2079 1764 1690 2045 3974 1689 1922 2571 2462 2003 2839 3069 1730 2544 3300 3892 1660 3905 3203 2336 2211 2387 3091 3291 2622 2243 2338 2816 2951 3426 1505 3077 3122 2321 2867 3567 2016 2385 3397 1590 3580 3015 2116 3256 3332 2136 3560 3455 2527 2761 3500 2055 1675 3582 2736 3452 2252 2091 2507 2492 3988 2168 3583 3233 3629 2204 1840 3055 2416 1923 1979 2768 3763 3274 2280 3356 1798 2872 3445 3321 3367 3749 1597 2859 2958 2924 1782 3333 2470 3140 1589 2625 3572 2723 3060 2133 1791 2244 2015 1511 3737 1921 2292 3794 1844 2853 3311 2442 2489 3755 3508 2553 3749 3859 3475 3302 3651 2556 1733 2833 3410 2213 2651 3227 3671 1583 1698 2923 2335 3508 1514 2536 3275 1986 1958 1602 3251 2624 3986 3836 3047 3355 3683 2357 3316 2759 1502 3120 3228 1695 2405 3894 1564 3682 2960 3402 1989 2132 2928 2723 2220 3028 3375 2443 2097 3747 3631 1990 2156 1818 3238 2549 3049 1665 2464 3216 2290 2697 3097 3698 2961 3750 2684 2382 3318 2671 3772
3830 2234 3664 2650 3282 2170 2138 2268 1609 2257 1820 1516 3631 3783 3374 2978 2822 2802 3861 2224 2943 2329 3817 1547 1944 3994 3656 2932 3501 3340 1804 2207 3654 2045 3958 3455 2094 1716 3524 3599 2780 3374 1514 2104 3368 3165 2617 1858 1577 2674 3390 1807 2668 3017 2144 2387 2615 2758 3844 3856 3951 3462 1809 3290 3365 2902 1852 2313 2123 3221 3854 2882 3248 3097 2779 2857 3227 1685 3977 2929 3697 2582 3486 3301 2917 3183 2447 3391 2706 2406 3118 2147 2736 3522 3767 3686 2682 1767 2503 2257 9 45 73 52 13 56 12 56 86 88 23 70 46 29 74 18 95 82 17 7 45 13 13 21 47 27 83 34 90 47 41 26 50 86 15 82 59 90 4 52 40 95 33 37 7 66 46 32 84 77 87 31 26 93 40 11 49 91 76 14 6 45 29 14 37 2 35 98 21 8 99 81 74 62 62 7 0 99 49 59 63 88 65 26 54 39 32 11 25 42 60 68 30 8 17 24 34 61 70 34 3871 1638 1816 3085 2621 1884 3644 1696 2018 3135 3241 3767 1641 1616 3466 2287 3408 3433 2337 2731 2718 3160 3877 1692 2037 3311 3247 3822 2558 2357 2608 2567 3121 3465 1736 3924 3131 3693 2780 2423 2487 3615 3683 1548 2045 2815 1730 1634 2487 3978 3048 1717 2961 2465 2841 2407 3642 2827 3889 3675 3869 3240 3996 3457 1776 2481 3284 3761 2401 2805 2911 2736 3694 1885 3587 3268 2347 2983 2758 3440 3591 3482 3167 2016 2799 3215 3587 3183 1738 2076 2021 2429 2927 3277 1876 1651 1971 2161 2635 2710 2243 2312 2453 2423 2964 3267 3986 3562 1733 2887 2574 3682 3013 2284 3223 3281 2114 2472 1613 1521 3111 2936 3542 1559 2615 3958 2007 3344 1989 3332 3532 1874 2792 3503 2302 2420 2855 1738 2657 2454 1932 2285 1776 3187 1598 2599 3533 1529 2080 3166 1705 3414 1740 1789 1859 2439 1586 2654 2001 2509 2441 2671 2122 2695 1561 2330 2977 2639 2352 2487 2312 3519 3152 3078 3234 2838 3826 2490 1768 3534 3846 2858 2954 1909 2466 3080 3804 2684 2139 3947 3724 3301 3630 2265 2426 2340 2863 2006 3373 3042
1961 2197 3189 2689 3998 2904 3042 2216 2455 2487 2507 3216 3853 3408 3730 2855 2685 2490 3282 2463 2642 2200 2899 3244 3600 3106 3241 3767 1699 3996 2575 1630 1977 2714 2338 2721 2334 1656 3358 2913 3856 2455 2076 3300 1517 1784 1787 2273 1927 3303 2806 2533 3639 3256 3869 2575 1699 3255 2346 1736 2220 2526 1602 3208 3968 2196 3727 3623 3146 2030 1508 1703 3181 1700 3975 1936 3479 2968 1925 1752 1932 2528 3062 3387 2122 2555 1566 2104 3397 1959 1538 2616 3239 2783 3502 1940 2790 2791 3510 2774 82 3 28 45 82 42 90 39 28 34 24 49 85 13 84 78 33 54 56 94 40 91 87 67 15 81 88 49 49 60 41 34 58 58 27 8 23 55 71 5 14 83 35 68 59 1 50 28 75 49 50 51 27 28 53 22 31 38 73 84 69 50 36 80 53 43 35 71 59 14 69 57 95 31 37 74 99 0 50 91 28 92 5 85 86 5 97 35 1 16 32 32 42 89 51 48 82 95 33 87 3350 2913 2988 2575 1840 2302 2552 3128 1509 1548 3633 1745 3793 3439 2649 3685 3501 3368 2137 3723 3168 3575 2751 2958 3801 1869 3605 2272 3796 3411 2292 2451 2368 2818 1932 3344 3350 3262 2953 3198 3235 2922 2385 2764 2365 2767 3415 2970 3686 2936 3888 3895 1557 1799 3429 3051 2777 2167 2822 2112 3903 1823 3107 3343 2890 1991 3356 3569 2446 2384 1779 2744 1506 2438 3199 1992 2663 3669 2901 1793 3447 2321 3688 3500 3299 1777 1518 3865 3043 3149 1653 2889 1851 2656 3482 3419 2351 2274 3334 2638 3747 3052 1949 2595 2622 3456 3111 3553 2538 3691 2265 3374 1908 2882 2070 2081 3226 3346 2713 2672 2833 3687 1639 2064 2580 3709 3157 2277 2840 3949 3889 2270 3651 2614 1598 3057 2860 3018 2943 3952 2252 3470 2053 3401 2277 3164 3448 2557 1744 2396 2440 2365 1920 1650 3239 1579 3752 3060 1608 3846 3761 3744 2727 3080 3185 1860 2408 1986 1592 2685 2219 3313 2590 3189 3600 2855 3515 2303 1578 1624 3075 2510 3593 2177 3320 2381 2914 3799 3887 3571 2258 2697 2498 1626 3202 2272 2154 2293 2887 2205
1787 3419 2995 2782 3273 2038 2340 3822 3439 2643 2197 3341 3196 3662 2859 3474 1936 2554 3589 1526 3948 3444 2234 2614 3808 3396 2571 2793 3582 2189 3837 2495 1932 3544 2599 2510 3373 1872 2582 1780 2132 2307 3096 2431 2070 3889 1620 3977 3023 2015 3650 2474 2846 1772 2531 3159 3487 2862 3612 3052 1781 2559 2458 2157 3319 3287 1833 3785 3462 2984 3533 3827 2405 3246 2462 1714 2895 2120 2632 3503 2750 3282 3127 2213 2300 3172 2938 3998 3026 3843 1883 2603 3629 1961 3508 1774 2208 2132 3661 3264 48 92 23 96 20 92 28 24 72 2 10 26 22 43 22 91 64 66 30 90 79 64 3 67 36 93 62 5 8 74 62 27 32 69 43 70 86 45 54 62 31 12 15 31 18 53 35 45 19 31 12 87 28 47 92 1 90 25 46 91 8 15 8 41 28 87 33 65 80 38 78 58 18 30 76 97 49 50 0 68 68 98 97 91 63 22 71 80 64 35 78 80 2 20 54 83 66 78 7 24 3849 3185 2024 3821 2917 3492 2141 3479 2811 1728 2161 1894 3566 3841 3699 2442 1817 1626 2811 3091 2476 3425 2280 2417 2862 3467 2035 3778 2907 2156 2174 3717 2557 2215 1600 3954 3796 3697 3968 2550 1791 3783 2312 2590 2824 2333 3271 3616 3103 3017 3303 1598 3379 3680 3030 3978 1553 1788 1506 3507 3435 2488 3678 1631 3861 2225 2009 2112 2123 3895 2280 1646 2994 2536 3412 2532 2190 3122 1997 2805 2860 3714 1571 1681 2076 2266 1568 2054 3680 2907 3905 3614 3984 3328 1883 2194 3604 2067 3037 3266 2118 1941 3281 3240 3317 3477 1858 3355 1988 2227 2233 3925 2907 3973 3289 3389 1777 1943 3328 1951 3463 1857 2732 3554 2078 2834 2912 3749 3304 2195 2801 1537 3900 3677 1654 3533 3438 3123 1972 2516 3154 2349 1637 1655 3411 3258 2650 3311 3045 2265 2004 3210 2069 1671 3158 3713 3435 2989 2009 1779 2136 1524 1660 2527 3668 3990 1960 1834 3783 2122 3710 2242 1505 3831 2839 3257 3020 2630 3756 2055 3034 3853 3999 2705 2938 1587 2497 3724 3813 3061 1846 3791 3734 2789 3611 1595 3591 2371 3852 1741
1830 2978 2895 1873 3120 3515 2986 3510 3115 1527 1589 1804 1636 2025 1758 3141 2952 1604 3883 3650 2215 1606 3195 1508 3658 3800 2622 2541 2880 3222 1637 3601 3351 3731 2317 3999 2295 3315 3284 2159 3511 2378 3222 2549 2475 2008 2230 3104 3800 1729 3755 2057 2973 2263 1610 2852 2299 2236 3856 3453 1622 3982 1793 2313 3592 2586 2078 2190 3388 1612 1524 3034 2891 3030 1550 3023 3028 3335 3298 2059 3590 3478 2655 3508 3923 2005 3308 3719 2740 3642 3408 3390 3969 2782 3822 2997 2635 2113 2035 3138 25 12 71 51 20 26 99 7 89 79 87 21 40 94 13 59 33 27 20 41 9 80 8 71 30 75 25 62 2 61 91 56 29 8 9 6 95 57 44 95 39 15 96 3 59 71 38 78 5 60 92 43 39 65 25 50 27 72 68 19 88 94 95 2 42 68 34 96 21 76 86 71 77 8 39 80 59 91 68 0 43 20 62 98 68 32 34 84 25 51 60 91 45 63 43 74 66 47 89 50 3913 2474 3214 2705 1707 2693 2071 2252 3771 2553 2861 3668 1981 3283 3449 2022 1510 2670 3316 2408 3536 3634 3428 3200 3121 2663 2931 3164 1812 3821 2237 1981 2041 2793 3619 3298 2685 2307 3159 2061 3567 2589 2404 3544 3821 2117 2958 2879 3792 3921 2432 2866 1734 3540 2739 2487 3436 2901 1821 1514 2084 2136 2340 2391 2112 1938 3001 2575 1711 3738 3392 2036 1817 1540 3774 1767 2915 2102 3491 3822 2310 2398 1771 3373 3345 1598 3546 1622 2698 3384 3159 3368 3404 2066 3396 2504 2082 3550 2381 1678 2681 3389 1606 3336 2061 3707 3939 2076 3639 1711 1690 2952 3744 3953 1728 3262 3352 3287 2450 1869 3334 3543 2030 3124 2879 2479 3840 3557 3963 2138 3929 2116 3298 3561 2726 3667 2138 2922 1952 1882 3020 2559 2338 1562 3214 3671 1795 2186 3887 2106 2515 1797 1550 3480 3841 1993 3423 3497 3746 3077 3542 1713 3593 2699 3447 3998 3417 2706 3707 1998 3185 3271 3795 3448 3930 2755 3841 1827 3640 3644 3544 2168 2924 1858 1791 3891 3762 1575 3662 2419 3872 2191 3970 3791 2300 3960 3596 2665 3019 2018
3322 2926 1637 3317 3205 3620 3131 3606 2303 2233 2152 3902 2843 2383 2202 1594 2413 3811 3234 2281 3200 2307 2501 1979 2131 3954 2051 2464 2885 3270 3331 2140 3153 2326 1996 3473 3927 2319 2134 2384 3982 1654 1752 2184 2027 2608 3284 3758 3791 2960 1917 1564 2895 2494 1566 1696 3265 2235 1661 1575 1549 2970 3851 2506 2213 2306 2098 2723 3171 3045 3014 1763 1922 3152 2661 1972 3055 3666 1531 3453 2905 2627 3109 2551 1661 3568 1868 3890 2785 3320 1750 2786 1635 2569 1553 1751 3348 2494 2284 3598 59 40 58 11 37 73 21 87 11 1 95 85 27 55 26 95 25 29 7 68 6 81 6 6 3 8 90 48 36 64 40 66 60 43 41 62 43 36 35 54 4 47 43 44 64 36 68 87 43 2 96 83 26 75 95 83 66 75 40 9 92 76 86 26 74 54 5 5 7 62 7 62 84 67 30 19 63 28 68 43 0 59 10 50 53 94 34 1 34 33 32 92 43 43 49 58 64 95 19 91 2561 3943 3297 3840 3830 3722 2686 3012 3166 3003 2099 2407 3653 2405 2319 1995 1951 3853 2812 3388 2826 2395 2983 2987 2437 1633 3980 3272 3454 2450 2155 3309 3540 3369 3908 3630 3753 2858 2396 3882 1850 2597 1782 3067 1675 3161 2870 2236 3285 3300 1548 2212 3944 3293 3554 1545 3708 2200 1837 2842 3659 2595 3495 3936 2998 1886 3320 2299 2939 2687 3967 2794 2482 2364 3253 1730 2461 2309 2578 3300 1583 2573 3913 2934 3211 3254 1620 3329 3681 3115 3873 2904 2666 2146 3181 2089 2732 2560 2904 2896 3008 3868 3631 3679 2186 3195 2652 1956 3967 3096 3086 2946 1614 3700 2099 3664 3572 3822 2284 2400 2626 2906 1956 2897 2711 3702 3854 1572 3592 2320 2203 2597 3561 3805 3917 3664 1642 1731 1840 3587 2268 3418 2079 1867 3301 2853 2926 3693 3356 2044 2051 2250 3874 3979 2758 3755 3526 3315 1607 3030 1917 1582 3257 1702 2810 2127 1933 3501 3471 2505 2017 3906 1580 1856 2787 3295 1534 2770 3747 3633 3926 3027 2399 1816 1856 1816 2717 1923 2783 2390 2534 3631 3561 3361 2047 2563 2557 3628 3319 2892
3925 3710 2468 1718 3388 2174 1763 1968 2806 2625 2661 1624 2498 2184 3230 2632 2136 1670 2908 2804 1906 2313 2757 1975 2563 2205 1985 3619 3171 2760 3389 3971 2691 3180 1663 1967 2975 2724 1567 2245 3791 2360 1644 2447 3191 3192 3132 2170 2322 2021 3618 1698 1672 3330 2831 3361 3944 2939 3025 2888 3705 3852 2311 2732 2094 3526 1722 3116 2023 2367 3178 3296 2810 3882 2533 3627 3775 2004 2740 3803 1837 2846 2087 3321 1524 3689 3676 1909 2117 1938 3002 1849 3950 3438 1532 1570 2784 3300 3384 1711 53 54 54 39 43 70 71 11 20 15 39 4 33 41 84 26 82 17 26 35 52 47 39 46 18 61 61 43 53 5 58 72 66 12 90 99 80 60 47 28 5 37 24 44 1 55 26 86 15 65 72 73 22 24 19 16 29 25 8 39 84 26 91 52 11 72 26 28 24 75 70 35 62 43 86 1 88 92 98 20 59 0 55 80 69 35 35 12 7 90 84 70 12 62 47 12 57 56 14 85 2695 3820 2383 2701 1970 3705 3127 2273 1850 2477 3357 3670 3182 2419 3071 3082 3725 2810 3620 1939 2020 3599 3690 2909 1770 3641 1667 2287 3083 2988 1745 3540 1881 2482 3395 2868 3413 1825 1522 1788 1893 1715 2080 2299 2767 1923 2541 3853 1889 1811 2567 2780 1624 1902 2739 1705 3612 2043 1507 3687 1889 1608 2566 3507 1532 1631 3935 1704 2303 1737 3176 2214 1707 3538 2511 1545 3408 1807 3323 2643 2172 2949 2763 2945 3588 2767 1962 2185 3971 2132 2223 3496 3569 2128 1993 2167 2765 3509 3087 2817 2710 3750 3913 2870 3436 2844 1631 1766 2162 2279 3239 2802 2781 1554 1978 1674 3771 3509 3666 1632 3821 3910 3831 2563 3271 2593 2730 2131 3697 3205 1722 2998 2822 1918 3104 3844 1884 1724 1696 2872 1586 3932 1653 2850 2232 2266 2805 2935 1615 2223 3165 3438 1617 3704 2705 2545 2963 2063 2836 3006 3817 2854 3929 2519 2350 2442 2579 3201 3009 3904 3923 2530 1504 2528 2856 2192 2050 2734 1891 2962 2614 1743 3749 2870 3593 1573 2195 3046 1573 1693 3999 3467 3361 1879 2910 2462 2878 2314 2859 1976
3818 1734 2280 1669 3606 3000 3743 2535 3880 1964 2252 1681 3571 3322 1511 3122 2873 3833 2389 1913 2987 1694 3992 3898 3580 1849 2983 2994 3735 1622 2578 3295 2095 3767 2836 1578 3328 2472 3590 3223 3721 2971 1794 2141 3167 1742 1775 2128 3507 2082 1971 2529 3151 2063 1896 3538 3208 1855 2480 2838 3266 2908 3691 3795 2802 3498 2470 3297 2266 3160 3011 2829 2112 3610 3608 3110 2698 2628 2319 3977 2685 1842 3192 2476 3558 3670 1983 2520 3925 2630 3251 2697 2169 3635 2210 2801 3737 2417 2143 2005 7 81 2 53 61 51 33 61 11 52 73 93 57 84 68 86 29 38 11 54 73 90 12 68 66 10 89 31 11 17 31 77 92 82 59 29 90 96 77 25 2 18 13 12 87 10 5 53 14 30 17 9 39 4 34 34 19 86 41 32 30 74 66 16 51 28 10 90 16 88 95 94 98 48 21 44 65 5 97 62 10 55 0 46 53 61 72 59 96 18 19 43 71 50 52 18 4 61 16 20 2805 2084 2609 3499 3391 3925 2331 3058 3217 1810 2750 2459 2928 2597 1649 2347 3528 1996 3794 2829 2364 3597 3507 1580 3489 2783 2040 2474 3314 2007 3868 2866 3460 3472 2133 3149 1513 3089 2172 3399 3813 3934 1884 3995 2584 2653 2566 3573 3298 2794 3206 1881 3581 2603 3401 2506 3480 2792 3643 1952 3863 1750 3083 2856 3010 3222 3700 2987 3899 2293 1630 2279 1839 2172 2192 3355 1897 1755 3558 3446 2386 3376 2471 2618 1711 2463 2372 2134 2881 3812 1783 2557 1606 1551 3329 2473 2385 3877 3497 3689 3548 3943 3551 2352 2491 3372 1743 1864 2794 2015 1593 2190 2194 2229 3128 3400 2661 3374 2971 3771 1718 1500 2178 1929 3676 3817 3759 2839 3243 1736 1649 3257 3775 3904 2616 3183 2946 1954 2411 3469 3121 2484 3336 3786 2759 1566 2632 3681 2030 3367 1529 3631 2240 3631 2583 1557 1590 1911 1642 2722 2391 2844 2848 2281 3132 2981 2116 2664 3094 1918 3796 3056 3332 1540 1722 3236 3912 3704 3499 2507 3046 2597 2610 3563 2432 2587 2409 1783 3954 2599 2598 2454 2340 2933 2736 2604 3618 3574 1531 2847
3170 2182 3059 3342 3998 2074 2980 2449 3655 3838 3124 3108 2539 2747 3258 2596 1594 1975 3712 2182 2785 1575 3627 3186 3124 2511 3825 3244 1960 3773 2267 2394 2080 2327 1652 3218 1760 1534 3305 2962 1819 1527 3527 2842 1788 2734 2339 1776 2299 3500 2519 3347 2486 2245 3254 2731 2292 2408 2157 3950 1600 3038 2291 2300 3516 1608 1619 2096 3976 1725 3354 1500 2203 1723 2599 3041 2744 2467 2949 3463 2407 2274 2425 3578 2622 2376 3409 1740 2417 1742 1633 1865 2315 3210 3512 3317 3994 3477 1896 2090 58 65 79 72 78 67 30 35 73 99 90 74 99 13 79 53 15 73 45 87 44 37 79 34 13 85 42 41 1 84 82 93 57 77 21 12 8 65 62 57 58 30 76 98 45 53 40 85 44 73 5 72 72 68 92 73 5 74 40 94 77 77 60 59 4 72 77 91 37 27 60 68 52 27 46 63 26 85 91 98 50 80 46 0 22 47 39 23 55 95 15 90 92 18 82 56 80 2 60 65 1567 2412 1771 1996 2484 3212 2976 3411 3299 1679 3345 2860 3368 2135 1883 2434 2238 3135 3756 1939 3073 2192 2696 2367 2695 3741 2750 1650 2176 3507 3559 1647 3210 1927 1701 1739 1874 2408 2063 2311 2243 3151 2271 3066 1868 3011 2489 3096 3519 3467 2509 3997 3726 1639 3667 3860 2303 2956 2395 2421 3938 2095 3414 2611 3241 1502 3657 3540 2740 2418 1957 3271 2438 2838 2510 3840 1965 2591 2034 3186 3876 3595 3051 3662 3157 3208 1768 3706 2285 3623 2865 3215 1845 1643 2529 1719 3098 3069 3505 1975 3070 2731 1779 2511 2209 3209 2674 3318 2082 1771 1693 2907 1538 2709 2718 3151 2989 2330 1883 1657 3757 3816 1915 2112 3200 2772 2842 2820 2371 2562 2139 2282 3023 2668 3789 2236 2521 3390 2976 3819 3246 3387 1865 1931 2841 3052 3051 1635 3631 2264 2957 2057 3381 3697 1987 2631 2326 3215 2604 2294 2272 2675 1562 2687 2362 3090 2817 1572 3900 2701 3480 3441 3845 3622 1586 3224 1758 2145 1841 2123 3570 3803 1900 3299 3587 3654 1793 2732 1527 2012 2507 3115 2649 2804 1905 1530 3619 2365 2211 1727
3919 2478 2289 2449 2943 1869 1821 3868 3961 1991 2372 2456 2114 3703 3647 3381 2724 2852 2556 2946 3099 3128 2313 2454 2486 2624 2986 2876 2818 3562 3657 1844 2560 3468 2068 2928 3694 1914 2988 3398 3455 3348 1611 2990 1978 3347 2091 1822 2691 1509 3513 1861 2691 2140 2439 3239 2567 3362 1693 3662 2199 3213 2111 2573 2367 2648 3127 3108 2014 1990 2974 1735 2730 2339 3069 1980 3710 2057 3517 3081 1512 3268 3493 2609 3948 1778 1612 1786 2198 3774 3561 2046 2871 2830 3418 1991 2276 1750 3709 2649 60 40 33 39 51 17 40 46 23 89 21 54 70 98 28 86 19 8 42 47 67 29 6 51 3 42 97 6 18 51 20 53 2 51 83 55 9 25 57 21 38 47 22 51 16 43 66 37 96 54 59 54 6 64 41 15 5 49 13 56 10 20 56 40 78 16 18 69 19 56 42 75 24 95 82 3 54 86 63 68 53 69 53 22 0 61 94 32 26 18 94 8 19 3 54 91 91 39 31 89 3934 3111 3263 2416 3545 3113 2509 2677 2290 2786 1636 3051 2777 3398 3565 2218 3610 2191 3953 1782 1889 3503 1958 2597 1874 3590 2628 2806 3859 1667 3219 2276 2559 1844 2002 1577 2455 1941 2673 2833 3671 2491 2836 1614 1789 3338 3203 1726 2751 3029 2663 3762 1861 1612 3826 2882 2016 2104 3975 3636 3403 2965 3740 2276 2752 2754 3151 2816 3000 2607 1741 3850 2189 1982 3469 2832 2503 2122 1576 1611 2070 2419 2118 3362 2177 1925 3701 2650 3633 2424 3603 1942 2153 2276 2176 2147 2975 2791 3587 3356 1737 3034 1899 1810 2613 2640 2465 3604 1674 3389 3203 1723 1961 2483 2943 3944 3198 3700 3257 3216 3979 3399 3966 1592 3647 3931 2115 2388 3160 1793 3822 2884 3947 2457 3346 2886 3956 1829 2308 3126 2897 3885 2623 3920 2782 3370 2127 3848 3086 3208 1521 2736 2517 3517 3915 2034 2230 1537 1665 1831 2988 1516 3712 1845 1531 3902 1716 3794 3143 2650 2547 3380 1845 2066 2864 3414 2928 1890 3744 2793 2117 2431 2215 2058 3513 3565 3112 3239 3540 1548 3445 3150 3369 2560 2626 2277 1520 1618 2709 1666
3678 3793 2979 3651 2069 1589 3394 3148 1667 3892 2345 2001 3585 1576 2677 2025 2206 1874 3210 2077 3348 2385 2953 3466 2930 2069 1960 1760 2313 3263 2496 3172 2787 1911 3577 2659 2484 1576 2085 2126 2912 2927 1676 3557 3855 3029 1931 2212 2203 2654 3621 3833 1999 2695 2687 3493 3148 2555 2319 2374 2611 3176 2537 2173 2841 3638 2439 2838 3711 3824 2091 2074 3865 2804 2921 2080 2922 3451 2481 2964 2509 3868 3744 2425 1694 2117 3077 1817 2678 3315 3016 3154 2017 2288 3141 3806 2934 1733 1996 1905 86 38 74 90 69 60 26 96 84 51 85 46 58 57 6 81 62 2 65 72 27 25 38 87 90 42 32 95 72 20 90 3 85 60 23 2 56 50 82 29 14 31 74 37 31 23 52 46 39 90 77 63 35 65 31 69 43 91 76 56 41 53 18 68 90 86 21 95 69 30 86 93 45 33 31 85 39 5 22 32 94 35 61 47 61 0 75 63 30 57 68 74 44 52 6 95 76 83 68 9 2586 2058 3505 2487 2406 2517 2542 2178 3200 2897 2160 2045 2792 1838 1911 1582 3911 3069 2138 1912 2857 3743 3608 2583 1799 1564 2515 2246 2312 2963 2427 1707 3789 2832 2102 2456 2583 2097 1847 2794 2465 1552 3036 3511 2576 1606 2798 3743 3592 3197 3018 2866 1563 3790 2921 3864 3680 3954 3617 2674 3320 3045 3169 1786 2653 3444 2066 2034 3420 1606 1580 1531 2326 2025 3772 3965 1594 2486 3771 3327 1958 3270 3760 1689 1976 2573 2805 2104 2043 2039 3743 1614 1919 3218 1698 1569 3949 2192 3135 1904 1833 1712 1809 2265 3220 3345 3895 2381 3925 1820 3446 2432 2810 3430 2438 2485 3372 2705 1855 1862 2935 2256 1555 2193 1814 1677 2611 2362 3889 3996 2613 3464 2421 3075 1954 2942 2929 1717 2618 2366 3745 2567 1737 2185 2713 1968 3055 2733 1876 1605 1760 3814 3412 3214 3259 2653 2211 3763 3433 1600 3168 2959 2363 2637 3409 3891 3210 3975 2333 3719 2747 1944 3300 2288 2402 3862 3889 3567 3463 2172 2225 2553 1743 2342 3928 2546 2229 2924 3042 1764 2575 1907 3039 3894 3949 2688 2522 3434 2273 1866
1536 1684 2746 3565 2790 2414 2649 3455 3006 2447 3835 1888 3185 3997 1768 2258 2886 2149 3887 3856 2407 2548 2829 3098 1674 1818 3457 3701 2246 3159 2424 2490 3010 1792 2619 2346 3264 3888 3779 3741 1746 2686 2042 3827 3295 2440 2745 1548 3470 3226 2817 3728 2950 3602 3306 2635 2566 2614 3181 3235 1918 3619 3920 3383 3258 3048 3382 2546 3646 1993 2516 3282 3810 3343 3670 1831 2979 3107 2541 3813 2753 2930 2741 3950 2838 3178 2958 3955 2730 2374 1967 3306 2030 3568 3209 1754 1683 3771 3080 2525 70 57 39 3 67 6 18 73 71 65 62 10 11 29 81 63 90 26 32 61 50 47 6 98 26 88 47 57 40 23 4 67 82 24 40 74 58 72 94 72 91 52 38 93 45 53 80 85 71 46 25 13 89 8 55 31 58 56 38 79 59 72 88 20 54 3 37 97 67 18 98 93 39 58 43 30 32 97 71 34 34 35 72 39 94 75 0 90 6 17 82 68 92 45 41 8 13 33 58 11 2791 1698 1986 3900 1883 2021 3476 1708 1594 1932 3921 3898 2776 3346 3275 1889 3142 1925 1907 3531 1577 1807 3969 3432 2137 2562 3148 3323 3539 2565 1611 1736 2933 3507 3898 3697 3695 3171 2068 1804 3099 2932 3089 2705 3926 3180 2431 1699 2677 2310 1874 2887 3497 2279 2446 3512 2321 1870 3787 1679 2236 3240 3408 1944 2280 2145 2923 2042 2840 2834 2565 2847 3117 1702 2041 2224 3427 1836 3519 2867 2090 2428 3618 3098 3595 3876 2581 3523 3254 2386 2325 3347 2639 2198 3586 3428 3674 3828 3952 2296 3218 2085 3907 3921 2206 3373 2735 1920 3442 1977 3553 3896 1985 2597 3713 1520 3160 2108 2042 2905 3394 3525 1957 2171 1753 3887 3515 3012 1629 2483 3954 3918 3718 3297 1638 3976 1557 3330 2310 1760 2542 1617 2816 3779 3239 3853 3989 3026 2883 1828 1870 3320 2296 2387 2374 2566 2523 2712 3094 3050 1586 2926 1528 2800 3233 3474 1966 2688 3320 1641 3097 3234 1590 1896 3392 3145 2191 2852 1963 3468 3609 1740 1602 3477 3582 2604 3064 2805 3903 2356 2675 3961 2443 3004 3404 2598 3538 3501 2550 2320
1798 2631 2350 3725 3700 2384 2839 3783 3925 2623 1904 2396 1942 2619 1982 3729 1920 1578 3169 2807 3682 2378 3797 3917 3348 2449 3670 2529 2019 1542 3810 3650 2430 3305 1603 3436 3408 3465 3124 1689 3282 3628 1554 3449 3594 3015 1587 2057 3018 3006 2952 2946 2416 2637 2156 1978 3750 1569 2836 2528 3034 3310 2276 2181 2260 2622 3544 1626 2244 3937 3406 3535 2123 1651 3060 3984 1927 2103 2734 3806 2650 3099 3131 3438 2805 2131 2921 3609 2212 2176 2247 2856 1604 1800 1931 2702 3456 2705 3279 3852 84 58 90 77 90 89 89 8 27 89 66 70 88 32 20 61 94 64 1 28 9 20 82 29 19 67 34 90 75 19 63 91 88 69 90 62 13 36 82 46 99 40 79 39 85 16 15 15 57 31 73 86 2 8 68 16 59 16 73 49 58 30 15 45 95 95 81 21 67 66 67 4 35 68 58 5 11 35 80 84 1 12 59 23 32 63 90 0 40 81 76 2 78 96 24 59 63 16 81 85 2703 2906 2579 2301 1501 1547 1569 3964 3487 3928 2757 3723 3290 2786 2437 3833 2603 3977 3191 3016 2244 1891 1677 2208 1660 2613 1625 3718 3251 3788 3908 2285 2667 3548 2468 1813 1815 2843 3262 2480 2314 1955 3791 2470 3250 2057 3144 2818 1871 3457 3512 3167 2962 3252 1677 3546 2707 2764 3933 2444 3701 1538 2415 3722 2819 3546 2122 2531 1658 1782 3271 3162 3405 2748 1831 1920 3697 2028 2563 3888 1975 3153 2659 3430 2544 2233 2456 3116 2905 2505 2165 1905 3309 3641 3451 2657 1960 2263 2580 3470 1854 1816 3518 1762 3629 1507 1630 2083 1714 3068 3800 2774 2871 2437 2777 2864 3801 2982 2630 2966 3797 3059 3048 3071 3643 1608 3087 2557 3026 3639 3497 3302 1609 3973 2849 1669 3551 2412 3262 1901 2234 3858 3449 2572 3306 3643 1737 3803 2791 2022 3386 1850 1831 3548 2334 1772 3034 2963 1814 1926 2899 1791 2351 3902 2455 2555 3746 2672 1664 2168 2027 3368 3984 2842 1853 2591 3397 1538 2442 2721 3415 2197 1590 2092 2653 2622 3837 3005 1715 3074 2177 3965 3012 3033 2587 2346 1615 1946 3184 2414
3659 2690 2767 1989 2792 3647 3833 1559 3769 2340 2193 3682 3874 2133 2759 2316 3996 2121 3194 2837 3922 2188 3648 3598 2600 2609 3806 1659 3783 1986 3661 3501 2071 1601 3934 1996 1804 1994 2232 2969 1992 3992 2126 3157 3394 1922 3409 1903 2376 1626 2714 2787 2969 1820 2262 2032 2378 3438 1570 2453 1712 3193 3532 2377 1647 3158 2038 2022 2910 3807 3815 2215 2969 2991 2601 2274 1518 2118 3056 1928 3555 2488 2406 2998 3107 3345 2958 2427 2439 2427 1608 3764 3564 3703 1546 2939 2535 2866 2679 3141 77 82 9 65 84 8 38 39 71 36 32 79 33 90 7 6 70 46 25 50 90 96 41 86 5 33 49 34 76 98 52 62 69 32 29 34 20 32 45 90 49 40 9 26 31 2 40 36 69 38 91 89 18 18 60 77 78 87 8 33 1 76 72 97 65 65 79 81 4 44 32 19 18 8 20 55 25 1 64 25 34 7 96 55 26 30 6 40 0 49 16 98 53 28 64 74 10 13 52 91 3692 3398 3463 3567 2747 3490 2361 3140 1557 1549 1649 1578 2785 3369 3071 3503 2375 3633 3716 3181 1840 2911 3293 2392 3262 1613 2192 3008 3929 1623 3239 3109 3065 2323 1879 2707 3932 1614 3606 1891 2891 2821 3410 2655 1793 3685 3024 2049 1507 2939 3633 2761 3844 3587 3013 2020 1921 3418 3172 2721 3135 2787 1876 1792 3004 2495 2602 1502 1976 3021 1505 2966 2661 1952 3693 3713 3801 3583 2086 2624 1762 3676 3985 3759 3607 1955 3765 2166 2626 3841 2379 2748 2329 1908 3008 3524 2238 2065 1918 1605 2663 3414 3517 2391 3476 2989 3100 3040 3670 3121 3344 2020 3922 2829 3870 1799 3972 1929 2693 1616 3997 3885 2022 3759 3115 2654 2450 3962 3079 3269 3839 2866 1919 3438 3809 2491 1750 1643 3227 1820 2204 3800 1855 3030 1799 2524 1835 2307 1878 3625 3793 1618 3925 2137 3073 1897 2742 2702 2032 3851 1645 3343 1739 1864 2263 2501 3960 3296 2955 1679 2527 1940 3782 2676 2999 3973 2100 2668 3348 2577 2009 3651 3008 2398 3561 2594 2067 3906 2225 3455 3818 3791 3634 2652 3923 1931 3062 2615 3647 3579
1705 1536 2258 2775 3924 3290 3181 3532 3021 3740 2676 3805 2096 3573 2600 1993 1872 1726 1838 3534 1522 1612 3663 3449 2333 1804 1976 3504 3709 1893 1641 2879 1704 3094 2383 3988 1966 2394 2225 3094 2926 3116 2943 3458 2129 3729 3990 2151 2823 2913 2597 2150 2683 2184 2327 3516 1875 3094 1897 2563 1872 2985 3910 1824 2500 2219 2039 2941 3010 3883 1553 2648 2065 3585 3996 1585 2616 1773 3274 3629 2832 3686 3150 3290 2449 2833 3804 1682 2109 1510 1664 3695 2897 1572 3726 1840 1826 1978 3084 1721 85 9 2 40 64 49 91 1 19 4 73 86 90 81 81 93 1 65 61 58 49 15 8 73 55 69 86 53 4 43 37 37 25 87 28 46 71 59 2 82 57 16 44 27 8 27 9 11 94 7 7 32 5 27 14 18 9 10 79 81 36 30 38 97 22 79 27 36 96 45 42 61 95 60 32 84 42 16 35 51 33 90 18 95 18 57 17 81 49 0 2 39 60 7 44 5 37 2 3 38 3993 3842 2932 1981 2408 3494 3824 2716 2779 1636 3527 1741 3849 3889 3291 1992 2488 3756 3618 3200 2156 3149 2449 2019 1614 2594 2386 3695 2574 2655 1929 1992 3196 3346 1976 3321 3897 3467 1873 2592 3503 3649 2006 2315 2179 2896 3916 1632 1647 3114 3130 2204 3071 3346 3876 3656 3813 2122 2109 1896 2891 3956 3104 2481 2013 2889 3642 3933 2687 1852 1966 1826 1615 2686 2221 1617 3648 2219 2229 3987 3410 2545 1931 2682 3568 3063 2281 1948 2613 2152 2025 2925 2435 3700 3683 3301 3864 1762 1678 3343 2722 1908 3337 1849 2501 3537 3594 1977 2832 2700 3266 2897 3214 3502 2160 2048 1983 3413 1616 3214 3285 3923 1806 3320 1680 2959 3602 2221 3987 3607 3941 1871 3459 1793 1753 3295 2500 3663 2980 1520 2836 1908 3086 3451 2251 1632 2693 2490 3750 3355 2546 2136 3513 3835 2269 2746 2063 3442 3513 3722 2395 1686 3995 1869 2618 2925 3642 3049 2603 1577 1602 2325 2016 2954 1622 2664 1927 1735 2863 2952 2626 3344 1775 1875 3469 2203 3219 1719 3480 3798 2263 2708 3532 2545 1839 3282 3294 1806 1511 2843
3952 2571 2041 3895 3722 2670 3176 2891 2392 3852 3999 2736 3519 3472 2005 2240 2038 1987 3844 2660 3864 1801 3210 1893 3167 1624 3256 2812 2844 2330 2649 3186 3037 3485 2289 3595 3993 3768 2200 3391 2682 2492 2257 2646 2331 2717 2008 1545 3208 2290 3892 3720 2870 1884 2367 3344 3471 2302 2995 3055 3857 3401 1601 2750 2254 3557 2607 2498 2154 3095 2930 2172 2354 3273 2802 3835 3917 2711 3081 2071 3791 3993 2121 2169 2572 2031 2966 2741 3618 2293 2299 3042 3877 3805 3484 3008 2040 3390 2793 2726 52 95 73 29 29 45 94 7 51 59 66 24 1 41 53 73 40 50 2 76 76 75 51 3 97 64 31 19 5 54 88 15 35 97 8 94 16 42 15 79 45 71 90 1 43 89 5 58 55 93 12 17 1 59 80 20 5 26 25 76 98 73 81 77 70 76 35 18 56 24 47 54 12 38 33 47 60 32 78 60 32 84 19 15 94 68 82 76 16 2 0 33 95 9 75 72 70 62 33 44 2431 3955 3530 3651 2746 2982 1812 3729 3823 2016 2260 3357 3503 2201 3339 2339 3943 2664 3113 2791 3608 3464 2772 3576 1823 2642 2969 3252 2787 3585 3250 3644 2903 3423 2266 1896 2304 2692 3124 3827 3490 1976 3003 3101 1661 3660 1838 3021 3615 2988 2460 2096 3678 2809 3329 3275 2184 3907 1582 3915 3915 3791 1523 1781 3408 2397 3584 2565 3060 3865 1652 1595 3111 2311 3153 3206 1822 2311 1990 2584 1992 2498 3907 1996 2459 2937 2934 1812 2784 2742 2599 2101 1830 1991 3700 3544 2887 3639 3513 2415 3177 1981 3894 3272 3015 1758 2533 2235 3708 2264 2457 1886 2502 3024 3911 3665 3163 3690 3276 3551 1864 1701 3242 3153 1826 1715 3002 1611 2858 1835 2476 1907 1818 1642 2493 1666 1874 3458 3652 2981 3828 2688 2053 1890 2171 2011 3502 1509 2910 2572 2935 2272 1502 1517 3030 2849 1697 3861 2453 2739 3693 1624 2037 1999 3251 3833 2943 3532 1520 2021 2184 3376 2731 2145 2931 1646 2583 3668 2323 3128 3206 2824 3936 2976 3962 2121 2811 2364 2420 3518 2847 3368 2232 3379 1973 2985 3409 2925 2363 3206
3568 3121 2864 1883 3606 2045 3271 1712 1616 2561 1905 1854 2379 3547 1548 2123 3435 1849 2065 1606 2155 3876 2070 2168 2406 3057 1877 3882 2760 1588 2693 1544 2617 3273 2464 2957 3264 2625 3055 2381 2162 2764 3446 3561 3177 3257 3205 1721 1564 2230 1878 2158 3335 3833 2058 3436 1778 2968 2700 3227 2328 1882 2953 3377 2869 3004 3309 2475 2317 2649 1958 2601 2124 3245 1969 2251 2485 1806 2566 2075 3856 1872 3504 2673 3240 3088 1741 1721 2453 3746 2618 3098 2366 2441 3610 1673 2487 2539 2943 2705 26 81 60 95 89 38 73 1 90 14 38 22 19 67 85 9 63 84 66 52 58 14 44 7 82 41 14 56 39 64 10 6 83 93 34 65 13 31 73 85 77 22 12 25 50 94 41 16 81 3 4 94 26 9 31 51 95 50 20 96 69 69 5 98 36 73 73 70 3 53 4 77 64 13 49 76 68 32 80 91 92 70 43 90 8 74 68 2 98 39 33 0 1 62 95 39 72 35 26 46 3717 2140 3236 2696 2249 3660 2766 3640 3309 3067 2707 2197 2042 3126 3571 3506 3035 2752 2963 2377 1802 3018 3543 1577 3834 2385 1801 2779 2947 3980 3847 3607 2411 2968 1751 3490 3129 2724 1746 2091 3938 2424 3334 2752 2710 3826 3451 2750 2290 1898 3529 3050 2265 3683 3525 2111 1542 2611 2046 2028 1588 3208 3134 3536 3413 1623 3580 1684 2662 3353 2252 1745 1640 1793 2826 1525 1563 2253 2828 2850 3588 3696 1948 3584 2696 2314 3283 3816 2759 2232 2178 3072 2713 2360 3264 3994 3514 2752 2667 1864 3271 3211 1993 2473 1637 3223 2582 3835 1559 3666 2033 2032 3969 3606 2444 1500 3243 2031 3508 1803 2973 2067 3017 3233 1616 2128 2297 1671 3177 1640 2086 3677 3411 1686 2553 3944 2273 3736 3064 3486 3879 3832 2920 3574 3465 2633 3362 1858 3294 1586 3430 3219 1641 3457 3455 3676 1535 1716 3395 3149 2123 2010 2330 2848 3350 3054 3668 3226 3612 2847 2795 2791 3120 2186 3178 2178 2552 2645 3788 1874 3423 3924 1667 1922 2320 3269 1940 2589 1889 3402 3362 1561 2827 1862 1637 2784 3356 3145 3400 3701
3893 2559 3971 3590 2416 2342 3422 3846 2186 3012 2461 3259 3253 2467 3970 3032 2613 2614 1511 3242 2199 3865 2218 3197 3062 1549 3336 3746 2222 1574 1971 2944 2214 2624 3997 2841 3590 1913 1902 1856 1943 3411 2795 3571 2250 2889 1715 1629 2164 3210 3522 2556 2179 2553 3810 3227 2798 2711 2248 2017 2215 1909 3995 3933 1573 3049 2376 3897 2351 2017 1633 2625 3989 3370 2056 2055 3205 2002 2401 1695 2984 1775 3132 3305 1618 3549 2367 3847 3169 3747 1907 3909 1706 2702 3780 3106 3053 1653 2311 1992 97 5 62 41 24 70 69 48 47 23 89 80 6 9 51 67 67 10 82 83 92 17 95 16 6 64 14 53 33 2 2 73 57 76 83 6 81 84 7 65 53 14 33 90 28 98 35 75 48 2 34 32 96 96 33 66 30 15 16 7 93 35 70 80 61 98 91 95 72 51 1 54 58 73 97 96 30 42 2 45 43 12 71 92 19 44 92 78 53 60 95 1 0 53 19 16 78 4 25 21 3123 3572 1982 3342 2718 2865 1518 2189 1876 2175 2048 3074 2191 1897 3882 3726 3480 2474 2542 2482 1677 3527 3242 2337 3826 2746 2832 1750 3646 1886 3530 2761 2947 3982 1635 2936 3441 1616 3401 2860 1676 1561 3218 3731 3254 2139 3550 3015 2527 3127 2621 3472 2529 3637 1721 3513 2598 2821 1660 2480 3656 3988 3468 3622 2693 3636 1575 3400 2814 3241 3465 2406 2426 3543 2671 2451 2140 3023 2249 3252 3750 3016 3184 3996 3212 3637 3526 3966 1606 2164 2243 2514 3457 1707 1888 2011 2461 2300 2024 3666 2038 2329 1518 1698 1951 2364 3036 3502 3161 2203 1909 3128 1971 2600 2788 2163 1852 3113 3539 1795 3964 3309 1840 1718 2237 3128 3539 3803 3585 3258 2809 1644 2605 1927 3810 2330 2157 1627 3213 2020 2273 2889 2730 2483 3044 2467 2983 1585 3441 2666 3972 3979 2298 2621 2805 2377 1677 2930 1500 1947 3868 2420 2497 2295 2626 3848 3162 2294 2831 3095 2418 2064 1830 2693 2101 2966 2428 3713 2610 2718 3979 1510 2443 3223 2527 2320 3871 2114 3071 3405 2591 1814 3663 3344 3311 2062 1953 2307 2301 2394
2400 2264 3030 2064 3673 1804 2014 3660 3360 2098 2894 3624 2522 3953 3297 2408 3291 2571 2099 1712 2334 3371 2097 2390 2677 3901 2719 2103 2368 3484 3701 2118 3962 2175 3393 3341 2112 3186 3988 2408 1817 2418 1764 3764 2947 1899 1578 2447 2717 3187 2725 3031 2127 1982 3636 2456 3502 1917 1680 3779 2906 2433 2606 3993 2544 1954 3762 3100 2662 3543 3109 2972 3852 2848 2182 3854 3205 3688 3604 3877 3073 2104 3060 2609 3008 3429 1918 3267 2414 2693 3499 2592 1944 3819 2144 2947 2762 1996 2994 2224 54 7 27 19 96 19 43 51 1 39 76 65 80 45 84 85 69 73 62 42 35 89 77 24 7 97 28 88 46 27 76 84 46 76 94 6 37 64 81 43 4 98 81 73 96 47 62 88 74 44 78 67 28 32 3 71 25 88 56 49 1 50 25 87 21 51 53 45 64 81 3 92 42 18 5 46 8 89 20 63 43 62 50 18 3 52 45 96 28 7 9 62 53 0 12 21 16 25 78 10 2713 1752 3878 3298 3494 1581 2601 3654 1751 3928 2276 3097 3356 3649 2458 3833 3786 1852 1556 1733 3613 1508 2946 3595 3363 2493 1941 2470 3338 3037 3334 2905 1517 2279 3500 3592 2495 3490 2552 3690 3025 1968 3255 2802 3381 2124 3879 3596 3736 2674 3838 2497 3869 3058 3121 1783 3272 3539 3449 2419 3756 3222 2749 2162 1595 3068 1696 1833 2699 3850 3366 1801 2531 3129 2232 2677 2695 1538 2874 3920 2778 3725 3397 2185 3875 2106 2271 3506 1537 2038 2621 1918 2854 3518 2456 3224 3399 3947 3234 2345 2798 2381 3070 1781 3530 3687 3651 2252 3814 3568 2739 2454 1881 1754 2372 2330 2630 3653 1602 2330 2119 1972 2406 2752 3627 3727 3099 3634 2242 2539 2630 3001 2217 3206 2157 3558 3050 1617 2962 3280 2122 1629 2996 3357 2855 1893 2756 3831 3893 2074 3191 2222 1855 2461 2709 3357 2682 1646 3561 2779 1750 2634 2983 3659 2865 3674 2077 3334 3532 3860 3383 1871 1933 1503 2116 3004 2147 1647 2057 1702 3425 1629 3491 1793 2405 1859 3979 2220 3569 1688 1622 2263 1661 1572 2488 3659 1790 3315 1795 1739
1871 2965 3042 2249 3604 2352 3947 3236 3325 3674 1677 3380 3644 1670 2022 2204 1634 3307 2509 2095 1641 3236 3398 3890 2759 2758 3790 2950 3020 1532 2783 1612 2126 1695 3096 3153 3833 3647 2341 2778 3022 1512 1967 1506 2127 3494 2774 2406 3792 2332 3015 2395 3517 3064 3350 2950 3831 1965 2867 2713 2867 2596 2600 3376 3445 3369 3934 3833 1718 2949 2483 3576 3686 3626 2921 3854 1705 2250 1895 2820 3896 1949 1574 1617 2683 2668 2711 1873 2441 2211 3252 2368 3622 3705 2119 3329 1930 2476 2213 3725 30 67 78 59 65 35 61 35 18 27 39 64 90 24 27 76 34 12 17 11 61 80 77 10 89 15 87 93 51 44 3 19 77 38 97 70 50 68 97 32 96 39 68 63 76 57 53 14 18 17 54 28 18 27 71 93 46 51 31 64 2 77 44 23 43 36 57 98 35 44 65 96 84 32 88 26 17 51 54 43 49 47 52 82 54 6 41 24 64 44 75 95 19 12 0 5 35 43 79 11 2109 2348 1712 1944 3559 1993 3059 3508 3093 2107 3017 1792 3518 2172 2959 2086 2996 1973 3974 2893 2856 3441 3255 2791 2160 3494 2058 2622 2951 1684 3742 3974 2529 3198 3437 3754 3054 3086 2824 3684 2487 2027 2829 2632 2593 2845 2219 1853 3957 2805 2172 2203 2839 1686 2132 2538 1734 2186 3678 1968 2799 2799 2937 1653 2302 3889 3277 2737 2136 1725 3087 3856 2486 2872 3746 2145 1961 3028 2913 2913 3110 3232 3465 3126 2551 3814 3588 1660 2500 3413 3848 2971 3525 3656 3065 1956 2793 2158 3080 2058 3014 2588 3708 2677 2260 1750 2972 2229 3069 2938 1899 1989 2565 3430 3808 3051 3518 1807 2679 2172 1588 2677 1546 2831 2650 2393 2045 2856 3243 3454 1919 2546 2495 2623 2126 2175 2810 1690 1839 2865 3695 3648 3739 3178 2838 2103 3810 3899 3813 2906 2389 3295 2363 2872 3874 3542 2976 2549 3649 1678 2424 2060 2069 3301 1547 3975 3522 2353 3854 2360 3789 2606 3576 1795 1687 3610 2261 3500 3681 1792 2125 3096 2404 3716 2253 3648 1843 3489 2481 1872 1576 3945 3593 3928 3698 2104 3997 1739 2455 1537
2792 3952 3026 2633 2582 2577 3816 3478 2076 1977 2642 2514 2768 2069 3968 3932 1735 2176 2429 2702 3123 3330 2941 3493 3131 2013 3150 2169 2947 3946 2860 3029 3054 2006 2498 2451 1786 3050 2085 2256 2620 3472 1815 3229 3729 2892 1562 3278 3449 3313 1510 2436 1970 1955 1507 1838 2519 2389 1618 2230 3595 2446 2486 2493 2483 3984 2805 3436 2837 2407 3586 2597 3236 3765 1806 1656 3832 3214 3550 2298 1803 3747 2811 3685 3760 3124 3143 2051 3010 1511 3649 2912 2134 1516 1855 2601 1947 2425 2858 2810 25 99 67 92 20 19 54 51 46 64 74 14 20 40 83 72 73 30 86 24 11 14 79 56 8 96 22 37 83 87 61 5 48 22 57 46 71 56 84 2 68 81 98 86 1 40 93 34 98 49 22 95 32 48 98 14 69 66 12 98 51 22 4 61 53 34 71 91 57 17 56 13 96 38 3 56 24 48 83 74 58 12 18 56 91 95 8 59 74 5 72 39 16 21 5 0 89 82 19 60 1743 2820 3453 1968 3517 2654 2970 3567 2045 3726 3786 3485 3203 3646 2894 3333 3197 3949 3289 2100 1725 3026 3578 2077 2253 2150 1698 2808 1617 3096 3601 2044 3563 3488 3438 3327 3576 1786 2515 1536 1555 3911 3951 3583 2593 2604 2437 2160 3583 2751 2244 3104 3705 2787 3563 1793 2949 2559 2583 3994 2527 3083 2925 1876 3098 1701 1773 1936 3798 1890 2415 3518 2347 3232 3044 3611 2628 1929 1994 3468 2125 3924 1627 1993 1557 3500 2104 1931 3460 3341 3395 2740 3297 3372 3512 3823 3987 1608 3653 2783 1804 2373 2418 2932 3633 2339 3512 2168 3439 1550 2791 2837 3632 3542 1709 2401 3191 3821 3100 2662 3314 2359 2878 3494 1855 2074 3934 2224 3080 3949 2299 2942 1551 2015 1511 3986 2149 3296 2936 3037 3649 2789 2601 2436 3141 2701 2910 1956 2197 2192 2555 1501 3592 3034 3407 1503 3176 3767 1516 2647 3907 2068 2012 1643 2696 2178 3723 2950 3485 2117 1925 2470 3017 2201 3479 2182 2514 3103 3334 2727 3717 2962 1923 1550 1744 1708 2030 2118 1534 3352 3849 3155 2533 1685 3283 3504 2507 3399 2755 2959
3931 1806 3705 2731 2762 3561 3291 2472 2897 1746 2487 3176 2342 2201 2791 1829 3524 1585 3458 1930 2043 3834 2812 3889 1920 2535 3635 2104 1779 2567 1729 2670 3338 3705 1996 1739 3817 2155 3011 2619 1886 3217 1685 3609 3489 2768 3938 2782 3384 2346 3038 2254 1540 2284 2394 3467 2149 2868 1651 1958 3459 3808 2817 2520 3341 2014 3777 2567 3208 3621 2970 3369 1704 2268 1953 3291 2740 1992 1763 1740 2079 3081 2643 1920 2719 1846 1892 2522 1846 2578 2234 2126 2857 1711 3873 3500 3059 2256 3953 2591 68 54 27 32 81 54 56 12 41 87 70 29 42 74 27 46 65 80 58 35 60 34 82 75 75 41 64 89 23 12 23 64 46 30 76 4 96 80 58 13 49 6 89 54 55 70 55 41 98 42 87 24 80 40 29 31 84 76 37 26 33 22 61 79 32 23 44 79 72 10 24 34 73 56 44 10 34 82 66 66 64 57 4 80 91 76 13 63 10 37 70 72 78 16 35 89 0 5 22 32 2800 3525 3482 1951 3251 1791 2011 2202 3599 3494 2908 2133 2392 2286 2854 1579 2902 3639 3372 2813 2917 3585 3235 2183 3359 2378 1554 3874 3865 3837 1859 1937 3251 3161 3930 2843 2905 1722 3145 1937 3182 2661 3240 3453 2798 2166 2147 3494 3261 3795 3035 3067 3234 3025 2964 1950 3777 3009 3729 2910 1926 2696 1656 3880 2386 2102 1880 3699 3953 2517 2724 3965 2413 3140 2243 3249 3991 3085 3638 2752 3891 3911 2397 2108 3171 2872 3832 3355 3127 1834 2620 3251 3179 1812 3334 2107 3496 2795 2042 2801 2662 2601 2823 3773 2175 3400 2120 1803 1543 3423 2512 2278 2815 3448 3586 1775 3057 2212 2194 2467 3873 3104 2427 2971 1793 1626 3496 2562 3495 2276 2967 1781 3958 1515 2828 2443 2853 3035 2366 2206 1732 2630 2160 2283 3636 1583 3193 2506 3983 1900 1845 3060 3983 2829 2777 3370 3533 3742 1835 2846 3779 2052 1527 1742 3240 3159 2381 3002 2241 3170 3438 2445 3290 2168 2233 2504 1815 2877 3027 2225 1750 3254 3997 3503 1618 3521 2025 3691 3239 2532 3771 2557 2001 3577 3460 3192 2281 2268 1627 3039
2418 2215 2457 3629 3073 3720 2318 2676 3345 2105 3987 1979 2714 1908 3623 2879 2989 1643 1819 3434 3079 2131 3335 2833 3938 3488 2632 1503 3954 3728 2385 1894 3199 2825 2557 2139 2666 3256 2715 1654 3205 2133 3676 2886 2092 3522 1615 2609 2665 3141 2682 3657 3707 3950 1814 3274 2526 1603 2084 1641 3405 2859 2705 3509 3608 1977 3657 1717 2410 1637 2366 3893 1638 2568 2597 2310 3170 3515 2577 2456 3787 1856 2272 2632 2650 2434 2422 2229 2384 3938 3376 3432 2578 1841 1998 3361 1983 3972 2310 2198 82 9 28 75 22 79 93 19 67 97 26 8 20 88 7 92 60 72 55 28 91 67 74 90 84 25 58 15 38 52 91 1 37 78 82 11 9 19 12 28 82 82 64 84 8 1 3 48 63 86 36 15 82 8 75 69 70 34 5 33 16 28 10 13 51 99 90 68 92 68 98 12 40 2 22 42 61 95 78 47 95 56 61 2 39 83 33 16 13 2 62 35 4 25 43 82 5 0 9 60 2862 3506 3539 1894 3882 3107 3494 2739 3016 1809 1881 2565 2243 3965 2763 3628 2754 1674 2753 3987 3396 3089 2660 2317 2689 1531 3960 3709 1981 3020 2361 2422 1778 3276 3678 2960 2031 3664 1643 2369 1612 3269 2228 1506 1910 1551 3416 2611 2286 2503 1656 3621 3912 2364 1686 2277 1746 2716 1589 2924 1764 2977 2359 3492 2314 1895 2154 3487 3366 3916 3566 2462 3973 3346 1547 3841 3860 3753 3624 1845 3713 2537 2682 2254 1865 2789 3855 3495 2900 3149 2311 3497 2197 2056 3407 1606 3177 1795 3566 2859 2850 2442 3195 2138 2479 1925 3347 2216 3684 2980 3263 3063 2278 3619 2292 3699 2670 2437 3362 3567 2474 3838 3520 1600 3063 3709 2097 3462 3734 1876 2839 3819 2794 2237 2721 2401 2252 2232 2463 2448 1750 2085 2463 2279 1672 1747 2618 2178 1713 1724 1847 2669 3272 3276 3360 1989 1760 3801 1528 3080 3438 2781 1901 2954 3698 3850 2470 2623 1830 2501 2534 2238 2642 3428 2347 2871 3262 3534 2393 3504 1591 3774 3621 3088 2509 3347 2632 3900 3293 1635 3371 3156 3636 2868 1705 3725 3083 1738 1525 3629
3724 3834 2559 3602 1713 2635 1576 3624 1561 1597 2936 3915 2398 1898 2251 3948 2963 3283 3097 2956 1628 3838 1582 1559 3974 3449 3977 2724 2464 3731 3158 3207 3753 1550 3443 1564 2274 1911 1987 2508 3155 2531 1748 1852 1937 3776 2745 2495 3125 3733 2235 1594 3229 2897 1942 1998 2310 2656 2228 1801 3727 3332 2984 2986 3833 2572 1794 3548 3144 3572 3350 3422 2467 3526 1924 3556 3524 3044 2330 2938 3581 1688 1942 1684 3980 2924 3247 3957 1988 2410 3433 3184 3231 2176 3722 1753 2260 3068 3990 2119 46 99 71 69 98 43 9 36 25 7 13 79 36 60 57 19 90 40 26 67 20 29 10 64 80 57 58 61 55 73 34 14 51 23 15 11 7 82 10 32 16 47 95 47 2 31 34 16 21 29 67 29 91 12 98 70 93 85 17 27 87 4 14 74 22 97 60 13 32 41 24 11 49 11 92 24 70 33 7 89 19 14 16 60 31 68 58 81 52 3 33 26 25 78 79 19 22 9 0 1 3925 2508 3987 2177 3699 2644 3279 3884 3464 3689 1829 3032 1664 2544 3971 3474 3504 3853 2079 2115 1605 1567 2519 3996 1864 2100 2655 2969 1927 3435 2022 2770 3806 3305 3434 3638 2063 3692 2854 3032 3178 3061 2001 2692 3860 3333 2769 2258 3815 1781 3043 3413 2136 3315 3013 3397 3810 2925 3824 1830 2734 2057 3047 2858 2354 2558 3066 2986 3482 3151 2959 2617 2652 1684 1920 2331 3717 3824 2342 3887 1753 3561 1731 1524 3740 1715 3512 3154 2922 3744 2855 2969 2115 3980 3020 3737 2003 2397 3859 2986 3847 2570 1713 2092 1562 2895 2934 1986 2212 3652 3762 2769 1887 3068 3482 2271 1886 3938 2075 3208 2921 2361 2533 2514 3392 2049 1559 3994 3841 1878 2228 2145 3800 3457 2993 3628 2754 2768 1659 1813 1516 2257 2436 3166 3475 2847 2591 2107 2700 3043 3088 2552 1522 2485 1917 3222 2729 2096 3412 3387 1959 3894 3532 2797 3669 3764 3855 2442 2387 3116 3589 3439 3983 2989 1663 3898 1915 2747 3756 1652 2609 2213 1797 1618 2031 3450 1574 3802 2259 3685 3558 1659 3239 1597 2032 3132 3507 1617 2636 1795
2459 2241 2914 3125 1501 2231 2959 2884 2094 1844 1907 3962 3176 3983 2737 1865 3721 2026 1987 3175 3740 1886 2184 2100 3496 3395 2770 3231 2087 2061 3020 1680 2217 3674 2609 3072 2191 3771 3398 2489 2885 2225 2146 1738 3780 2248 3555 3263 2678 3607 3481 3267 2124 3734 3666 3411 3141 2243 2447 2659 1838 2948 3698 3775 3895 3525 3992 1825 1827 3955 3072 1885 2460 3893 2029 2110 3810 2649 3876 2208 2752 3391 2866 2749 3066 1586 1645 2682 1598 3836 1839 2658 2823 3103 3970 3731 1890 2682 3501 3442 13 24 62 68 58 14 69 51 61 10 58 13 73 13 14 59 45 7 65 59 83 94 57 62 64 49 16 31 62 22 96 73 85 25 66 93 29 98 42 78 38 16 62 31 25 16 94 4 32 32 43 66 75 23 3 42 8 80 66 79 30 23 62 33 7 49 29 82 40 6 19 99 7 10 26 1 34 87 24 50 91 85 20 65 89 9 11 85 91 38 44 46 21 10 11 60 32 60 1 0 2277 2063 2926 3411 1619 3897 3339 2826 3470 3522 2986 2498 3069 3842 3202 2116 2849 2381 3436 2640 2356 1506 3296 2505 2087 3720 2051 2250 1716 2375 3233 1899 2718 3230 3135 3527 2219 2039 2114 1889 2842 3028 2200 2988 3162 1826 1819 1655 3257 2415 3065 2088 3581 2926 3962 2580 2223 1507 2908 2539 2402 2994 3080 2230 2624 3401 1855 3078 2583 3801 3752 3689 2436 2657 1960 2215 3814 2132 1845 1580 2461 2788 2604 2066 2537 2220 3433 2385 2364 3599 2082 3939 1654 1980 1647 3729 2482 3706 2610 3711 2802 2798 3652 3261 2651 2681 3377 2082 3577 2165 1805 2889 2172 1904 2862 3182 2891 2308 3880 1986 3534 2874 1978 3043 2525 2495 1634 2295 2809 3569 3623 2160 2924 3674 2308 2448 2052 2578 2408 3750 2444 2087 1782 3826 3944 2223 2921 1861 2539 2383 2981 2684 3149 2247 2494 1781 2025 2338 3411 1692 3659 2309 2453 3586 2155 2388 3472 2595 1529 1588 2730 3339 3303 3997 3976 2347 3791 1881 1771 1847 3884 2477 3892 2136 1569 2587 2596 1812 2781 3699 1971 2610 2106 3969 2364 2431 1796 3111 1685 2917
3555 3210 2896 2625 2622 3870 3547 3788 2371 3584 2922 2227 1524 3305 1846 3222 3814 2290 1544 2579 3651 2153 3396 2318 3188 1996 2929 3811 1930 2549 3919 3246 2731 3282 2987 3792 3266 2019 3599 1719 2075 2804 1764 1796 3682 2467 1598 3081 2855 1902 2217 3667 1841 1658 2552 3517 3438 2294 3760 3831 1746 2659 1581 3230 1706 2398 2060 2425 2518 1884 2967 3836 1636 1739 3425 2961 2674 2057 2145 3145 3552 2722 1725 3598 2538 3448 1567 1876 3864 3501 1802 2329 1658 2559 3344 1777 2607 2232 3625 2301 1869 3288 3822 1931 2427 2825 3805 3502 2980 3102 3522 3982 1759 2665 3925 3118 2510 1512 2183 3440 2704 2995 3229 2145 3657 3209 3033 2245 2084 1709 3304 2018 3740 1887 1672 3044 2265 2693 2646 3967 2519 3261 1977 2897 3410 3814 2451 3347 3134 2294 2298 3070 1592 2390 1587 3573 2709 3697 2179 3848 2707 1869 3994 1884 2421 2348 2972 3286 3418 2994 2289 2323 2579 2662 1959 3000 3871 3350 3849 3913 2561 2695 2805 1567 3934 2586 2791 2703 3692 3993 2431 3717 3123 2713 2109 1743 2800 2862 3925 2277 0 25 5 9 20 59 61 30 48 69 7 51 45 28 32 82 8 85 25 70 37 85 23 30 24 73 97 67 13 87 83 33 19 62 36 48 36 77 90 87 95 13 29 70 88 35 82 7 83 96 72 45 63 99 85 52 69 73 62 36 18 53 48 62 92 99 34 62 7 58 14 24 98 55 45 4 23 50 94 27 64 5 6 80 91 9 5 29 99 33 68 92 37 70 77 67 54 72 79 62 2050 3830 2851 3262 2984 3771 3596 2783 2915 3739 2224 3420 2727 3617 3860 3644 2827 2184 3032 3641 3488 2958 1841 2551 3011 1726 2395 3135 2651 3077 2777 1857 2878 1639 1729 3280 1660 3744 3724 1593 3642 2774 2511 3742 3399 3831 3515 3477 2085 1632 2503 3441 2726 2598 2041 3471 2238 1607 3656 1787 2700 2788 1650 2861 1788 2811 1673 2034 1939 2931 3695 2628 2456 2677 2822 1503 2035 2355 2194 3755 3186 2138 1629 2826 2059 1825 3584 2516 1808 2235 1730 3558 2308 2481 1981 3244 2967 2537 2124 1555
2073 2378 3964 2185 3005 3821 1757 2608 3815 2434 3088 3019 2498 3215 3285 3598 3792 3395 3544 3107 3279 3809 3809 2329 2589 2197 3058 2930 3129 2181 3536 3974 3105 3808 1516 1989 3856 3383 2400 1857 3969 3107 3973 3050 2140 3525 2814 2139 1718 1659 2353 2246 1866 2630 3952 2088 3692 2838 1706 3897 3332 2243 2142 3911 2405 3243 2924 3383 3344 2920 2006 2686 2902 1965 3515 2057 3744 1850 2855 3814 3710 2483 3321 3602 1840 1519 2978 3700 3154 3226 1736 3252 1645 2803 2669 2735 2727 2713 1739 2517 3776 2091 2844 3383 2859 3834 3995 3540 2878 1868 3785 3957 3050 3912 3072 2254 2151 3551 2195 2828 3570 3729 3768 3988 3271 3937 1675 3327 3386 2504 3075 1513 1547 2148 2642 1539 2270 1587 3549 1938 3298 3542 3304 2824 1925 3139 2631 3776 3985 3269 2472 2095 2327 2958 2540 3069 3492 3720 3015 1740 2212 1816 1553 3452 2381 2495 3225 3098 2649 3586 2184 1971 3437 2608 1691 2726 1638 2913 3185 2474 3943 3820 2084 2412 3111 2058 1698 2906 3398 3842 3955 2140 3572 1752 2348 2820 3525 3506 2508 2063 25 0 37 10 63 15 66 1 6 63 12 19 13 96 64 35 40 13 10 82 95 77 58 41 44 44 8 50 95 69 77 71 22 82 70 97 79 83 14 79 44 66 1 81 5 62 15 36 2 75 23 37 34 16 12 93 55 31 46 58 91 20 57 35 59 64 72 42 50 68 1 92 15 24 61 34 22 2 85 64 77 4 35 32 66 29 20 27 71 6 17 14 37 55 84 97 22 7 38 45 1636 3478 1835 2258 2736 2466 3485 2118 3689 2758 3755 1817 3384 1855 3371 3903 3591 3661 3050 2149 1795 2761 1529 2984 1921 1772 3050 3355 2090 1879 2990 1687 3644 3153 2185 2885 2283 1999 2382 2766 3443 2911 2280 3461 3401 1841 3136 1712 2063 2193 1674 1847 2195 2359 3195 3365 2010 3706 2080 2871 1865 3593 3782 2793 1633 2170 2399 3756 2978 1672 3005 3732 2461 2322 3310 2268 2926 3151 3953 3573 3432 2395 2998 3932 2224 3070 2521 1609 1577 3743 2907 2658 2688 2971 1886 3505 2517 2464 3778 1618
2699 3559 1949 2176 2227 2280 3383 2190 1521 2593 3672 3232 3235 2863 3659 3126 3144 2403 3884 1503 2391 1699 3539 3740 3194 1828 2460 3733 2776 2738 1529 3194 1889 2809 3322 1618 3494 3066 2616 2626 1691 3165 3337 2541 2417 2086 3472 2410 3007 3461 3142 1562 3537 1698 2345 2770 1551 3342 2153 2309 1723 3090 3285 2236 2374 3375 2377 3032 2818 2224 2624 1541 1548 1704 2250 3767 2318 3991 3819 2253 3712 1931 1651 1985 1989 3219 2478 2079 2369 3458 1613 3090 3964 3789 1512 3287 3613 3494 3314 2816 2004 1533 3002 3549 3735 2966 2532 2932 3417 2227 2445 2663 2479 2388 2683 2562 1612 2402 3018 3633 3280 3215 3760 3704 2386 2149 1634 3390 1986 1772 2477 2014 2111 1521 3629 3011 1670 2623 2813 3676 2222 2530 1645 1780 1570 2422 3708 3846 2996 2275 1776 1570 2893 3224 3202 2928 2063 2441 3042 3549 3645 2048 2241 3383 1681 1996 2436 1535 2873 2144 2468 3412 3256 3571 3639 3664 1816 2988 2024 3214 3297 2383 2609 1771 3263 3505 1986 2579 3463 2932 3530 3236 1982 3878 1712 3453 3482 3539 3987 2926 5 37 0 83 5 15 50 88 44 2 80 32 59 65 76 10 71 92 15 80 89 3 67 53 28 24 50 27 34 5 5 44 30 13 45 61 49 8 36 87 84 99 93 59 98 54 35 20 56 56 15 45 43 44 47 5 82 40 99 81 35 56 29 79 12 18 94 71 39 57 84 36 12 92 83 43 40 62 32 14 88 19 8 64 55 78 71 8 55 81 68 8 63 29 20 7 92 85 77 25 2824 2214 1621 3846 2404 1900 2527 2332 3070 3095 2687 2027 2228 3409 3752 3229 2366 3551 2023 3129 2428 1960 1567 2315 3000 1787 1651 3448 2851 3800 3915 3887 2047 3818 2092 2863 2146 2978 3855 3361 2340 3295 3871 2646 3705 3306 2731 2935 2186 1905 1868 3269 2284 3590 3872 3012 2373 2502 2156 1975 1808 3996 2956 2729 1837 1995 3829 3761 3060 3596 2092 3513 2853 1681 2414 3865 3453 2132 3889 3990 2240 3757 3133 1580 2628 1692 1717 1564 3323 1814 3963 1567 2718 1574 1642 2896 3272 3374 2169 3562
2317 2963 2570 3389 3696 3621 3991 1638 1703 2490 1998 2055 2069 2663 2302 2225 3231 2278 2157 3496 2101 1752 2509 2361 2668 3208 2708 3336 3444 3857 2103 1500 3947 2818 3200 3244 3429 2754 3254 3083 3533 1842 2709 3513 2240 2368 3985 3620 2369 2402 3915 1649 1698 2543 2606 3165 3107 2797 1807 3334 3446 2587 2000 3180 2279 2219 3077 3159 2251 3300 2310 3787 3608 1735 2392 3528 1547 2595 1524 3379 3420 2516 3803 2292 1826 2690 3144 2360 2675 1932 1879 1646 3350 1581 1619 3542 2551 1681 2188 2197 2484 2586 3142 2820 2362 1566 3775 2756 2058 3510 3169 3930 3549 3791 3139 2425 3237 1799 2469 1900 2440 3811 2672 1713 1813 2081 2762 1660 3865 3678 1820 3168 2662 3141 3215 3009 3167 3554 2262 1611 2731 1578 2185 3774 3989 2793 2214 3760 3264 1615 1809 1888 3780 3749 3616 1637 1993 3233 2771 2295 3396 3225 1597 3764 3857 2907 3856 3586 2706 1705 1981 1881 3559 3861 3315 3693 3085 2575 3821 2705 3840 2701 3499 1996 2416 2487 3900 2301 3567 1981 3651 2696 3342 3298 1944 1968 1951 1894 2177 3411 9 10 83 0 6 26 75 1 53 17 74 37 75 7 21 49 71 35 55 22 96 43 95 72 94 22 5 43 91 57 78 94 78 44 75 9 4 62 14 97 67 18 33 10 69 47 45 33 13 40 85 65 24 74 72 91 8 26 41 60 54 12 92 80 86 81 70 5 93 40 53 88 36 8 94 8 31 69 11 91 11 14 44 24 45 81 44 33 88 15 81 66 49 81 68 71 63 81 90 41 1885 2811 3111 3592 2565 1899 3574 1661 3275 2025 1796 2404 1772 2472 2203 2171 3857 2986 3873 3806 2581 2262 2964 3803 2627 2241 2483 3089 1707 1575 3980 1916 1751 1738 3681 2617 3572 2601 2992 2920 3921 3967 2176 2560 2602 1952 2607 3968 3852 2286 2565 2303 1807 2167 3378 2564 2948 2431 2011 1873 3585 2739 3872 2463 1709 2287 1890 3143 2218 3436 2092 2598 2285 3566 2423 2508 3946 2082 2615 3856 1748 2455 2198 1763 3655 3591 2846 2353 1713 1951 1956 3822 2030 2550 3647 1962 2922 3440 2047 3952
2080 3742 2026 2416 2819 3391 1896 3936 2272 2876 1953 3898 3655 1879 2493 3435 2690 3998 3810 2084 3741 3774 1905 3661 1902 1817 3397 2910 2424 3112 2978 3702 2627 2779 3324 2656 3312 2372 2027 2469 2654 2960 2668 1841 1669 3758 1655 1688 3456 1791 3620 1941 3761 2700 2954 3851 2380 3616 2461 3924 3192 2203 2907 3867 2743 3333 3466 3491 3620 2895 2107 2622 1502 1901 1849 2111 3956 3733 2817 2462 1809 3974 3047 1720 2068 3816 1906 2986 1906 2306 3277 1769 2519 3685 3001 3220 3060 2675 1993 2252 2673 2026 2842 1622 3060 3279 2530 1951 2288 2469 3757 3230 1816 2549 2352 3099 2076 1957 2408 2767 1812 3433 3377 1944 3267 2218 3744 2934 2737 3468 3949 2900 2433 2494 3308 2221 3738 3341 3964 1512 2519 3731 2671 2899 3247 2769 2525 2473 2085 2028 2437 2389 3140 3841 2252 2962 2219 2399 3905 2746 1623 1810 3729 3599 2184 3409 2240 1994 3292 1737 3911 2055 1666 3145 1518 3643 2621 1840 2917 1707 3830 1970 3391 2484 3545 2406 1883 1501 2747 2408 2746 2249 2718 3494 3559 3517 3251 3882 3699 1619 20 63 5 6 0 59 68 19 37 29 28 55 58 69 85 53 7 62 88 26 40 32 1 39 26 60 30 28 51 49 8 30 36 26 52 84 12 66 68 53 82 19 27 53 54 42 32 41 91 86 54 88 49 32 97 21 95 79 33 30 50 78 27 96 69 87 30 74 6 62 33 87 1 88 35 33 30 68 83 33 6 64 37 63 51 42 70 63 46 80 69 80 72 41 44 95 83 81 31 31 3864 1791 1638 2911 3682 3916 3572 2234 3111 3171 2031 2103 1888 2638 1713 3350 2850 3155 3475 2447 2218 2157 3330 2190 1721 2016 3665 2036 3585 2093 2486 2061 1970 1628 2339 2181 3373 1784 2539 1517 2283 2172 1788 1530 3739 2477 3498 3993 2373 3504 2929 2280 1815 3791 2699 3658 2710 2944 2435 2546 3770 1854 2179 2136 3442 2391 2487 3560 1849 3919 2042 3844 2690 3933 3720 3206 3433 2597 3087 2457 2304 2741 1629 2868 3310 3762 2384 3090 1888 2119 1760 3923 2315 2751 3686 3458 3058 2832 2916 3430
3731 3093 3607 2588 1550 2485 3135 2300 3850 2484 2546 3408 1617 2732 2362 1552 2280 2923 1646 2029 3206 1926 2411 2679 2858 2541 3892 1568 1603 2830 3977 1565 3840 3300 2036 2639 1931 1788 3754 2297 1523 2950 2607 2697 1686 2359 1551 3428 2733 3654 1548 2420 2552 1906 3433 2972 2653 2846 1740 2649 3912 3489 3510 3142 3133 3789 1727 3925 3891 3053 2195 3961 2362 3752 1626 2557 2807 3860 1747 3690 3573 2634 2845 3489 1957 2854 1898 1734 2470 3408 1560 2649 3891 3662 3053 3216 1580 2203 2363 2798 2196 1639 2570 2099 1964 3661 3959 3075 3540 2881 3202 2123 2323 2874 2788 2157 2483 2794 1548 3966 3803 3615 2236 2068 3901 2852 3951 2190 1779 2577 3663 2074 3588 3703 2001 1668 3255 3140 1551 1699 2575 3141 1767 3352 1526 1963 3681 2433 1548 3597 3201 1750 3379 2222 2976 3917 1663 3362 2278 3845 3865 2393 3388 1509 2384 2442 3832 1751 1685 3022 2999 2778 2106 3023 2486 3897 1884 2302 3492 2693 3722 3705 3925 3212 3113 2517 2021 1547 3490 3494 2982 3660 2865 1581 1993 2654 1791 3107 2644 3897 59 15 15 26 59 0 89 92 27 82 56 73 20 3 20 72 42 17 62 81 86 28 14 9 84 24 16 58 28 55 19 89 68 46 66 75 66 97 90 73 34 76 36 54 78 64 92 55 45 85 74 60 41 74 73 38 81 58 85 47 49 76 41 19 70 17 79 89 53 60 73 53 81 31 5 79 51 58 23 97 3 38 47 89 77 99 64 67 88 23 14 77 36 37 79 1 93 80 50 91 2386 2039 3048 3724 2434 3765 2860 1804 2949 1897 3107 3355 3310 3654 3612 3073 2696 3703 3333 2348 2337 2354 1921 2552 3163 3783 2178 1783 3533 3705 3086 2225 2912 2905 3243 2332 1782 3247 2920 3694 2203 2882 3702 2270 3350 2328 1732 3791 2847 1847 2501 3056 2824 2555 3821 3545 2945 1991 2010 2051 1619 2319 1981 1632 3919 1815 3925 3937 2786 3220 3641 1696 1840 3959 1776 3713 1691 1501 1927 1649 1944 2277 3225 3074 2145 2819 2649 3854 3877 2541 3927 2711 3527 1988 3933 2857 2743 3901 3143 3642
3504 2958 2883 2242 3633 2214 2771 1848 2669 2181 1669 3458 2550 3011 2947 2891 2824 1964 3385 2370 2754 3080 2516 2114 3678 3145 1788 1812 2297 2960 2325 2845 3483 3589 3709 2392 3977 3090 2648 2078 3537 2048 3819 1803 3954 3471 2220 2329 3799 2190 2558 1531 2365 3999 3136 2297 3976 3153 3136 1674 3867 1540 3309 2758 1686 2724 2709 3869 2198 3201 3832 1703 3615 3551 1879 2421 2220 2679 2402 3690 2301 1924 3732 2847 3905 3985 3191 1626 3836 1678 2929 2057 1600 3609 2591 2044 2549 1677 3091 2975 3905 3123 3814 1790 2699 1890 3395 2973 3157 1672 2067 2733 2539 2660 2201 3422 3976 1959 1724 3918 3640 1789 3538 2264 3004 3927 2228 3183 2264 3940 3321 3218 3166 3368 3554 1719 3592 3541 1808 2853 2886 3844 3222 2365 3639 3354 2351 2604 1560 3880 2445 3069 3161 3608 1871 3234 1677 3451 3677 2280 3885 2702 2056 2074 3379 3268 3958 2411 3908 1576 2513 2052 2817 2096 1524 2274 3644 2552 2141 2071 2686 3127 2331 2976 2509 2542 3476 1569 2361 3824 1812 2766 1518 2601 3059 2970 2011 3494 3279 3339 61 66 50 75 68 89 0 55 90 13 35 58 34 8 92 64 91 75 13 91 10 51 48 94 2 96 12 12 36 61 41 23 14 34 22 18 9 45 70 12 25 18 83 40 92 82 39 2 92 78 7 74 87 37 36 57 61 21 63 36 97 3 64 53 82 94 57 60 15 1 66 78 94 82 18 63 49 5 59 43 5 25 49 11 43 64 29 16 44 92 95 20 15 61 93 34 85 44 81 29 1914 3364 1763 3661 1978 3829 2757 3507 3231 1901 3249 2791 3436 1954 2020 3824 2184 3002 3074 2978 3447 3856 2772 3690 3654 3817 2558 1697 3668 2807 1731 3203 1672 3755 3313 1902 2932 1757 2040 3395 2925 1881 3270 1838 1620 3464 3710 2212 1962 3213 2084 1857 3546 1511 1994 1522 2999 3685 3032 3008 3102 2513 3615 1929 1596 3448 3236 3243 1522 2772 2452 3867 3648 3425 3497 3804 2687 3372 1543 3539 3636 2317 2006 2264 3032 2471 3687 2624 3790 3158 1720 3719 2462 2913 1552 3542 2338 3179 2181 3277
1849 2721 1703 3956 2745 1714 2654 3782 1940 1585 3368 2426 1643 3384 2456 3330 2826 2655 1924 2879 2076 3632 3539 3963 1939 2755 1878 3161 1995 2065 3514 1720 2236 2167 3931 1620 3349 3569 2849 3606 1857 3807 2599 2818 3191 1810 3780 3546 3620 3898 3788 3212 2032 1797 3712 3148 1644 1878 3061 2677 2015 2367 2639 2605 1725 2316 3535 3005 3226 3764 3265 3457 2195 2902 3183 3145 3393 2895 3308 2010 3164 3001 3205 2148 2145 3396 3449 2623 3705 1643 3723 2657 2168 2690 1533 3078 3498 2262 2496 2122 2865 2971 2629 2543 2435 3900 2429 3876 1597 2230 3511 2217 1701 2637 3243 3691 3288 1652 3627 2118 2505 3485 2777 3827 2030 3623 2810 3294 2161 2992 3104 2899 3199 2694 1750 1957 1910 1625 3783 2557 2568 1686 3943 2245 3615 3208 1924 2829 2229 3578 1825 3974 3288 3779 1930 3253 3139 3403 3263 3307 2862 1828 2623 3410 2588 3943 3494 2360 1774 2051 2781 3411 2315 1869 1691 1933 1696 3128 3479 2252 3012 2273 3058 3411 2677 2178 1708 3964 3140 2716 3729 3640 2189 3654 3508 3567 2202 2739 3884 2826 30 1 88 1 19 92 55 0 56 11 63 31 78 48 19 94 12 65 28 19 27 92 11 14 7 71 48 28 41 98 18 19 83 31 38 5 90 87 55 96 16 99 77 85 68 81 73 75 74 77 99 17 4 45 65 73 89 50 51 2 92 57 37 2 43 56 17 10 9 12 24 76 62 26 40 38 88 62 81 88 46 86 79 1 25 59 47 47 23 45 41 17 93 63 13 76 71 83 64 21 1667 2088 3883 2293 3239 2745 3486 2412 3433 2183 3132 1762 2456 3187 1926 2589 3290 2357 1969 3601 3481 2281 3712 3990 1724 2588 2029 2138 3432 2395 2469 3471 1732 3808 2566 3721 2449 3137 1549 3036 2845 2340 2134 2187 1924 1715 3722 2772 2499 3178 2635 1916 1791 2328 2035 2381 3066 3900 2406 2720 3105 2095 2377 3027 2207 3342 2947 2737 3224 1643 2405 3760 2650 3131 3409 2922 1787 3619 2054 1851 2414 1690 1690 1747 3430 2447 1901 1978 1852 2634 2270 3008 3265 2978 3835 3574 3224 3587 2050 2038
3808 1600 1962 2512 1948 3419 3850 2400 2404 2583 3777 1601 3710 1902 2573 2664 2628 3380 2407 3987 1650 2222 2712 3449 2067 1946 2817 1948 1565 1744 1708 2685 1928 3148 1727 3837 1830 2268 2434 3143 3298 2279 1779 3361 2620 2341 2562 3045 3608 2233 2075 3592 3138 3827 3550 2372 2492 2485 3572 3516 3196 1575 2465 2090 3407 1774 2117 2550 2396 1559 3227 2232 3048 2270 2066 2030 2910 3526 1635 2378 1676 3055 3859 1572 2806 3350 3697 2781 1893 2914 3095 3730 3726 1651 2894 3850 1734 2682 3440 2041 2262 2507 1855 3412 2772 1976 2138 3936 3881 3798 3589 2099 3667 2146 2821 3732 3195 2095 2767 2015 2769 2426 3971 3519 3743 2646 2921 2778 2185 2748 3947 2515 3082 3945 3333 1798 3867 3777 3547 3579 3198 3347 3261 3066 2636 1693 3768 3825 1578 2749 2650 2912 2397 3538 2302 2689 1820 3483 1741 3853 3171 2705 2068 3061 3265 1741 2807 2428 3496 1922 3079 2673 2259 2698 3861 3978 2018 1509 2811 3771 3166 1850 3217 3299 2290 3200 1594 3487 1557 2779 3823 3309 1876 1751 3093 2045 3599 3016 3464 3470 48 6 44 53 37 27 90 56 0 88 39 68 30 39 20 64 47 28 81 41 20 10 57 28 20 23 71 98 74 21 45 68 1 49 6 30 57 88 1 85 82 75 12 26 35 56 81 49 32 63 51 17 16 14 76 91 79 80 32 17 44 63 85 8 9 65 76 84 41 80 35 5 78 30 2 62 28 19 59 13 54 68 5 1 55 98 88 8 66 51 26 64 24 73 45 24 62 9 70 1 1626 2369 3743 1923 2784 3687 1638 2732 3633 1978 3496 2520 3032 2591 2157 2636 3847 3047 1740 3216 1595 3466 2530 3633 3727 2453 2952 2697 2610 2623 1550 1653 3216 3254 3278 2488 3117 2462 2598 3798 1576 1509 3457 1956 2682 3156 1597 1504 2017 1690 1701 3413 1538 2492 3612 3000 3235 3434 2725 3715 2766 3819 3451 2004 3452 1838 2835 3959 3104 2000 3490 1711 1992 3818 2457 2833 2159 1654 2245 3033 3310 3529 3827 3373 2472 3082 2626 2846 2072 3182 2548 1664 2412 3050 2830 3733 3205 2742 2043 3469
3927 1801 3688 2571 2970 2614 2915 2996 3090 1902 2742 2830 1558 1925 3447 3904 2906 2961 2117 2547 3181 3740 1810 2428 1536 2313 2478 3249 1895 1864 1588 3260 3500 2978 3314 2247 2159 3109 3644 2684 1619 2796 2137 2514 2952 3514 3488 3706 3645 2121 2335 3519 2347 3119 3554 3029 2332 2921 3373 2735 1820 1719 2176 1905 2517 3652 3596 1673 3792 1961 3555 2015 1870 2666 2732 2423 1581 1519 3593 1900 2943 1693 2389 2054 1708 2736 3268 2420 2146 3743 1811 2463 3681 1659 2857 3214 2472 1892 3037 1621 1555 3366 3287 3086 1705 1592 2933 2626 2761 2127 2902 2570 3167 2079 3477 3679 2144 2803 3375 2599 3640 3737 2918 3442 1654 2117 1831 3621 1950 1564 3991 3263 3363 3177 3363 1952 3684 2746 2742 1724 1951 2293 2725 3848 3991 2922 3627 2325 2117 2684 3880 1546 3016 1897 2721 3836 2887 1652 1554 2145 2708 3048 2583 3338 1909 2630 3611 1963 1662 3663 3397 3002 3147 2189 2516 2102 3135 1548 1728 2553 3003 2477 1810 1679 2786 2897 1932 3928 1549 1636 2016 3067 2175 3928 2107 3726 3494 1809 3689 3522 69 63 2 17 29 82 13 11 88 0 53 90 22 48 34 83 23 69 3 6 13 98 6 6 26 88 70 32 58 16 90 55 58 35 50 17 66 66 60 1 29 49 21 79 31 59 60 67 81 59 15 94 66 62 63 3 1 87 20 58 55 43 71 1 71 64 48 72 12 81 55 86 18 93 57 55 6 29 18 29 45 83 10 51 16 99 89 50 3 51 87 96 14 76 72 97 35 89 23 98 3873 2738 2047 2325 2737 1596 3260 2948 1617 2834 3373 3652 1763 1675 3428 3113 3825 3224 2641 2705 1514 3086 1665 2262 2563 2938 1583 3968 3311 2825 3580 3594 2627 1940 1798 2595 1734 2871 2389 2005 1521 2831 2674 3156 1512 1529 3260 3460 3862 2783 2746 1940 2647 1612 2049 3170 3996 1628 3321 2241 3492 2745 3361 2825 3364 1707 3619 2029 1537 3536 3990 2541 1747 1897 3700 2066 3278 2989 3627 3412 2556 2925 3388 2087 1794 3261 2834 2740 1530 3935 1589 2838 2479 2695 2393 3470 3035 3198 3534 2118
2165 3278 2606 3678 2688 1543 1700 3892 2810 1831 3136 2133 3562 2930 3660 2459 2334 2477 1501 2144 3687 2429 3129 3011 2792 2197 1544 1627 2015 2976 3363 2520 1969 3052 2484 2066 2102 3805 1844 3649 3172 3724 3441 3645 1836 3214 1688 3330 3698 1918 3812 3609 3401 2298 3755 3293 1620 2873 2848 2205 3152 1978 2398 2629 3712 1741 1792 2754 1599 1864 3124 3229 2709 1915 2988 3918 1798 2818 2501 3140 3309 2536 2102 1613 2087 1863 2351 3902 2724 1677 2855 2164 3234 3630 2925 2033 2984 3052 2097 2615 1793 2224 2438 2921 1523 1741 2369 3254 2728 3190 3522 2349 3471 1953 3759 3210 2466 2436 2040 3442 2002 3087 2018 2966 2865 3457 2612 2826 3048 2809 3830 2325 3137 1589 3893 1885 2444 3583 1873 3157 3030 1849 3280 3764 3312 3720 3854 2172 3177 3921 1995 2958 3358 2903 1888 3279 1553 2152 2385 1533 3660 2530 3141 3411 1532 3023 3613 3505 1570 3595 2463 3312 3002 2343 2984 2736 3241 3633 2161 2861 2099 3357 2750 3345 1636 2160 3921 2757 1649 3527 2260 2707 2048 2276 3017 3786 2908 1881 1829 2986 7 12 80 74 28 56 35 63 39 53 0 9 27 32 10 27 4 21 23 74 4 86 84 39 2 7 29 38 80 88 60 78 32 9 67 75 55 53 49 85 52 85 38 16 92 71 46 62 57 73 79 5 25 97 69 61 95 93 86 23 53 10 6 88 34 6 84 2 73 74 59 42 93 93 93 47 21 41 77 24 25 4 56 30 45 24 97 96 73 98 13 59 95 36 7 44 58 19 4 48 1809 3890 3855 2307 2343 3673 3702 2018 3292 3757 3928 1999 1818 3198 2670 3641 2945 2414 1665 1547 3820 1960 2256 2814 1617 1594 2534 3274 3931 1570 2572 2139 2455 2359 2839 3641 3374 3720 2580 2296 1926 2668 1521 2603 2648 2522 1974 2289 2441 3014 2521 3998 2573 2516 2179 3086 1741 3962 1769 2090 2034 3851 3690 1642 2352 2420 1901 2203 3395 1914 1709 2652 3016 3530 1502 2708 2609 1814 3766 3489 3496 1869 3224 3376 3887 3921 1567 3059 3495 2256 2620 2150 3124 2510 3490 3491 1617 3304 1766 3885
2566 3098 3854 3592 1622 1854 1567 1745 2013 2242 2401 2391 1610 2007 2385 3737 2555 3126 1885 3533 3428 2521 3990 2174 3512 2291 1819 3797 2323 2942 2598 1518 3430 3684 3491 3795 1833 3590 3670 3521 3562 2917 1992 1647 2011 3451 2534 1838 2374 2152 3798 2985 1670 2248 2551 2253 2841 3361 3898 2398 1717 2744 3531 3384 2844 1577 2906 3404 1723 2100 3812 2092 1675 3751 2574 2895 3650 3984 1615 3545 2163 2393 1947 3418 3904 1838 1663 3638 3394 2212 2910 2504 2026 3535 2539 2853 3271 2913 3118 3007 3356 3652 1950 3303 2309 1804 2561 2342 2866 1792 3584 3824 2853 2324 3919 1855 3156 3302 2065 2870 3337 1837 3938 3444 2482 2001 3536 2304 3697 1936 2988 3187 1826 3770 1551 3546 2934 3460 1501 2031 2734 3692 3422 3447 1514 2886 2662 2281 2862 2091 1875 3633 3365 1646 3325 2060 2991 2353 2120 2122 2287 2700 3886 3165 3329 3420 3728 3038 2314 1529 3238 2361 2017 3752 1782 1979 3767 1745 1894 3668 2407 3670 2459 2860 3051 2045 3898 3723 1578 1741 3357 2197 3074 3097 1792 3485 2133 2565 3032 2498 51 19 32 37 55 73 58 31 68 90 9 0 21 29 83 14 21 52 25 97 60 72 67 24 46 59 8 44 54 35 45 89 41 76 60 7 76 48 39 64 99 37 83 26 65 62 86 51 93 76 82 60 30 26 25 75 66 25 64 42 38 58 63 57 76 15 49 53 85 48 27 60 76 4 36 73 99 91 1 96 15 5 45 7 59 60 25 36 77 17 93 61 3 55 98 28 74 44 89 75 3924 3833 3333 3803 3015 3726 1751 2654 1762 1839 1523 2822 1679 3249 1883 2046 3452 3912 3143 2812 2193 2515 3970 3961 3040 2161 2067 3728 3686 2343 1689 3077 1601 2129 2642 3815 1692 2761 3095 3229 2574 2958 3510 2557 2400 2533 1803 3412 3478 1549 3861 3103 3385 2055 2996 3171 1805 3328 2083 2014 3222 3131 3859 2335 2295 2042 1659 3408 3770 3044 2009 3343 1828 1568 1793 2780 3290 2813 3393 1984 1534 2298 3110 2266 2068 2087 3432 3420 1521 3197 3483 1640 2424 2646 1541 3467 1802 3146 3797 2672
2847 2922 1729 1815 2956 1824 2195 3935 1573 3979 3865 3663 3417 2359 3814 1997 3011 3670 1848 3772 2054 2722 3647 3212 1652 3208 1923 3357 2180 2227 3271 2274 3696 3668 2013 2101 1560 3539 2912 1597 2037 2158 2533 3627 3707 2681 2717 2889 2103 3962 3282 3802 1763 2283 3746 2270 2619 3843 3117 2906 3679 2404 3269 1940 3843 2726 3751 3050 3308 2570 3775 2784 2347 3562 1984 2702 2327 3414 3877 3735 2975 2041 2254 3661 3994 3833 2672 3959 1600 2700 2390 2917 2141 3517 3059 1770 3135 3376 1680 3033 3428 3732 2313 2414 3439 3341 3382 3919 2805 2587 2604 1549 2791 2979 3203 2244 3810 2669 3987 3915 1934 1500 3411 3793 2937 2154 2893 3132 3615 2109 2908 1581 2488 2713 2742 3803 2628 3618 2190 2243 3142 2047 1924 2998 3247 2214 1564 1771 3157 1703 2611 1894 2043 1828 1705 3963 3669 3685 1535 2424 2562 1744 1943 2243 3842 2614 1853 1839 3284 2392 3319 2774 3949 3491 3218 2530 1641 3793 3566 1981 3653 3182 2928 3368 2777 2792 2776 3290 2785 3849 3503 2042 2191 3356 3518 3203 2392 2243 1664 3069 45 13 59 75 58 20 34 78 30 22 27 21 0 45 91 76 69 94 45 26 87 77 30 67 58 43 36 1 88 99 2 33 51 60 54 50 94 23 19 85 36 73 87 48 46 40 68 84 19 82 55 68 49 98 89 78 90 94 18 82 96 36 87 61 6 89 1 42 49 84 4 43 35 2 14 30 98 70 56 74 1 55 73 86 50 10 45 3 88 66 52 37 86 99 42 5 18 45 68 9 3185 3719 3210 1603 2507 2751 3328 1576 2427 2975 3199 3193 1611 1590 1960 2811 3704 2411 2469 2156 3588 2205 2685 3608 2094 1680 3260 2547 1975 2876 3449 3442 2989 3004 2531 1997 2539 3248 1700 3380 1936 1540 2964 2633 2062 3456 3389 2043 3543 1704 3413 3963 1642 1620 2836 1798 2130 3459 1792 2668 2122 3163 3833 2135 3982 3340 2384 3089 2838 2036 3473 1993 2871 3007 2803 3591 1678 2146 1829 3576 2277 2013 1715 1831 2904 3353 3780 2449 3017 1697 1900 1828 3725 3721 3578 3662 2810 1882 1773 2495
3142 1792 2154 1536 3231 3516 2100 2878 3228 2932 3722 1908 3543 2122 3005 1594 3644 2114 2328 3917 2778 3556 3847 2479 2433 2642 1993 1604 1752 2600 2717 3109 2876 3142 2185 3779 1973 2948 3047 1979 2293 3526 3819 3013 3328 2586 2865 3403 1766 3594 2836 3436 2514 2651 3698 3512 1938 1866 2191 1708 3450 1846 2617 1610 1630 3628 2034 3420 1963 3050 3423 1516 2166 1610 3358 3896 2089 1504 2356 2336 3612 2294 3268 1998 1512 3840 2111 2818 3860 3284 3248 2205 2912 2510 1786 2170 1858 3929 2612 3446 3251 2937 3247 3841 2671 3371 1966 2652 1853 2101 1856 1778 2916 1933 2538 2850 3980 3350 1694 3536 3902 3568 3095 3608 3502 2732 3515 3468 2802 3938 3890 2330 1864 2367 1561 2617 2025 2764 2299 2674 2092 1507 2246 3739 2202 1788 3674 1901 3718 2334 3878 3429 3503 3696 2418 3349 2402 1856 1789 2524 3124 3392 3460 3587 1873 1545 2283 1582 3823 2767 2135 2132 2525 3903 3045 2079 1616 3439 3841 3283 2405 2419 2597 2135 3398 1838 3346 2786 3369 3889 2201 3126 1897 3649 2172 3646 2286 3965 2544 3842 28 96 65 7 69 3 8 48 39 48 32 29 45 0 61 35 4 81 48 29 68 17 4 43 82 27 78 63 92 5 68 66 88 95 77 1 68 61 38 53 68 86 28 81 33 76 56 18 88 54 30 66 44 23 76 14 27 28 1 31 68 8 18 93 46 4 72 13 92 74 85 32 68 6 56 44 4 69 15 90 86 51 67 51 70 59 18 22 96 50 78 4 39 15 18 94 10 59 65 6 2308 2246 1850 3458 1625 3283 3220 2757 2311 2573 2792 3853 1992 2970 2045 3170 3470 3665 2972 1710 2098 3089 2150 2707 3529 3055 2157 3939 3158 3343 1511 2572 2341 1696 3421 3213 2983 3493 1534 3964 3149 2544 2416 3602 2158 3918 3263 3220 2233 3654 1930 3019 2210 2577 3083 1821 3367 2434 3747 3768 3726 2199 1710 2549 2283 3662 3678 3393 3461 2093 1568 1763 2117 2437 2583 1617 2124 2510 3878 3652 2413 2002 2916 3732 3952 3501 3451 1504 1522 3440 1966 3524 3594 3877 2697 1770 3929 3128 3046 3430
2606 3564 2868 3667 3424 2148 3491 2791 3872 2874 2788 2120 2408 3396 3291 2244 2542 3503 1541 1964 3304 3030 1857 1589 3071 2718 2346 2338 2764 1584 3737 2884 3345 3797 1885 3709 2295 3220 3895 2641 3169 3987 3914 1652 3450 3554 1540 2790 3592 2703 3036 2327 3326 3135 1993 2677 2040 2268 1684 1774 3440 3820 3561 1782 2382 2873 3846 3998 2597 3516 3812 3471 2969 3101 2020 3911 2636 3866 3932 3775 2617 1688 3751 3672 1562 3988 1988 3484 1602 2016 3585 3516 1978 1977 3721 3469 1620 2049 3233 2773 2012 1858 3607 2292 3254 3159 1820 2499 3388 2583 2335 3043 3318 2699 3776 2627 2316 3369 3457 2946 3764 1677 1786 1795 3159 3645 2956 2366 2319 3687 1891 3993 3759 1740 3373 1804 2055 2172 2973 1633 2771 2187 3508 1585 1975 3282 2220 3163 2482 2438 3088 2057 2492 1948 3576 1912 2667 1936 2352 3578 2048 3159 2010 3537 3120 3965 3565 2804 1593 3327 3354 2849 2546 3510 3538 1764 3466 2649 3699 3449 2319 3071 1649 1883 3565 1911 3275 2437 3071 3291 3339 3571 3882 2458 2959 2894 2854 2763 3971 3202 32 64 76 21 85 20 92 19 20 34 10 83 91 61 0 25 58 49 3 77 96 32 10 79 20 85 43 52 13 67 4 90 16 21 30 5 35 99 90 4 42 32 49 78 45 88 73 79 2 49 98 73 24 12 80 50 39 94 98 63 42 25 46 55 58 82 27 96 33 72 76 61 16 7 85 6 26 53 88 17 62 22 93 95 43 18 22 94 36 56 12 62 11 15 23 67 12 1 84 50 1559 2237 2055 1778 2365 3919 2935 2395 1795 2431 2092 3733 3167 2695 2535 2369 2949 2493 2703 3172 2403 3078 3245 1901 3256 1593 3302 2694 3941 1730 2921 3469 3534 3959 2681 3371 2180 2154 3883 2433 3778 1934 1764 2423 2749 3385 3390 1719 3055 1648 3772 2288 1953 3809 2719 2902 2142 3695 2761 3186 2405 1533 3140 1855 1916 2881 1630 2239 1848 3682 3465 2765 3969 2932 1822 1822 2250 3405 1978 1632 2220 3668 3276 2544 3083 2548 3585 2457 2010 2591 2750 3852 2391 3922 3538 2407 1547 2164 3100 2281
1871 3490 1530 3295 2082 3011 3936 3046 3397 1894 3680 3569 3409 2599 3484 2654 2146 2854 2240 3565 2129 1568 3705 3526 2803 2881 3050 3056 3197 1756 2289 3681 3555 3433 2615 2981 2080 2472 3497 3460 1968 2717 2548 2930 2916 3646 2922 3646 3662 2633 3554 3619 2160 2313 2646 2831 1718 2864 3980 3105 2001 2089 3117 2816 2753 1960 2219 3684 3498 3536 1827 2655 2364 3417 3984 3806 2325 2530 1558 3204 1539 3135 1514 1820 3653 3437 3838 1927 2726 1957 2969 2626 3655 3712 1829 3324 3338 3744 3522 1678 2837 2926 2139 3636 3364 2609 3705 3553 3889 3262 3047 2772 1659 2477 2902 1973 2931 3334 3903 3254 3498 1574 1873 2779 2968 2252 3959 3772 3146 2811 1738 2711 2465 3433 2285 1999 2107 3362 1903 1830 2745 1563 2940 2294 3542 2615 3279 2880 2436 2807 3145 2261 1779 3922 2739 2428 1577 2187 2972 2697 2802 3534 2098 3566 1619 3827 3159 2599 3982 3795 3699 3294 1689 2906 1916 1690 2287 3685 2442 2022 1995 3082 2347 2434 2218 1582 1889 3833 3503 1992 2339 3506 3726 3833 2086 3333 1579 3628 3474 2116 82 35 10 49 53 72 64 94 64 83 27 14 76 35 25 0 87 92 39 36 77 86 49 73 21 54 14 67 57 1 3 66 34 35 3 67 6 67 91 95 54 95 75 79 78 86 35 23 10 98 25 9 54 77 95 69 22 48 82 40 55 84 78 47 40 19 54 7 93 47 87 66 2 2 31 13 69 25 15 33 82 25 81 57 84 28 68 94 29 23 51 80 48 54 67 79 98 23 5 91 3799 2313 1556 3501 3952 2245 3758 1719 1721 3759 1783 1880 2291 1838 2758 3625 2439 3119 3728 3963 3690 1512 2071 2429 3528 2587 1943 2958 2777 2890 3144 3714 2733 3038 1549 2856 1918 2312 3723 3774 1904 3387 3555 3600 3452 3694 3806 3543 2521 3366 2909 2075 1964 2293 2173 3773 2620 3680 2703 2827 3640 3591 1938 3490 1940 3311 2174 3841 2860 2869 2888 2990 2221 2052 3357 1656 2422 3700 3575 2248 3029 1514 1982 2588 3947 2782 3671 2699 2825 2618 1864 2345 1879 3704 2631 3072 2028 2573 3036 3387
3827 2830 2477 3805 3852 3675 2675 2940 2027 1747 1610 3241 3469 2733 1501 2931 3551 1997 1696 3440 1585 1678 3652 2407 3181 2176 3795 1829 3321 1572 2307 1646 3196 3088 2518 1891 3039 3061 2728 3764 1547 3831 1509 1647 2831 2998 3907 2137 3938 2886 2771 3260 2550 3663 2093 2958 2020 2524 3988 3952 1536 3728 2906 2390 3657 2332 2115 2262 3251 3195 3962 2763 3811 2147 1830 2822 3628 3096 3827 1729 3727 2483 1640 1773 2161 3359 2867 1540 2579 2776 3602 3392 3085 3411 2224 3470 2594 2431 2466 1712 1601 2907 1597 1668 2902 2893 3778 3505 2270 3510 3396 1583 3333 1865 3270 3405 3585 3277 2581 3828 2545 3398 3452 1779 2034 3706 2395 1875 1662 2216 2740 3736 1866 2845 3498 1765 1957 2991 1974 3935 2507 3390 3553 3033 2877 3669 2090 3856 2307 1883 1796 2330 3419 3901 3748 3964 2744 1785 3455 2065 3918 2313 1869 2809 3798 3827 1882 1773 2564 2672 2087 2211 3165 2448 2364 2045 3408 3501 1817 1510 1951 3725 3528 2238 3610 3911 3142 2603 2375 2488 3943 3035 3480 3786 2996 3197 2902 2754 3504 2849 8 40 71 71 7 42 91 12 47 23 4 21 69 4 58 87 0 94 76 79 43 9 25 71 93 18 6 76 76 96 3 15 41 91 63 13 28 90 47 55 18 37 1 32 64 66 9 96 73 45 9 68 45 80 68 26 29 18 38 24 1 27 97 59 15 78 69 40 8 44 24 37 59 98 43 11 16 20 5 18 87 86 79 42 3 24 92 35 95 6 16 96 58 11 8 54 28 23 65 95 2163 2416 2762 1585 3763 3652 1621 2680 3187 2832 1592 2350 1831 2295 3719 3623 3598 3083 3227 3936 2961 1698 3401 2988 3098 3325 1780 2057 1552 2581 3607 2993 2293 3790 1943 2975 2002 1839 2381 2138 2854 2346 3829 2158 2475 1683 3024 3440 1943 3803 2877 2390 2221 3793 3904 3376 2621 3172 3649 2154 2122 1774 1711 3105 1858 2171 1507 1741 2230 1850 2321 3293 3472 2807 3388 2268 3412 2731 2814 3752 3510 2504 2595 3850 3174 1741 1547 3655 2100 1905 2511 1609 3302 2827 3983 2297 2869 2085 3936 2404
3230 2135 2707 2496 3561 2554 1702 3528 1507 1562 2456 3266 2059 1898 3825 1977 1631 2455 3456 2911 3000 2057 2726 1693 3633 1961 3666 3870 3851 2622 3966 3757 3581 3898 2913 2443 2417 1962 1797 1936 2317 1856 2891 3025 3689 2851 1738 2591 2600 3197 3705 1939 1968 2624 3232 2909 3829 2538 1879 2689 3843 2161 3445 1794 3904 2722 2615 3629 2903 3036 2704 2845 3529 2038 3747 2408 2394 2497 3828 1829 3775 3689 3009 2842 2003 1960 2565 2162 2390 2248 1827 2099 3108 3515 2388 2941 2756 1509 2625 2017 3809 1577 2757 2871 2232 3099 2603 3694 3485 2284 2051 2666 3144 2232 3522 3383 1665 1539 2964 3161 1620 3979 3554 1660 2282 2789 2495 1537 3518 2530 1696 2372 2444 2433 2166 3323 1581 3233 1844 3400 1858 2217 2572 3552 1786 3647 2116 2634 3298 2063 2822 1794 3205 3479 2835 3577 1709 1757 1732 2008 2466 3808 3877 1813 2885 3301 3233 2086 3059 3958 2778 2776 3872 3352 3145 3974 3433 3368 1626 2670 3853 2810 1996 3135 2191 3069 1925 3977 3633 3756 2664 2752 2474 1852 1973 3949 3639 1674 3853 2381 85 13 92 35 62 17 75 65 28 69 21 52 94 81 49 92 94 0 7 58 63 50 9 69 92 52 97 29 40 54 61 66 25 10 20 33 42 24 71 45 92 88 22 96 47 48 29 55 94 3 81 28 70 90 69 96 62 63 34 48 38 62 87 3 19 74 45 37 46 64 81 7 66 44 7 82 19 33 1 1 25 96 40 85 23 65 48 73 25 8 10 13 9 43 25 72 18 97 33 70 3243 3313 3255 2649 2174 3254 3717 2838 2766 2950 3846 3898 1775 1884 2362 3000 2090 1781 2401 2025 2329 3263 2739 3806 2836 2729 2111 3550 3127 3471 3417 1500 3741 3882 2189 1558 2248 2474 1804 2712 2256 2636 2326 1605 3200 2264 3275 3954 1995 1991 3003 2310 3975 3368 3888 2648 1566 3416 3128 2882 1998 2948 2149 3385 2470 3216 3707 2235 2413 3662 1721 3907 1809 1890 2584 2584 3358 2044 2443 2700 2594 3598 1673 1521 3155 2620 1736 3009 1758 3777 2689 3041 1609 3361 2198 1933 2218 2569 3518 3212
1601 3533 2094 2039 2876 2306 3350 3948 1710 3628 2453 2915 3034 3559 3933 1856 3670 1525 3781 2674 1556 2083 2571 2412 3722 2785 2552 2538 3860 2443 3205 2918 3866 3769 2772 1718 2368 3245 1650 3378 3852 2280 2800 3965 3292 2281 3212 1587 1977 1930 2076 1825 2340 3516 3617 2618 3405 3142 2786 3826 2769 1712 2227 2147 2326 3175 3891 3340 2146 2652 3878 2867 1822 3229 3806 2101 2461 3830 2944 2545 1969 3024 1981 3781 3589 1531 3077 3413 3689 3155 3618 2041 2461 1835 3098 3517 1898 1506 2917 2809 2349 3566 1551 1884 2673 2710 2662 2879 3073 3752 3576 1542 3611 3449 3888 1775 2547 3370 2727 3724 2098 1799 3584 1690 2094 1767 3523 2252 3344 3406 2916 2130 3647 3029 2218 3039 2761 2387 2615 2248 3104 2748 3154 2402 3542 2240 3846 3952 3559 2816 3663 1969 2960 3497 1786 1905 1975 2173 3979 3147 3067 2512 1529 2282 2106 2215 1834 1895 3685 3608 2179 2940 3211 2459 3054 1689 2337 2137 2811 3316 2812 3620 3794 3756 3953 2138 1907 3191 3716 3618 3113 2963 2542 1556 3974 3289 3372 2753 2079 3436 25 10 15 55 88 62 13 28 81 3 23 25 45 48 3 39 76 7 0 82 32 62 44 85 2 70 89 84 47 99 98 9 7 18 14 64 58 13 4 60 4 79 93 34 80 96 66 59 57 3 16 53 34 88 9 40 14 29 2 61 65 56 77 77 23 45 10 83 87 68 26 14 28 14 27 63 28 29 28 70 11 9 63 37 46 3 62 20 57 48 15 74 24 96 12 85 62 75 16 12 2609 2579 3832 3175 3907 2781 1950 2129 3393 2188 3958 2530 2877 2933 1707 2343 3767 2564 2956 1990 2672 3264 1915 3349 1923 1977 3016 2066 2314 3396 3416 3712 3022 3651 3444 2794 2519 3419 2299 3693 1619 2864 1849 3119 1517 3849 1952 2701 2973 2327 3718 2634 2763 1536 3514 1845 2789 3697 2691 3887 3738 2623 2668 3129 2519 2445 3912 2862 2008 2592 3779 3412 3240 2062 2501 3806 3954 3193 2705 3202 2447 2950 2502 3983 2052 1575 1502 2051 2413 2074 2613 3254 3031 3294 2527 2055 3730 3648 2096 3817
3535 2804 1956 2747 2545 2095 1854 2953 3390 3591 1736 2151 3624 3711 3247 2258 2681 3243 2529 3797 3777 3719 3711 3382 1786 2330 2386 3054 1527 3997 3150 1762 3165 2788 3690 3209 1802 2330 2300 1534 2478 1723 1983 3103 2192 3515 2998 2670 2907 1861 2002 2921 3426 3786 3962 3912 3785 2080 3189 3234 3625 2510 1925 2304 2806 2747 3160 1739 2125 2872 2517 2203 3533 2174 2149 2475 2641 3074 3693 1657 1697 3747 3974 3568 2649 3723 2875 2456 1587 3740 1564 2902 2849 2492 3253 3710 2411 2558 3862 3523 2452 2305 2696 1674 2667 2558 3429 2545 3426 3510 3206 3359 2605 3997 2383 3799 2114 2449 3324 2098 3984 1718 1967 3404 2076 3825 2322 3484 2718 3744 2916 2469 1729 2571 3840 1621 1543 1644 3242 2567 2832 2663 2323 1958 2949 2562 3254 1833 3881 3588 3540 3698 1688 3966 2587 1964 3955 3169 1615 2281 2442 2038 1980 3872 3505 2340 3461 2697 2887 2086 3861 2505 3084 3202 2674 1922 2731 3723 3091 2408 3388 1939 2829 1939 1782 1912 3531 3016 3181 3200 2791 2377 2482 1733 2893 2100 2813 3987 2115 2640 70 82 80 22 26 81 91 19 41 6 74 97 26 29 77 36 79 58 82 0 90 73 87 45 70 42 38 25 3 94 33 29 60 95 19 12 86 66 39 59 49 78 63 82 31 37 12 94 84 33 28 5 90 99 78 7 44 20 36 90 42 91 22 88 99 86 95 43 28 58 85 33 85 58 80 40 93 52 11 28 23 12 26 67 65 8 1 36 10 57 71 86 56 36 93 68 85 45 72 57 2613 1735 2336 2790 2590 3245 2654 1885 2166 2451 2004 2692 1553 3074 2695 2504 2561 2829 3127 2304 2789 3280 2538 3082 3281 3056 2130 1919 2498 2008 3924 1657 2411 3449 1613 3961 1620 3695 1814 3659 3571 2940 3579 3593 2468 2780 3096 1929 2588 3071 2935 1518 2105 2755 1892 2852 2181 3848 1518 2727 3362 1966 2340 1747 1899 3205 1688 2469 3860 3371 2411 3180 3103 3037 2706 3019 3081 2324 2947 1733 3481 2003 3523 2072 1616 2998 2181 2324 2260 1971 3492 2685 3281 1996 2576 1545 3860 3197 2256 1514
3330 3992 3816 1927 3804 2708 3491 1530 3015 2575 3472 3868 3882 2379 2685 2894 2344 3971 2671 2369 2354 1829 2440 3472 3259 1874 2310 2726 2797 3588 3165 3643 3369 2703 2633 1540 3157 2306 2030 1978 3727 2409 2384 3804 1842 2473 3398 3389 3673 2426 2859 3435 3286 1652 2376 3998 2105 2947 3079 3574 1656 1695 3561 2679 2331 2828 2337 3594 3661 3466 2804 3936 3610 3608 3948 2641 3350 1929 2522 2759 2391 2011 2276 3115 2350 3802 1976 1692 3463 1953 3957 1889 2146 1564 1518 3399 3141 3090 2140 2236 3160 2224 2343 3954 3946 1747 2441 1587 2760 3952 3735 1557 1940 2543 1754 2039 1509 2916 3469 1961 2465 3017 2614 3933 2188 2269 3944 3255 3154 2288 3112 3057 2208 1870 2736 3747 1807 3836 2930 3155 3096 3138 2181 3725 1821 3314 2406 2160 1678 2573 3074 2658 2474 3639 2471 2462 1948 3883 1891 2996 3604 3227 2191 1556 3363 3855 3292 2207 2436 3877 1549 1921 2623 3732 2302 2571 2718 3168 2476 3536 2826 2020 2364 3073 1889 2857 1577 2244 1840 2156 3608 1802 1677 3613 2856 1725 2917 3396 1605 2356 37 95 89 96 40 86 10 27 20 13 4 60 87 68 96 77 43 63 32 90 0 28 99 19 62 85 23 45 90 97 25 51 53 10 9 9 79 85 66 42 99 99 69 17 55 1 95 38 42 75 18 68 3 57 58 38 61 94 63 72 8 86 98 87 8 1 57 88 10 50 10 3 84 51 39 17 4 2 44 12 17 82 88 25 60 1 76 38 11 48 43 88 47 67 31 49 71 82 71 64 2794 3938 3412 2868 2150 1791 2844 3679 3097 3579 2235 2053 2659 3786 3240 3899 3524 1891 2665 3441 3136 1530 2632 2032 2467 2067 2689 2361 2262 3462 2208 2509 2636 2056 2760 2677 2209 2038 2842 3279 2165 1821 2434 2480 1806 3766 2588 1747 2658 3732 3729 2473 3343 3608 1662 3939 3555 3458 2872 3396 2651 2895 3586 3711 1963 2363 3607 1768 2087 2731 3214 1534 1776 3149 1764 3622 2040 3150 1885 2077 3148 2169 2215 2329 3104 3403 3764 3715 2990 1822 2283 1523 3898 3539 1843 2121 3156 1586 3379 2525
1958 2201 3929 1997 2624 3520 2932 2003 2795 3254 2357 2819 1864 2509 2845 1968 1539 1935 3394 1775 3288 1594 2618 3740 3176 1966 3636 2086 3825 2384 3701 2110 1879 1621 2073 1573 2970 3605 3537 2820 2753 3710 3550 3243 2832 1503 3082 3511 1620 3824 1862 3844 2939 2887 2372 2284 2389 2018 2039 2213 2387 3437 3230 1944 2564 3019 2691 2828 2665 1617 3338 3202 2527 1503 3955 2964 1779 3347 2985 3117 3692 1554 2212 3348 3846 1784 1746 1700 2289 3529 3485 2760 3879 2377 1740 2395 3890 2686 1909 3430 3833 2716 3578 1932 3436 2798 3816 1898 2384 3903 3924 3269 2796 1790 3528 3847 3385 3836 1598 2849 3514 2784 2759 1514 2021 2902 3812 2823 2550 2842 1942 3429 3084 3433 3668 2999 2091 2521 1972 3052 2034 2596 3114 1782 2725 2078 1999 3712 2114 1968 2089 1550 2579 2950 2200 1560 2259 2177 3647 3670 3930 1693 2753 1594 1843 2445 1939 3173 2372 1897 1689 2689 3880 3417 1752 2462 3160 3575 3425 3634 2395 3599 3597 2192 3503 3743 1807 1891 2911 3149 3464 3018 3527 1508 3441 3026 3585 3089 1567 1506 85 77 3 43 32 28 51 92 10 98 86 72 77 17 32 86 9 50 62 73 28 0 89 58 4 48 67 31 95 13 35 85 62 59 37 1 74 31 80 32 44 78 7 64 43 21 95 55 33 85 49 14 81 48 88 73 54 64 59 34 75 88 12 87 84 43 85 1 3 19 65 69 23 84 36 19 65 6 2 47 86 86 12 69 58 38 49 83 9 22 29 88 80 87 73 30 41 38 81 97 2707 1658 3414 1935 2419 3203 3288 3040 2628 2681 1542 3934 1747 2251 3435 1520 3956 2727 2493 2510 3379 3974 3388 2389 3182 2328 2002 3835 2178 3925 3454 3409 3808 2685 3931 3015 2287 3109 3085 2883 2320 3309 3116 3186 1873 3654 2642 2216 2026 3321 2543 3303 2732 1826 3848 2592 3583 3017 2902 2055 3893 3689 3210 2715 2936 1526 2570 3989 1520 1576 2423 3999 1761 2862 2050 2494 2708 3016 2058 1915 1652 2546 2930 1805 3437 2717 2110 3322 1829 2720 1983 3088 2105 3507 1649 1976 2533 1851 3040 1516
3035 2376 2750 3282 2341 1767 2389 3127 3177 3087 1559 1736 1858 2512 2895 3172 3229 3977 2724 2068 2865 3693 1970 2851 3587 2297 1662 2226 2380 1566 1627 2353 1952 1750 3739 1564 2546 2121 1794 2411 1820 3489 1818 3590 2928 2094 2795 3167 2972 2322 3290 2144 1935 1905 2343 2616 1953 3916 1525 3530 2899 2162 1654 2739 3788 3489 2824 2666 2501 2795 2173 2939 2709 2012 1620 2841 3412 3446 3192 2282 3484 3192 3444 3470 2914 3826 2511 3041 3615 2387 3886 3912 2761 3096 3651 1838 1989 1555 2477 2316 2886 2888 2660 3203 3846 1737 3194 1725 2889 1532 2142 2716 3888 3671 3404 3627 3547 3881 3952 1712 2839 3011 3858 3261 1561 3678 3332 1820 1712 3960 1774 1932 3009 3969 1620 3559 2366 2660 2450 1885 2607 3332 1917 3149 2070 1608 1975 2447 1870 2283 3038 3070 3828 2771 1676 3475 3808 3115 2142 3032 3764 1528 3128 1684 2470 2272 3274 1875 2160 1636 2608 3934 1613 3108 3792 2003 3877 2751 2280 3428 2983 3690 3507 2696 1958 3608 3969 1677 3293 2449 2772 3543 3242 2946 3255 3578 3235 2660 2519 3296 23 58 67 95 1 14 48 11 57 6 84 67 30 4 10 49 25 9 44 87 99 89 0 53 25 86 88 40 47 91 90 56 57 10 4 63 64 23 12 23 8 94 41 18 22 18 36 86 77 97 13 11 61 2 15 55 76 19 47 74 63 96 71 88 71 67 60 87 43 56 84 10 15 48 76 69 29 91 3 65 80 18 18 91 34 4 56 13 57 86 23 47 20 63 44 54 45 40 62 17 3802 1605 1526 1972 3674 2896 3234 1692 2733 2398 3574 2778 1907 3659 3443 1719 3414 3609 1895 2343 3088 3703 3561 3035 1541 3169 2912 3520 3134 2851 1873 3537 3828 3775 2385 1724 2864 1741 2222 2450 3126 2099 1668 3291 3056 1888 2566 1868 3913 1905 3325 2951 1755 2600 1700 3840 2965 2374 1853 3417 2358 2143 2389 1809 2655 2744 1958 2648 2447 1631 1844 1668 2310 3632 1626 2127 3686 3124 1943 3908 3370 3098 1893 2362 3212 1796 3883 2362 2371 2636 3825 2394 1763 3860 1633 3366 2006 3075 3259 3543
2754 3509 3744 3823 2738 3519 3434 3924 2777 2600 1966 1531 2744 1504 3539 3460 3659 2985 3288 2948 3239 3467 1857 2318 2488 3816 2450 2522 3093 1966 1810 1931 2664 2065 1611 3278 1717 3274 2553 2530 3893 2647 2992 3976 2284 3111 1963 1549 1897 3602 3324 3164 2978 3518 2444 1985 2411 1923 3343 3520 1827 3093 3153 2862 3670 2385 3745 2929 2854 3752 1503 1691 3822 3277 1728 3835 3675 2342 1948 3955 3855 3667 2149 1898 3228 3663 2479 1646 3938 1624 2772 2198 2891 2521 2559 2413 2332 3662 3087 1531 1893 1884 3713 3809 3004 2278 3097 2034 2655 3387 3228 3323 2290 3502 2509 2326 2569 1668 2116 3084 2290 2973 2624 1671 1668 1975 1512 3226 3480 2844 2603 2439 3873 2751 3258 1716 2773 3850 1821 2668 3544 3565 1744 3595 3738 1726 3333 1930 3963 1767 1708 2210 1628 3803 2732 2849 2451 3850 3404 3621 3109 1744 2266 3698 1846 1608 3074 2339 1879 2998 3254 2137 3333 1849 1876 2839 1692 2958 2417 3200 2987 2909 1580 2367 2597 2583 3432 2208 2392 2019 3576 1577 2337 3595 2791 2077 2183 2317 3996 2505 30 41 53 72 39 9 94 14 28 6 39 24 67 43 79 73 71 69 85 45 19 58 53 0 5 45 71 43 18 36 26 63 66 7 95 59 3 6 53 97 51 18 9 75 74 23 84 12 31 21 91 50 69 6 44 52 96 65 18 74 56 88 27 98 75 75 68 12 62 76 31 86 88 55 51 93 69 5 61 67 84 57 26 80 80 20 91 98 26 56 2 36 46 54 80 18 83 33 37 19 1531 1677 3251 1890 2820 3880 1571 2270 3856 2084 3607 1563 3120 2523 2666 3045 2783 3736 1884 2843 2928 1555 2786 1562 2388 3474 2004 2882 3348 3849 2080 1582 3558 3891 3316 3151 2347 2901 1979 2301 2613 2090 1783 3305 2452 2125 3234 1597 3133 3511 1526 2153 3904 1877 3103 3779 3200 3875 3938 2678 1522 3568 3617 1809 2102 3706 1719 3341 2662 2680 2654 1626 3569 2096 1645 2685 2209 3720 1607 2994 2791 3050 1988 3088 2130 2856 3157 3768 3438 2507 2245 2078 1921 2600 1584 2477 3742 2654 2487 2983
1570 1927 2715 2204 3410 2916 1642 1880 2302 1893 3571 2052 3489 2182 1733 2372 2576 2110 3657 1514 3550 2664 3524 1727 2307 3533 2364 2421 2329 3946 3737 3717 3964 1542 3601 2040 1784 2848 1717 3242 3780 1719 3111 3175 1722 3664 2722 3060 2609 1653 3976 2574 1901 3219 3183 2048 2620 2009 3949 2440 2963 3171 3147 2416 1906 1506 2676 3353 3763 1794 2878 2879 1586 2271 2157 3556 3105 2430 2422 2427 2336 3989 3482 2298 1750 1802 2227 3660 2582 3949 2697 2053 2300 1501 2657 3087 1809 1904 2988 3797 1862 3623 3038 3928 3533 1534 3941 3895 1928 1880 3497 3049 3851 2376 2102 3789 3461 2717 2120 1947 3115 2931 2008 2479 2785 2187 3340 3846 3046 3886 3727 3120 2630 3413 3838 1873 3924 2343 3724 2582 1587 3656 3323 2769 3084 2734 1892 2676 2282 3600 3665 3717 1682 2319 3347 3777 1932 1556 3495 3713 1864 1673 1727 1634 3274 1588 3420 1661 3003 2357 2084 2271 3760 2157 3735 3069 2037 3801 2862 3121 2437 1770 3489 2695 1874 1799 2137 1660 3262 1614 1823 3834 3826 3363 2160 2253 3359 2689 1864 2087 24 44 28 94 26 84 2 7 20 26 2 46 58 82 20 21 93 92 2 70 62 4 25 5 0 9 75 35 99 13 81 44 88 52 55 59 18 69 94 12 86 8 84 56 74 88 96 44 76 71 51 75 39 45 74 97 76 16 28 42 21 28 86 24 54 64 34 34 21 38 76 47 63 87 14 25 5 66 62 63 37 98 72 47 40 89 95 71 59 72 53 60 59 90 95 49 25 44 53 69 3033 2241 2783 2296 3301 3862 3605 2695 1785 3347 2594 3256 2601 2613 2580 3244 3390 2331 3076 1947 2921 2437 2899 3818 3542 3571 2655 3721 3562 3746 3758 2558 1836 1939 2855 2330 2576 2030 1998 3852 3126 3402 3478 1503 3745 3909 3762 3906 2217 3529 1857 3934 3455 1681 2391 3345 2767 3443 2691 1864 3929 1899 3823 1535 2046 2528 3240 2158 2052 3268 2398 2715 2143 1768 1764 3780 2262 2772 2452 1823 3174 3716 3765 1546 3290 1570 2900 1643 2131 3587 3236 3602 2924 3150 3982 1910 2946 3694 2376 2462
3818 2304 3901 1999 2993 3703 3632 2240 1649 1521 3362 3612 1767 3269 2474 2200 2741 3175 2341 3733 3753 3040 3661 3875 3723 1796 3273 3364 1587 3423 2853 2959 3694 2549 2708 2837 3895 2292 3355 2044 2673 3965 1855 1640 2562 2885 1694 2505 1698 1996 2507 2781 2878 3311 3343 2057 2139 3265 2572 3847 3214 3972 3913 3025 3368 2052 3211 3954 1969 1983 1566 2173 2614 2154 1722 2187 2045 1869 2821 3798 1816 2785 2030 2587 3179 1673 2198 2361 3547 2903 2581 1775 3439 1579 3604 3750 1902 1836 2343 3398 1842 1931 2321 2736 2477 1725 2902 3404 3937 3238 3704 2614 3401 3843 3178 3732 3360 2875 3234 2701 2161 3768 1833 3494 3102 3335 1985 1751 2459 1567 3624 3841 3199 1797 3060 3303 2121 2498 2766 2585 3935 3710 1742 3807 2575 3426 2382 2560 2943 3536 3724 2109 3728 2900 2758 2343 1915 3512 2733 1853 3990 3711 1568 1533 2372 3737 3173 2725 1813 3723 1690 2535 1968 3576 3452 1730 3311 1869 3467 2663 1633 3641 2783 3741 3590 1564 2562 2613 1613 2594 2642 2385 2746 2493 3494 2150 2378 1531 2100 3720 73 44 24 22 60 24 96 71 23 88 7 59 43 27 85 54 18 52 70 42 85 48 86 45 9 0 19 79 56 43 19 80 65 20 65 31 40 43 50 32 12 47 20 73 52 69 15 28 99 61 50 72 7 76 22 22 56 28 70 8 46 43 62 97 84 63 68 46 64 86 39 29 12 53 95 26 17 65 44 36 93 76 8 14 97 96 79 84 47 70 61 49 55 62 91 5 86 94 39 29 3621 3485 1768 3793 3760 3399 2992 2310 3828 3843 3397 2292 2971 2875 3934 3388 2923 1775 2554 3247 1511 3588 1831 1684 3847 1975 3166 3006 2517 3310 3734 1501 2669 2825 1580 1563 1957 3046 2744 2084 1726 1714 3141 2376 1979 2221 3156 2791 2387 1770 2689 3954 3277 2134 2298 3383 2309 2078 3702 1504 3491 3648 1913 3499 1821 2199 2497 3340 2770 2897 2045 2177 2372 3745 3186 3356 1615 2963 3796 2030 3399 1591 2014 3019 3916 2396 2953 2155 3633 2209 1968 2986 3190 3157 2294 3373 2734 1508 2877 3337
3298 2479 1608 3677 3409 1739 1993 1948 3788 2488 2667 2328 2597 3234 2877 2595 2108 2123 2595 3790 3889 3378 3354 2569 3842 3708 2848 3661 1509 2284 3093 2300 3894 1592 1552 2069 3275 2985 1613 2423 2006 2935 2461 3250 2317 3008 3841 3192 3185 3389 2621 2066 1845 2787 2530 1612 3673 1824 3537 3642 2418 2078 3627 2659 3705 3883 3195 2437 2626 2688 1887 2244 1641 3805 3823 2012 3811 3201 2629 3648 3293 3557 2471 2014 1993 3654 3608 2575 1967 2277 3440 2941 3573 3874 1556 2325 3186 1780 3883 2123 3081 1982 2253 3841 3781 2610 2195 1560 3445 2530 1854 3204 2701 3894 2244 2335 3707 3225 1621 1806 1662 3109 3722 2465 3062 3900 1570 3585 2694 1966 2053 3793 1769 2364 2298 3876 3836 1626 3122 2906 2550 3359 2982 2073 3514 2497 3892 2060 3240 1676 2527 3566 1850 3751 2355 3391 3847 3289 2117 2194 1649 1542 2309 2567 2561 2801 2477 2486 2655 3736 2842 2653 1978 2906 2918 2544 3247 3605 2035 2931 3980 1667 2040 2750 2628 2515 3148 1625 2192 2386 2969 1801 2832 1941 2058 1698 1554 3960 2655 2051 97 8 50 5 30 16 12 48 71 70 29 8 36 78 43 14 6 97 89 38 23 67 88 71 75 19 0 91 96 79 40 31 90 16 94 6 62 72 87 5 22 92 60 20 3 89 68 45 15 51 2 49 56 5 62 88 29 67 91 12 20 98 43 72 50 66 78 77 73 21 56 46 41 51 61 15 87 67 1 38 21 69 10 87 87 23 95 89 91 76 10 60 77 11 76 16 61 17 28 97 3131 1675 2852 2693 3381 3426 2493 3582 1502 2815 3775 2782 2613 1543 2809 2364 3472 1728 2469 3886 3706 2516 2098 1689 2702 1893 2785 3932 2613 1598 2518 3718 1819 2845 3488 1696 1812 3325 2789 2600 2104 2533 1752 2614 2269 3498 2947 1928 2314 3968 3657 2370 2834 3592 3771 3838 3257 3078 2032 3204 3328 2746 3447 2232 1529 2983 1506 3845 1564 2244 1983 1906 3932 1914 2188 2561 3066 2512 1910 2075 3479 2495 3779 3717 2265 3338 2901 1935 1714 3418 1643 2501 2969 1624 3515 2839 2984 2255 3563 3409
2275 3315 3009 2903 2462 3968 3653 3313 3014 2069 3096 2055 3851 3544 2666 3914 2040 2766 2123 3123 2460 2301 2953 3739 3942 3430 1777 3686 2688 2252 2697 3601 3883 1645 2510 3320 3263 2632 2672 3871 2776 3366 3146 3592 1679 2200 1575 3471 2070 3712 1552 2319 2797 2302 3390 2590 3078 2875 2416 2445 3257 3660 3564 3889 3702 2250 2725 2270 3729 1848 1598 1983 3975 3019 1633 2747 3424 3158 3950 3272 2385 2855 3983 1620 1898 3161 3943 2520 1810 2411 2945 2742 1724 3064 1743 1808 2995 2926 1738 3352 3081 3375 3971 1822 3626 3417 2786 2172 3460 2232 1950 1607 1694 3311 3851 2679 2278 2400 3772 3589 1568 3223 3603 2568 2006 2280 3747 2633 1646 2831 3852 2981 3697 2987 2858 3326 2919 3377 3970 3124 3183 3548 1888 2718 2040 3929 3293 2119 1849 3610 3683 3839 2709 1842 3258 2161 3266 2116 2985 3404 3358 3787 3782 2503 2112 3606 3922 3743 2025 1925 3129 3490 1571 2116 3686 3300 3822 2272 3778 3164 3272 2287 2474 1650 2806 2246 3323 3718 3008 3695 3252 2779 1750 2470 2622 2808 3874 3709 2969 2250 67 50 27 43 28 58 12 28 98 32 38 44 1 63 52 67 76 29 84 25 45 31 40 43 35 79 91 0 57 7 90 50 36 18 83 95 35 37 5 91 11 28 39 92 2 51 13 69 54 96 88 84 88 86 30 29 43 33 17 64 4 1 3 44 55 29 24 70 17 36 92 62 65 12 38 90 18 47 20 3 83 60 56 92 45 68 20 21 22 13 58 44 9 99 57 96 42 3 96 69 2914 2455 2398 2519 2480 2408 3105 1953 2268 3301 2087 1555 2644 3612 2413 1975 2825 2490 2648 2398 1578 3347 2481 3306 2429 3533 2032 3289 3126 3780 3924 2337 1567 2903 1897 3579 2247 3070 3254 3812 2551 2539 3323 1975 3182 3783 2204 3476 2269 3288 2324 2157 3926 3859 1536 3447 3845 1782 1711 3592 3585 1613 2724 1809 3133 3182 3146 3589 2534 1711 2240 3254 1530 3802 2038 2299 3371 3010 1639 3337 3455 3761 3505 1636 2092 2778 3992 3241 3993 3528 2341 1922 3176 3189 2497 2248 2112 2989 2738 3993
1539 3382 1605 3177 2878 1854 2633 3580 1886 2744 3089 1577 2133 3819 2189 2570 3973 3428 2334 2035 1626 3277 1518 1693 1988 3872 2225 1887 3170 2069 2567 2552 1847 3901 1963 2699 2101 1915 2370 2945 2792 2067 3352 2882 2401 1615 2877 2584 3941 2499 2044 2920 3156 2705 3052 2079 3716 2038 2163 2998 1798 3485 1974 3399 2270 3826 1843 1615 2377 1505 1966 3788 3862 3602 2331 2262 3281 2441 3378 2963 1668 3888 1709 3022 3111 3951 2471 2707 3704 3890 1717 2395 3268 2368 1501 1797 2626 3446 2821 3801 2929 2785 1719 2456 2847 2792 3339 1604 3357 3494 2651 2980 1895 3831 3184 3032 3133 2553 1565 1680 3342 2279 3893 1604 2530 3309 2368 3872 2666 3387 2035 2256 3378 2825 2731 3881 3357 2125 2014 1840 2439 2872 1578 2430 2738 2118 2521 1844 2749 3369 3049 2460 2406 2790 2393 2785 2644 2819 1785 3445 3322 2802 3734 3646 3990 3846 2778 2222 1510 3281 3001 3652 1508 3615 3392 3892 2558 3796 2907 1812 3454 3083 3314 2176 3859 2312 3539 3251 3929 2574 2787 2947 3646 3338 2951 1617 3865 1981 1927 1716 13 95 34 91 51 28 36 41 74 58 80 54 88 92 13 57 76 40 47 3 90 95 47 18 99 56 96 57 0 66 62 48 44 6 1 36 48 69 58 70 37 26 16 43 27 50 12 7 11 10 12 92 32 55 39 24 69 84 35 99 40 23 4 28 67 66 17 77 5 74 12 67 10 21 9 66 64 74 3 68 8 88 50 47 12 22 34 53 13 51 94 67 43 4 50 83 19 57 41 57 3299 2360 2444 2605 1899 3893 3493 2318 2559 3705 2723 1530 2865 1930 2768 2084 3885 3848 1561 2264 3175 3422 1992 3487 1837 1605 2376 3482 1731 3423 2291 3188 2841 2745 3102 3619 1810 3650 3755 2113 3668 1537 2918 3895 2179 2404 3271 3763 2081 2553 3660 2121 3438 3769 2456 2778 1560 1662 2641 1726 2149 2546 2330 3384 2291 1799 1525 2103 3809 3623 3441 3091 1635 3262 3425 3487 1993 3764 3456 3690 2799 2816 1727 1597 2694 2454 3871 2816 3551 1987 3221 3964 3685 3307 1916 3874 3490 2661 1730 2407
1728 3471 2787 2993 2370 2361 3400 3219 3180 2014 2762 2269 3062 1799 3637 2812 3942 1649 3913 2991 2155 2105 1989 3935 2056 2336 2879 2790 1575 2584 3315 1905 1998 2946 2646 3969 2611 3716 3139 2942 3581 3171 3569 3368 1856 3172 3945 2546 3934 3512 1933 2091 2460 3522 1713 1754 2105 1854 3841 2655 2839 1988 3797 1713 2766 3352 2533 2877 3329 3039 1962 2872 1625 3690 3830 2681 3778 2426 3068 1589 1746 3133 3627 2543 3669 2901 3379 3178 3373 2500 3131 3372 3110 3492 1739 3398 2936 1862 3156 3470 1502 3926 3333 2311 2449 1971 2227 2619 3729 1538 3471 2916 2105 2894 1833 3934 2493 2033 3978 1937 1735 2276 1678 2388 2474 3534 1531 2231 2652 3784 3977 1968 3758 3869 2273 2007 2264 2440 3130 3941 3324 2188 3159 2653 1869 2385 1769 1579 3919 3993 3437 1987 2111 1814 3968 2588 3553 2178 2565 1807 2231 1676 3909 3989 1576 1526 3314 3223 2544 1777 2056 2713 3664 3115 1987 1660 2357 3411 2156 3821 2450 2988 2007 3507 1667 2963 2565 3788 1623 2655 3585 3980 1886 3037 1684 3096 3837 3020 3435 2375 87 69 5 57 49 55 61 98 21 16 88 35 99 5 67 1 96 54 99 94 97 13 91 36 13 43 79 7 66 0 90 22 78 95 47 47 79 66 22 15 48 13 2 13 68 26 40 5 84 88 79 77 67 27 62 63 4 29 14 67 67 7 26 59 37 81 24 98 75 5 1 43 89 71 24 99 4 49 48 74 81 69 72 68 71 14 3 74 71 12 98 22 22 48 99 56 92 47 26 91 3292 3793 1625 3621 3688 2587 1633 3067 2437 1578 3828 3422 2270 3150 3655 3002 2053 2565 3717 2200 3111 3126 3011 3349 3466 3596 3446 1961 2770 1833 3937 3897 2331 1643 2528 3667 2570 2894 2669 2578 1602 2923 2428 1795 3458 2546 2750 3765 1509 2894 1618 3978 3864 3776 1825 2311 2519 2930 3870 3554 1819 2396 3851 2589 2992 1586 2993 3942 2848 2988 3244 3984 2749 1539 2649 1555 3763 1650 3343 2525 2740 3833 3679 2956 2766 3265 2756 3658 1874 2081 2446 1836 3177 3017 3336 1574 1708 3927 1588 2824
3394 2598 3708 3293 1934 3502 2083 3727 1930 2743 3407 2965 1578 1676 3130 1793 2095 3510 3699 1945 1978 1978 3363 3458 1553 2428 3440 3840 2714 2796 2673 3216 3136 1851 2102 3179 2255 3766 3669 3301 1841 2635 2620 3813 2727 2123 3893 3943 2281 2604 2870 2197 2653 2250 3758 2274 3532 3012 2903 3431 1706 2120 2120 2653 2640 1893 2620 3542 2953 3876 3289 3823 3629 2661 2925 3592 2692 1921 2382 3949 2361 2103 2855 2999 2226 2081 1573 1543 3295 3973 1791 3006 2082 1892 2362 1629 2595 3161 3010 2071 3148 2969 2533 3077 1668 1520 1640 2010 1690 1719 3806 2184 3638 2627 1555 3123 3259 3611 3190 3803 1743 2273 2821 2924 3553 2618 1807 2254 3482 1752 1600 2254 2905 1607 2618 1992 1715 3055 3201 1812 1636 3192 1534 3726 3708 1987 2691 1776 1718 3470 3528 1501 2614 3969 3014 2317 3256 2146 1619 3432 3436 2916 3140 3432 3897 3838 3050 3059 3390 3307 2910 3395 1851 3907 3044 3905 2608 2292 2174 2237 2155 1745 3868 3559 3219 2427 1611 3908 3239 1929 3250 3847 3530 3334 3742 3601 1859 2361 2022 3233 83 77 5 78 8 19 41 18 45 90 60 45 2 68 4 3 3 61 98 33 25 35 90 26 81 19 40 90 62 90 0 14 11 58 44 52 49 60 58 53 97 43 95 85 86 42 2 60 29 41 66 62 96 92 78 8 95 81 41 46 98 53 73 71 19 51 63 64 92 45 90 86 8 3 85 81 73 87 76 20 25 67 66 96 45 2 66 89 68 8 84 50 24 48 80 11 3 4 53 96 1883 2039 3295 1832 3979 2739 2485 2499 3781 2301 3682 1966 3049 3010 2001 2186 1619 3723 3034 3696 2841 3974 3712 1863 2935 3514 1878 3052 1797 1624 1718 2744 1585 3649 3819 1982 3079 1951 3725 3261 2292 2383 2962 3940 2144 3246 3546 1649 3127 1692 2555 3655 3838 3042 1783 2649 3924 3587 2579 3985 2985 2612 2136 3597 2731 3724 2116 2950 2696 3276 2332 1531 1705 3976 3524 2149 3904 2467 3369 3619 3453 1950 2278 3994 3170 2966 1917 2072 2778 1830 2953 3821 1819 3967 3375 1937 2061 2050 3346 2755
1873 3038 3581 3646 2588 2925 2369 3808 3825 2825 1540 3726 3136 2581 1644 2930 3579 1649 3145 2769 2908 3362 2134 3903 2620 2701 1596 3045 1952 2876 2491 2580 3579 2528 3663 3214 3817 3260 2945 3640 3231 2258 3447 1888 3261 3917 2865 1836 2669 3045 2863 3256 1846 2712 2033 2418 3014 3479 2274 1554 2940 2723 3642 2415 3445 2099 3599 1523 3115 1967 3771 1789 2758 2098 1615 1702 1670 2995 2003 2135 2134 2527 3390 2188 3065 1747 3424 2768 2547 3245 3198 2952 3685 3118 1992 2086 3306 2998 3751 1731 1908 2454 1724 1679 2892 3709 3886 2417 2358 3986 1691 1683 2708 3396 2673 2570 1590 2633 3419 1652 1978 1529 2854 2513 1760 2940 2341 2976 3458 1990 3787 1502 3578 1814 2419 3735 2090 2989 3448 1714 1557 2367 2153 2231 3861 2522 3023 2166 3431 1680 2814 3773 2119 3830 2576 2629 3029 3340 2246 3323 2528 2203 2160 2655 2921 2672 3192 3660 1698 1982 2641 2896 3641 1567 3203 3203 2567 2451 3717 1981 3309 3540 2866 1647 2276 1707 1736 2285 3109 1992 3644 3607 2761 2905 3974 2044 1937 2422 2770 1899 33 71 44 94 30 89 23 19 68 55 78 89 33 66 90 66 15 66 9 29 51 85 56 63 44 80 31 50 48 22 14 0 1 70 66 34 92 14 60 61 10 69 32 80 38 27 7 16 79 6 27 93 56 77 27 62 62 39 10 73 66 64 93 87 13 80 30 28 62 95 37 74 57 72 60 89 6 45 76 51 52 78 37 61 49 79 40 36 54 80 38 60 98 55 33 40 63 53 53 35 2683 2808 2424 3905 3747 1811 2892 3060 1890 1552 2514 3044 3253 1857 3781 3128 2858 3735 3249 2323 1622 3034 2886 2992 3146 2430 1924 3941 2816 2444 3186 2786 3008 2447 2370 1740 1595 2048 2796 3566 1935 3826 3393 3059 3927 3037 3069 2682 2253 2023 2679 2202 2650 3506 1511 1760 1615 3208 3157 3276 3155 1644 2171 2565 3704 3244 2195 3168 1605 3023 3081 3811 2118 2688 3588 2894 2467 2585 2077 3606 3909 2988 2636 1866 2827 1752 1718 1509 3226 3098 2982 2653 3858 2669 3922 3187 1976 2159 2250 1928
2781 2970 2034 1717 2465 2109 3979 2981 3609 3549 3483 3757 3822 2959 2338 1973 3150 2597 2759 1888 3008 2952 1804 3685 3338 2168 2421 2933 1632 1690 2493 1835 2089 1632 2022 2015 2706 2817 2689 3813 3282 2827 2585 1965 2302 3252 1895 1929 2579 3933 3255 3834 3814 2850 2132 2567 1928 1666 1908 3995 2250 2050 3973 2784 2131 1715 2091 3881 3060 2008 1588 3172 3844 3893 3263 3604 2933 3801 3462 3376 1956 2430 2685 3914 2197 2339 1843 1838 2779 3099 2265 1967 2463 3583 1919 1799 2914 1942 3072 2657 2573 2387 2084 2235 3017 1825 3683 1521 3702 2131 2324 3923 1717 1967 2418 2110 3461 3320 2012 3422 2886 1881 1845 2959 3230 2117 3445 2058 3136 3509 2829 3083 3271 3644 2476 1661 3578 3604 1906 2962 3101 1755 3638 3220 3996 3370 1527 3067 2131 3251 2554 2655 3488 2501 3297 2535 2656 3184 2331 2251 3838 1511 3647 1728 2255 3989 1921 3197 2271 1756 2757 2447 3243 2331 2862 2336 3121 2368 2557 2041 3540 1881 3460 3210 2559 3789 2933 2667 3065 3196 2903 2411 2947 1517 2529 3563 3251 1778 3806 2718 19 22 30 78 36 68 14 83 1 58 32 41 51 88 16 34 41 25 7 60 53 62 57 66 88 65 90 36 44 78 11 1 0 42 67 83 87 52 58 1 59 34 54 76 92 19 39 73 5 84 54 62 38 41 47 69 88 61 58 93 92 25 30 50 57 15 10 47 46 37 95 37 73 76 21 29 32 86 66 29 20 97 22 9 38 40 25 76 71 77 55 59 5 12 2 32 86 69 70 99 1666 3643 3244 3788 2622 2419 3938 3218 3977 2657 2828 2001 3046 3324 2136 1816 1862 2240 2701 2046 3735 3887 2614 2064 2199 1913 2116 3393 3482 3730 3337 2482 1712 3924 2218 3757 3023 2802 1769 2557 2121 3592 3419 3704 3875 2566 1696 3947 3225 2103 3958 3259 3896 3337 2242 1511 1715 2500 2056 3635 2348 2311 2573 2093 1899 2970 3973 3481 2151 2776 2562 3507 1548 3392 2556 2098 3850 3380 2917 3361 3402 2724 1551 3938 2678 3657 3556 2740 2006 1660 2796 1951 2003 2229 2514 1964 3244 1886 3012 3217
3746 3430 3130 2666 3688 3741 2953 3412 1790 3729 3915 1991 3592 2557 3594 3469 3648 2078 1758 1717 2960 2892 2985 2292 2870 3462 1857 3915 3352 1920 3738 2447 1891 3674 1650 3760 2811 1810 1608 1631 3360 2018 1805 1599 2637 3550 2699 2603 3096 2755 2287 2643 1827 2069 2515 2404 3168 2510 3548 2616 1848 3164 2154 1778 2907 2122 3603 3354 3408 2832 2853 1645 2328 2989 1987 1958 3380 3973 2747 3566 2007 2518 3775 3762 2314 2379 3291 1604 1650 3406 3469 3038 3395 3417 3193 2350 2718 3937 2774 1697 2410 2823 1892 3253 3752 3764 2076 2540 2617 1581 3311 1972 1732 3023 1821 2832 3406 3495 2906 3373 2995 3549 3595 3132 2104 1817 3867 2566 2208 3716 2331 1925 2095 2799 2629 3282 2381 2719 3210 1640 1733 1720 3307 3219 3290 2120 3379 3165 3774 3756 2780 2245 1816 2316 2557 3740 3639 2869 1711 2464 1608 2032 2419 3957 2689 3699 3098 2747 1928 2359 1512 2801 2966 3228 3573 2211 3465 2818 2215 2793 3369 2482 3472 1927 1844 2832 3507 3548 2323 3346 3423 2968 3982 2279 3198 3488 3161 3276 3305 3230 62 82 13 44 26 46 34 31 49 35 9 76 60 95 21 35 91 10 18 95 10 59 10 7 52 20 16 18 6 95 58 70 42 0 39 8 15 53 4 27 40 76 93 67 35 9 75 14 19 62 75 33 26 72 26 73 60 34 98 15 6 85 48 63 36 27 7 90 14 77 76 87 30 48 77 48 28 63 13 30 2 33 92 84 27 43 94 36 84 84 17 78 31 80 69 56 99 29 29 51 3732 2584 2763 2637 2323 3006 3065 3463 3908 3408 1577 3106 3804 2071 2733 1753 2930 3246 3648 1557 3192 2626 3813 2515 2918 2206 1984 2959 3689 2645 3729 2447 3496 2902 3791 3125 3874 3986 2035 2690 2582 2477 1787 2419 2998 3330 1796 3257 2542 3531 1505 3824 1685 2568 3469 3402 2403 2113 2793 3344 2460 2082 3677 2532 3138 3337 2959 2230 2221 3179 3795 3963 3616 3032 2176 2799 3195 3150 2462 2938 1891 2696 3107 2028 2866 3911 3321 2372 2327 1821 2085 1544 2077 3107 3199 2006 2588 3216 2665 2674
3822 1818 1917 3554 2227 1653 2310 1797 2622 2739 2853 3040 1605 2834 1984 2287 3406 3332 3996 3730 2780 1835 1603 1629 3507 1590 3862 2036 2859 1842 3132 2364 2204 3928 3302 1945 3244 3637 3202 2148 3427 3352 2390 1961 2580 3291 3564 3648 2081 1877 2105 2646 1689 2630 1755 2787 3295 3089 2963 3633 3807 1779 1911 2931 2951 2904 3352 2562 1842 2379 2502 3669 1875 2372 3899 1955 3261 1783 3398 1788 1637 2415 2234 2937 2547 3936 3387 3431 1788 2137 3671 1711 2097 2462 2484 2771 2839 2002 3714 2664 2811 2330 2216 3284 2556 2101 2557 2464 3351 2425 1666 2895 1679 1833 3298 3153 2407 1943 3273 3703 3333 2813 2847 3813 2923 3399 3288 1902 3165 1790 2502 3813 2859 1630 2912 1822 2473 1607 2895 3525 2380 3562 3170 2141 2613 2255 1722 3812 2547 2584 3520 2175 1646 3770 2354 2067 3730 2986 3924 3147 3876 1840 3484 2346 3343 2920 2673 3198 2177 2614 3421 1789 3920 2140 1788 2387 1736 1932 1600 3619 3908 3395 2133 1701 2002 2102 3898 2468 1879 1976 2266 1751 1635 3500 3437 3438 3930 3678 3434 3135 36 70 45 75 52 66 22 38 6 50 67 60 54 77 30 3 63 20 14 19 9 37 4 95 55 65 94 83 1 47 44 66 67 39 0 20 70 10 55 70 17 79 33 5 19 19 45 96 57 95 54 35 83 82 35 96 87 36 13 24 25 33 18 48 93 75 68 98 90 33 12 50 19 3 34 14 49 93 76 69 17 3 7 61 84 91 96 22 87 76 85 4 67 44 37 16 6 4 20 40 1997 3546 2679 3009 2513 3099 2338 2562 3768 1767 1838 2623 2737 3367 1558 3436 3021 1645 2011 2633 2109 2350 1585 2860 3472 3097 3699 1747 1960 1758 3362 3428 3116 2936 2702 3898 1816 2070 3796 3694 2591 2691 2330 2691 3771 3853 2260 2394 1763 2440 2229 1653 2140 2925 3975 2620 2849 3361 3247 3859 3009 3927 3597 2508 1976 2423 1673 2141 2171 3098 3600 3863 1937 3776 3428 1695 2880 3900 3640 3372 3768 2411 2548 2425 3858 2933 3099 3278 1808 1597 3763 1605 3434 2261 2158 2537 1844 2447 2474 3476
2169 2295 2121 3574 3862 2824 3532 2469 1699 1516 1533 3190 2752 1541 3453 3201 1644 2565 3420 1817 3673 2293 2239 3845 2455 2614 2260 3135 2437 3164 3678 2945 3624 2414 3163 2513 3742 3690 2233 1912 2722 3372 3580 1629 2086 3825 1941 2517 1795 3569 3194 3648 2579 3289 2532 1830 3684 1560 3990 1952 3357 2296 3852 3918 2560 2656 2529 2203 2166 3936 3661 3165 3409 2606 3976 1525 2391 2519 2743 3738 2165 2310 2316 2958 3130 3446 1854 2984 3867 3654 2894 3962 2657 2509 2656 1848 3843 3595 2357 2577 1784 2551 2862 2629 1503 3281 2326 3316 3717 2304 1517 3272 3482 2076 1637 3556 2645 1997 3525 1527 2109 3639 3733 2441 2291 2867 2899 2323 3656 3718 2585 2949 3795 2951 3367 2416 3314 1896 1785 2275 3536 2669 2143 2621 2769 3099 3176 2103 3173 3770 3844 2896 2810 2923 3670 3559 3149 3735 1514 2222 3160 3732 2665 1643 3807 3774 2802 3371 2406 3630 3996 2349 1817 2729 2879 3091 3924 3344 3954 3298 3630 2868 3149 1739 1577 2456 3697 1813 2707 3321 1896 3490 2936 3592 3754 3327 2843 2960 3638 3527 48 97 61 9 84 75 18 5 30 17 75 7 50 1 5 67 13 33 64 12 9 1 63 59 59 31 6 95 36 47 52 34 83 8 20 0 39 22 96 5 11 78 4 18 77 27 3 85 68 80 31 31 41 19 32 63 64 58 31 34 54 56 60 71 49 40 47 99 49 38 23 19 41 31 85 63 24 70 86 99 94 66 68 53 93 27 33 5 80 72 3 96 93 70 74 65 70 31 45 77 1696 3756 3496 1845 2848 2063 1921 3232 1996 1842 3834 1815 1517 2560 3424 2471 1623 3685 2466 1878 3400 3427 3992 2173 2726 3694 1909 1567 2582 2537 2187 2223 3570 2068 2563 3037 3521 1626 2019 2592 2433 3021 1835 3310 1939 3576 3959 3297 3192 1661 2145 2092 2157 3828 3009 1563 1913 3032 3564 3967 3851 3147 3394 3810 2516 2792 2314 1879 1534 1748 3646 2290 2234 1535 3490 2804 3491 3997 2240 2418 2522 3419 2341 3768 3679 3100 2167 2251 2870 3734 3055 1806 1587 2004 3969 2840 3231 2667 2253 2244
1665 3315 2567 3603 3917 3004 2725 2045 2899 2256 3513 1751 3657 3605 1955 2635 3237 3887 2953 2528 2647 2131 2468 2208 3623 3054 1532 3406 3976 3320 2767 1505 3325 2512 3236 1533 3405 3049 3259 3904 3252 3461 2141 3221 2384 1656 1734 2810 2759 3587 3543 3091 2605 3826 1905 2690 2698 2500 2987 3293 3707 3264 3328 2235 3737 2832 2803 2229 3393 2791 3592 3080 3934 2862 2592 3069 3196 3582 3876 1527 3922 2387 3549 2989 2159 1802 2325 3631 3075 3711 3292 3143 2493 3583 2248 3752 3050 3995 2123 2316 2536 2992 3253 2623 2452 1562 2592 1783 1925 3571 2325 3101 1780 2889 2317 2204 3453 3523 2309 3297 2444 1890 3544 2746 3395 1626 2892 3813 3111 2903 2454 3859 3880 3392 2413 1738 3055 3786 2055 2152 3652 2040 2506 2878 2529 1754 2053 1738 1976 2727 2522 3469 2542 3592 3355 1979 2711 2084 2355 2011 3225 2859 2909 3101 2151 3583 3603 3794 3633 1794 1971 3810 2804 2892 2074 3291 3131 3350 3796 2685 3753 3413 1513 1874 2455 2583 3695 1815 3932 3897 2304 3129 3441 2495 3054 3576 2905 2031 2063 2219 36 79 49 4 12 66 9 90 57 66 55 76 94 68 35 6 28 42 58 86 79 74 64 3 18 40 62 35 48 79 49 92 87 15 70 39 0 68 8 3 82 77 20 17 36 88 57 40 96 60 9 35 14 86 58 76 69 68 93 89 89 36 36 27 73 26 5 60 12 68 26 2 46 59 38 38 18 43 72 71 40 80 8 66 22 9 86 70 62 80 71 82 83 30 83 27 6 76 77 98 3919 1803 2852 2628 2953 2837 3370 1766 3730 3210 3754 1892 1916 1506 3212 2038 1626 1781 1505 3310 3088 3953 1523 3046 3682 2112 2090 2084 3369 2878 3720 2964 2561 2941 2231 2386 3319 2499 1639 3249 1574 2205 3016 3607 2278 3281 3059 2267 3152 3791 3686 3608 3670 3110 2477 1730 1563 2952 3186 2816 2294 2886 1601 2777 1987 3991 2315 2527 1817 3102 1756 2516 2653 1592 1570 2529 2346 1708 2493 1529 3607 1959 3711 2996 2870 2797 2555 2152 2590 3855 2411 2018 2613 2706 2859 3533 3226 2678 3044 1734
2737 2004 3835 2809 1891 3919 1847 1620 3465 2067 2818 1638 3734 3676 3927 3655 3852 3188 1574 3382 3626 2461 1944 2028 2341 1910 1622 2649 1599 1609 1843 3093 2773 3158 2570 3866 2529 3534 1896 2109 2312 2704 2687 2511 1772 2835 3167 3662 2813 2348 1665 2177 3351 3668 1821 2393 2070 3137 1550 3223 2578 2434 2653 2486 2403 1701 3960 3540 3148 2253 2065 2136 2564 2290 3926 3794 3406 2892 1873 3619 1609 1506 3325 3423 2514 2428 3011 2877 2952 1716 1506 2169 3445 1887 2244 3946 1772 2210 2913 2564 1923 2124 3588 2386 2160 2263 3960 2730 3479 3509 2614 2919 2124 2516 3768 3774 3824 1955 3794 1784 3841 1584 3924 2494 3134 2619 2131 2812 2230 2014 2246 1808 3855 1986 2852 2045 3369 2404 2254 2043 3593 2159 2666 1811 2659 3830 3179 2880 3653 2783 2374 1785 2368 2174 2351 3122 3164 1629 2294 2082 2109 3255 1746 2166 1817 3732 2554 2547 1877 1600 1838 1946 1948 2692 1953 2622 3693 3262 3697 2307 2858 1825 3089 2408 1941 2097 3171 2843 1614 3467 2692 2724 1616 3490 3086 1786 1722 3664 3692 2039 77 83 8 62 66 97 45 87 88 66 53 48 23 61 99 67 90 24 13 66 85 31 23 6 69 43 72 37 69 66 60 14 52 53 10 22 68 0 74 51 43 29 39 10 69 62 39 48 41 57 13 86 71 87 57 13 37 12 53 60 26 16 96 34 99 28 40 75 99 78 41 59 70 92 19 35 53 77 91 4 96 63 34 37 91 53 31 98 57 40 42 6 88 74 1 19 62 53 66 40 3175 2882 3659 3218 2312 2103 3232 3434 1706 3285 2162 3961 2139 2567 1679 3306 2823 3027 3018 3817 2720 3498 1918 3674 2174 3000 3057 3528 3573 3142 3778 3894 1807 3941 3225 1946 2340 2720 2615 3162 2459 3199 2413 2930 3606 3388 3403 1646 2109 3497 3428 2957 2195 3043 2465 2074 2526 3145 1772 3096 3144 3115 3647 2441 3060 3648 2849 2629 3277 2910 2034 3655 2137 1566 2322 3195 3074 3003 3496 3395 2518 2779 2484 3347 3635 3965 3886 3373 1696 3530 2066 2480 2266 2336 2870 2862 2459 3106 3155 2796
3603 2200 3177 2128 3111 1866 3802 2728 3419 2169 1694 2798 2453 2692 1800 3408 1720 3511 3493 2278 3672 3326 2955 3627 1984 2328 1889 1597 1822 2992 1559 1744 1535 3889 3888 3431 2635 1614 1845 2786 1886 3694 1952 2799 1572 2878 2532 2139 2460 2199 3848 1886 1830 3781 3718 2067 3627 2698 3388 2942 1674 1634 2415 3841 1657 3826 1717 3420 1965 1573 2939 1552 1791 3026 2638 3468 3880 1679 3100 3176 1702 3004 3332 2072 1933 2752 1686 3655 1577 2292 2794 2777 3866 2256 1654 2022 1967 3050 1622 1567 2587 1775 3320 2610 2823 2723 3686 2500 2018 3332 2364 2978 2479 3208 2203 2914 2726 2292 2616 3839 2896 3824 1866 1907 2115 1897 1755 1685 2650 2893 3289 3765 3684 3254 2994 1756 2178 3060 3612 1795 3186 1756 1754 3352 2091 3025 2754 2100 1654 3689 3247 3605 2378 2057 2180 3219 3283 3405 3113 2097 2127 3625 2122 3149 2170 3164 3159 2449 2459 2003 3220 3510 3876 3050 2909 2243 2780 2953 3968 3159 2396 1522 2172 2063 2673 1847 2068 3262 3606 1873 3124 1746 3401 2552 2824 2515 3145 1643 2854 2114 90 14 36 14 68 90 70 55 1 60 49 39 19 38 90 91 47 71 4 39 66 80 12 53 94 50 87 5 58 22 58 60 58 4 55 96 8 74 0 55 56 20 98 26 9 83 48 47 93 71 72 65 76 75 78 30 51 21 15 14 86 8 86 20 1 70 8 57 38 67 37 39 49 99 61 85 39 39 18 73 45 82 22 29 46 28 16 38 29 13 72 99 93 9 37 53 54 57 17 93 1611 1533 1562 3892 2025 3258 2674 3804 1916 3904 3136 2803 1644 3624 3618 3959 2552 1992 3815 3098 3188 3089 2216 3351 3887 3920 2023 2581 2997 1990 3854 2529 2278 3458 3149 2516 3340 2468 1685 2627 1550 2538 2667 2099 2910 3730 2457 3009 3047 2248 2929 2199 1566 2236 3535 2380 3265 3864 2035 1749 2815 2905 3953 3293 3320 2390 2964 3858 1827 2565 3976 2766 1996 3637 3992 2664 2519 1760 1676 3870 3762 1851 2923 3450 2933 2345 2513 3883 2617 3782 2893 2517 2030 1944 2812 1679 2137 3397 2961 1720
3061 3946 2599 3890 3298 1903 1703 3140 2516 3339 2579 2930 2239 2616 2222 1818 2347 3022 3043 2101 2772 3567 2252 3056 2650 2295 3681 1761 3669 1618 2353 2933 2423 3331 2988 3977 3568 3087 2930 1735 3927 2287 3158 2516 3676 3871 2066 2186 2434 3576 1977 1794 1762 2075 1871 2625 3951 2869 3844 1827 2471 2776 3991 1562 1739 1948 2662 1645 3746 2859 2648 1509 1641 1929 3094 2054 2259 3991 2375 2387 2078 1857 1635 2968 1764 1826 2434 2771 3338 1864 1500 1773 3749 3094 3173 3283 2324 2662 2330 2996 3673 1625 3008 3446 1749 3209 3944 1773 2552 3405 2647 2540 2596 1778 2766 3630 2107 3546 2824 2891 3817 2866 1562 3419 3756 2073 2167 2057 3931 2542 2955 2342 2273 3164 2992 2002 2413 2065 2267 3218 3320 2426 2938 2614 1692 3399 2857 2947 2220 3210 2891 2092 2192 3506 3302 2476 2205 3764 2145 2189 3357 1740 1726 2784 2764 2481 3912 2911 3206 2915 2339 1582 3049 1953 3809 2338 2423 3198 2550 2061 3882 1788 3399 2311 2833 2794 1804 2480 1891 2592 3827 2091 2860 3690 3684 1536 1937 2369 3032 1889 87 79 87 97 53 73 12 96 85 1 85 64 85 53 4 95 55 45 60 59 42 32 23 97 12 32 5 91 70 15 53 61 1 27 70 5 3 51 55 0 4 85 96 42 43 90 71 69 57 77 37 11 88 99 68 54 76 39 17 49 84 89 33 4 55 76 24 35 14 31 46 49 81 82 3 69 73 90 36 5 45 80 47 85 73 29 13 69 8 67 11 14 62 23 4 37 77 41 23 99 3937 1879 1960 1655 3517 2600 2723 3185 1539 3357 3169 3892 3197 3464 2112 2631 2561 2800 2551 3246 2771 2055 1831 3416 3269 1670 1511 2698 3600 3050 2636 3174 1702 2475 2881 1547 3443 2967 1571 3237 1684 2948 2306 1629 1813 3689 3005 2180 2694 2954 3394 2679 3414 1823 2730 2259 2808 3898 3934 3919 2833 1793 1530 2449 3192 3250 1877 1946 2913 3916 3321 2739 1770 1828 3772 2737 3966 2942 1758 2176 1684 2690 3222 3092 1977 1787 2486 2562 2499 2454 3061 3787 3430 2405 1831 3402 1635 2623 3761 1787
1666 1976 2013 3843 3772 1632 2960 3317 2688 2269 1656 1877 3738 3077 1561 2137 2215 2618 3071 3506 3506 2273 2986 2924 3758 1609 3381 2711 2773 2498 2954 2140 2891 3067 3784 3436 2028 2785 3520 3332 2483 2113 3171 3199 3686 2000 2233 2687 1825 2056 2145 3299 3565 3333 2682 2272 3915 2965 2356 3237 1843 1623 3966 3988 3897 3442 3756 3724 3612 3449 2930 2645 2395 1684 3728 1726 3781 3989 2485 2036 2134 2407 3419 2163 3137 2046 2613 3608 1698 3870 3787 1562 1633 3185 2962 1587 1731 2428 2365 1991 2297 3353 3406 3780 3780 2190 2610 2620 2821 2239 1950 3556 2558 3732 2369 3219 3017 3471 2372 1870 3713 3735 2171 2488 2140 3514 1638 1569 3497 3099 3715 1960 1918 3002 2537 3327 2620 3007 3248 3651 3390 2941 2200 2831 2314 2298 1712 3355 3266 2442 3365 3223 3050 2306 2592 2751 2692 3701 2247 2241 3875 3935 1996 3472 2950 2808 1663 2229 2949 1901 3903 2134 3474 1607 1511 2816 2487 3235 1791 3567 1850 1893 3813 2243 3671 2465 3099 2314 2891 3503 3490 3938 1676 3025 2487 1555 3182 1612 3178 2842 95 44 84 67 82 34 25 16 82 29 52 99 36 68 42 54 18 92 4 49 99 44 8 51 86 12 22 11 37 48 97 10 59 40 17 11 82 43 56 4 0 63 2 29 74 10 42 76 98 44 12 31 7 70 19 68 24 30 98 13 20 55 2 60 98 75 67 67 77 60 67 53 41 4 36 92 69 41 53 93 30 65 39 29 83 3 85 21 86 98 80 76 21 93 55 58 84 29 27 61 1811 2344 2319 1861 2059 3157 3132 1601 2371 2105 3183 3878 2022 3163 3704 2402 2498 3340 2508 2488 1566 1627 2220 2137 3314 3167 2141 3393 3783 3515 3137 3038 3324 2853 3977 2606 1985 3910 2693 1986 2249 2562 3819 2673 3131 3463 3153 2563 1763 1951 2698 2782 1761 2510 1831 2770 1657 2534 2324 1803 3599 3719 2137 2820 2219 1824 2350 3200 1642 3239 3151 1575 2222 1658 2941 3599 2563 3301 2429 1774 3915 2845 2353 3671 2942 3981 3575 3325 2012 1752 1535 3348 2570 1850 2775 1747 1736 2523 2111 3907
3125 3995 3433 3291 3926 1770 2646 1529 3046 2902 2154 3425 2639 2882 2979 2738 3314 2025 3676 3499 2139 3417 1723 2995 3792 3603 3553 3399 2945 1703 2172 2797 3923 3061 3622 3733 2557 2115 2726 3981 1896 1955 1686 1536 3604 3356 2687 2068 1883 1695 2651 3561 3179 3290 2229 1714 1938 1900 1791 1586 2198 1865 2369 2337 3570 3121 1611 2254 2070 2935 3901 3599 3450 2150 2738 1761 3516 2918 3086 2669 2628 1816 3544 1737 3080 2635 3747 2950 3891 2724 3463 2447 3672 2129 2485 2445 2376 3405 1923 1756 1866 3142 2659 3829 3707 3766 3600 3272 1901 2104 2042 3375 1982 2597 3217 2069 2301 3915 1707 3834 3637 3042 3815 3790 2393 2554 1765 2280 3496 2946 1820 3269 3161 1708 3101 3201 3215 2475 3614 3188 2748 2778 3328 2813 2546 3995 3335 1811 2271 3385 3937 1835 3790 3249 2426 2135 2002 1709 3181 3405 3178 2025 1920 3304 2421 2761 3244 2621 3917 2684 3962 3632 1822 3094 2233 2951 3615 2922 3783 2589 2597 1715 3934 3151 2491 1552 2932 1955 2821 3649 1976 2424 1561 1968 2027 3911 2661 3269 3061 3028 13 66 99 18 19 76 18 99 75 49 85 37 73 86 32 95 37 88 79 78 99 78 94 18 8 47 92 28 26 13 43 69 34 76 79 78 77 29 20 85 63 0 72 14 70 9 10 86 11 88 95 78 4 2 89 41 16 7 27 34 55 48 13 62 70 41 50 1 90 94 20 40 23 87 77 36 27 47 89 17 69 32 38 53 31 45 90 88 13 55 13 83 8 66 73 22 86 45 37 51 2696 3640 3698 2996 1810 3319 3608 2365 3451 2386 2807 3511 3424 3561 2914 1930 3691 1976 1974 3117 3236 1941 3988 2920 3399 2120 1901 2874 1827 3294 3912 2841 1983 2227 3638 3495 3480 3176 1705 2599 2644 3320 1908 2649 2991 1836 2123 2166 2688 3970 2774 2122 3222 3208 3433 2640 1573 3511 2791 1831 3167 1566 2416 3119 2142 2846 3666 1771 3209 2107 1684 1631 2011 3033 3878 3160 3277 3640 3495 2991 2977 2975 2321 3485 3525 1880 1838 2315 3021 1903 3788 3030 3940 3959 3667 2247 2847 3648 2267 3795
2360 3657 2976 2589 2240 3576 2975 2248 3726 2680 2995 1561 2284 2245 2134 3284 3208 3663 1659 1524 2631 3310 1575 3743 3089 2842 3083 3134 3081 2974 3514 3927 3914 2250 2866 3414 3783 2045 2161 3728 3411 2838 2690 1913 2492 1727 2127 3699 3092 1747 1911 2659 2327 1521 1546 2741 3346 3639 2438 3805 2451 1664 2298 3067 1548 2621 3139 3242 1689 3528 1694 3321 2481 3431 2801 3363 2169 2626 3799 1517 2252 2204 1911 1667 2553 3211 3481 2977 3129 2080 3583 1934 2606 3541 2792 2817 2785 1721 2331 2084 3879 2716 1864 2923 2017 2302 2395 3209 3207 2222 1708 3080 2914 3376 3065 3534 3150 2449 2510 2148 3122 2002 3715 2404 3396 2164 1582 3803 3136 2799 1617 3361 3883 2936 3706 2843 2323 3618 3341 2883 2767 2622 3851 2365 3131 1788 2637 3889 1943 3909 2893 3814 2695 3844 2156 3157 2132 1739 3133 1843 3369 3074 3011 3394 2132 2996 3438 2131 3580 1738 3356 1860 2766 2140 1927 3426 3683 2385 2312 2404 1782 2080 1884 2271 2836 3036 3089 3791 3410 2006 3003 3334 3218 3255 2829 3951 3240 2228 2001 2200 29 1 93 33 27 36 83 77 12 21 38 83 87 28 49 75 1 22 93 63 69 7 41 9 84 20 60 39 16 2 95 32 54 93 33 4 20 39 98 96 2 72 0 60 21 60 82 46 86 60 31 10 61 70 28 91 26 55 94 97 84 6 43 8 91 58 56 73 65 57 23 63 47 37 97 31 2 45 95 73 20 98 70 70 40 15 45 4 62 6 59 87 55 16 72 90 33 1 85 91 3454 2092 3100 3446 2045 2954 1735 2800 2619 3567 1856 2108 3442 1991 3863 2669 2988 3346 2176 3441 2853 2411 1755 1763 2636 2154 3198 3039 2240 2343 1843 1967 2554 3430 3542 2011 3845 2850 2835 3155 2174 2566 3213 2341 1670 3203 2927 3765 3272 3627 2089 2179 2059 1605 3043 3527 3534 2404 2041 1985 3385 1736 2326 1500 2532 3505 2280 2598 1751 1551 2674 2799 2611 1537 3513 3363 2449 3749 2472 3522 2475 1504 2049 2036 3782 1719 3387 1536 3524 3733 3109 3635 3153 3695 3280 3583 1557 3884 3361 1671
2065 1890 2752 3780 2925 2827 2275 1631 1646 3793 3724 2916 3629 3068 3733 2868 2113 3611 1629 1735 3175 1719 3168 2198 3761 1770 3829 3765 1772 3914 2401 2998 2938 1549 2247 1702 2805 2533 2725 2520 3701 2135 2844 3413 1561 2730 3472 2387 3761 1608 2816 1558 1733 1822 3407 3227 2474 2953 3526 3428 1572 2864 2971 2637 2002 1737 2567 2985 1878 3209 2366 2604 1572 2237 1839 2358 2001 3028 1647 3755 2831 3100 3079 2670 1526 1841 3390 3246 2750 1681 2299 1862 3941 3574 3144 3434 2407 3534 2368 1855 3284 2311 2576 2925 3064 2120 1996 2424 3507 2267 3650 1856 3360 3796 2905 2682 1870 1950 3132 3016 3340 3478 3984 1866 1765 2355 1961 2460 3674 2067 2401 3661 2331 2083 3779 1987 1565 2081 2890 3052 2366 3194 2450 2140 3010 3447 2994 2572 3735 2162 3542 2055 1749 2570 2681 1561 2330 3545 2698 3639 3179 3949 2951 2965 2723 2666 3743 1978 3368 1665 3797 2470 2060 3398 3379 1505 1548 2764 2590 3544 3067 2299 3995 3066 1614 3511 2705 2470 2655 2315 3101 2752 3731 2802 2632 3583 3453 1506 2692 2988 70 81 59 10 53 54 40 85 26 79 16 26 48 81 78 79 32 96 34 82 17 64 18 75 56 73 20 92 43 13 85 80 76 67 5 18 17 10 26 42 29 14 60 0 41 57 31 14 12 10 10 45 9 70 82 11 21 9 61 42 25 77 72 35 11 80 54 52 80 20 56 10 73 19 15 3 42 38 16 64 91 96 19 20 63 53 40 7 19 6 57 78 91 55 14 5 86 27 50 23 3557 1705 2121 3348 1987 2794 3322 3280 2864 3082 2616 2736 3508 3936 2670 2728 3547 1638 3786 3040 2611 2347 3082 3475 3864 3558 3820 2456 2476 1750 1839 2695 2649 3186 2347 2747 2115 2327 2761 2992 3568 2252 2302 1512 3219 1895 2577 3359 1958 3069 1805 1543 3917 3149 3971 2416 2070 1742 3309 3640 3979 2037 2405 3897 1572 3804 1821 1824 2539 2403 3957 3906 1801 2312 2358 2852 3976 2355 3483 2170 3666 3348 3298 2408 2132 1728 1836 3646 1827 3105 2383 1563 1628 2116 2795 2118 3755 3084 3532 3995
2575 2911 3134 2267 2572 2492 2306 2401 2059 2160 3975 2419 3161 3041 2888 3144 2137 2307 3334 3061 2047 2081 2033 1740 1673 1928 2979 3013 1921 2276 2586 3117 3122 2736 2272 2951 3645 2168 2912 1719 2431 3373 3841 1883 1615 3357 3560 3268 3638 3611 1674 2727 1930 2604 3618 3443 2093 2280 2445 1935 1587 2136 3072 3754 2455 2361 3870 2081 1719 2819 3812 2135 3518 2537 3887 2612 3631 2843 1883 2659 2530 3469 3563 3433 2318 2172 2722 2638 3350 3348 3020 3498 2492 3109 3481 1509 3600 2471 3785 2234 1560 2584 1606 3338 2979 3091 1835 3024 2953 1746 2390 3598 3178 3816 3630 3103 3677 3161 3253 3708 3003 1525 2756 3607 3542 1604 3106 2374 3411 2910 3038 3776 2461 3101 1827 1710 1559 1965 3826 3379 3083 3711 3699 3108 3976 2886 3541 2189 2978 3635 3138 3625 2690 2366 3614 2664 3484 1514 1902 1810 3814 1514 3133 2594 2103 3095 3944 3837 3417 3298 2418 3212 2971 1955 3180 3077 2045 2365 2824 3821 1675 2767 2584 1868 1789 2576 3926 3250 1793 2179 1661 2710 3254 3381 2593 2593 2798 1910 3860 3162 88 5 98 69 54 78 92 68 35 31 92 65 46 33 45 78 64 47 80 31 55 43 22 74 74 52 3 2 27 68 86 38 92 35 19 77 36 69 9 43 74 70 21 41 0 26 68 97 10 6 57 44 5 53 76 6 90 12 48 84 40 78 87 96 35 55 10 25 7 10 60 23 5 67 29 87 64 59 73 46 67 17 72 16 29 89 74 43 32 24 40 42 21 23 11 62 29 85 43 26 2092 1934 3362 2087 3667 3971 3760 1901 2168 2257 2284 2761 2055 2688 3320 1834 3320 2914 1711 3897 3869 3948 2243 3527 2018 3017 2334 3031 2843 2936 3948 2469 2183 2441 2219 3775 1524 2377 1956 2919 2266 1999 2796 2729 2544 2499 1835 2791 2201 1805 2859 3163 3441 2023 1804 3312 2615 3474 3372 1980 3652 2688 3218 2457 2306 1812 3353 1782 1545 2525 2222 3267 2449 2591 1506 2562 3552 1814 2214 3290 3731 2607 2166 2777 1627 3100 2897 3648 3692 3212 2386 3341 3371 3840 3513 2613 2702 2849 2766 3062
3683 2309 1958 3855 2826 2078 1509 1557 1761 2941 2357 3986 3189 3808 1557 1772 2638 3985 2897 3428 2666 3633 3289 3567 1874 2640 2061 2522 2652 1934 3411 1775 1599 2080 1737 1690 1968 2202 1769 1743 3941 2856 2104 3149 2128 2934 3137 3554 2836 3061 3624 3362 3958 1741 2754 3401 1935 3126 1840 2795 3035 2385 2785 2245 2925 3339 2427 2538 2201 3511 3615 2045 3679 2973 3133 1992 1530 2597 3210 2843 2605 2089 1667 3937 2574 2078 3375 1656 2206 2264 1990 2240 2996 3316 1525 3200 2705 1961 3045 2521 3589 1712 3076 1866 2034 3226 2011 1701 1875 3748 2627 3154 3622 3427 2281 3061 2534 3779 2320 3254 2879 2730 1943 3713 1747 2197 3318 1597 3448 3269 3717 2770 3442 2258 3411 1807 2907 3545 1948 2328 2309 3741 2942 2050 2432 3442 2964 3718 3693 1975 2127 3043 3512 2470 2469 3108 3664 3843 2039 3893 1858 3128 2596 1868 1849 1532 3877 3793 1549 2850 2444 3508 1760 3239 3201 3122 2815 2767 2333 2117 3161 1923 2653 3011 3338 1606 3180 2057 3685 2896 3660 3826 2139 2124 2845 2604 2166 1551 3333 1826 35 62 54 47 42 64 82 81 56 59 71 62 40 76 88 86 66 48 96 37 1 21 18 23 88 69 89 51 50 26 42 27 19 9 19 27 88 62 83 90 10 9 60 57 26 0 75 48 86 55 17 39 90 32 59 44 34 85 7 18 98 59 54 78 17 6 5 99 38 44 44 35 74 93 72 76 34 27 15 96 70 42 97 41 84 38 43 47 24 76 56 79 9 35 18 36 73 73 20 72 3145 2436 3849 2089 1786 2828 2461 3715 3169 3667 1845 2124 1537 2213 2939 2325 3989 3950 3720 3961 2403 2868 3258 2196 1894 2245 3167 1821 1700 2851 2466 2165 2995 3263 2787 3788 1995 2964 1843 2091 2786 3956 3215 2324 1605 2999 3015 3281 2489 2038 3217 2178 3946 3955 1741 2369 2262 3153 3008 2436 1852 3718 1606 2497 2945 1786 2145 2327 1582 1678 3180 1725 3723 3023 1564 2447 2812 2753 3485 3460 2855 3535 3585 3615 2070 1613 2035 3409 2606 2901 2545 1808 1637 3669 1536 2987 2234 3470 2335 1509
3915 2711 3784 3319 2918 3663 3927 3915 2723 1577 2369 2213 2412 3551 3597 3120 3920 1654 3529 3126 1574 3601 1526 1997 3860 1897 1734 3981 1550 3010 3332 1899 2198 2422 2343 2584 2423 3711 1648 2689 1790 2031 1933 2333 3994 3672 3361 2652 3048 1615 3283 1532 2962 3999 2225 2018 1602 3163 3119 1869 2794 3284 3600 2331 2189 2884 3726 1964 1917 2076 1736 1903 1815 2647 3009 2547 2913 3628 1755 3504 2450 2373 2426 3579 2506 3698 2420 2907 3050 2625 1926 1530 2064 3280 1836 1730 1917 3938 3526 3752 3940 2463 1714 1767 2228 1784 2847 3654 1748 1513 3824 2823 2676 3457 1965 2750 3197 2488 2919 2642 1555 3347 3685 3984 3112 1549 2764 2341 1897 3951 3163 2056 2536 1944 3421 1684 1919 2706 1723 2812 3261 2168 1976 3200 2354 1606 2331 3986 1765 3715 3209 1521 2463 2525 1711 3645 2678 3594 2823 2608 3556 2984 2489 2133 3915 1653 1525 2997 3000 2784 2210 3914 3472 2440 1711 2321 1730 3415 3271 2958 2870 2541 2566 2489 3203 2798 2431 3144 3024 3916 1838 3451 3550 3879 2219 2437 2147 3416 2769 1819 82 15 35 45 32 92 39 73 81 60 46 86 68 56 73 35 9 29 66 12 95 95 36 84 96 15 68 13 12 40 2 7 39 75 45 3 57 39 48 71 42 10 82 31 68 75 0 77 49 24 47 27 23 93 53 43 60 74 41 42 17 23 43 68 62 84 36 69 6 7 20 6 22 71 63 40 69 87 9 71 24 55 87 62 97 91 75 60 51 83 86 44 25 11 69 12 52 79 48 95 2347 3702 2972 3348 3247 2171 3065 3945 3229 1603 1508 1719 3529 3063 2398 1716 1945 3951 2339 2744 3739 1754 2392 3440 2241 2185 2555 2927 3091 3852 2254 1767 1804 2832 1561 3964 2993 2961 2963 2101 3616 2426 3206 2552 2493 1766 3701 3548 1704 3556 1514 3127 3408 3594 2971 2988 2681 2055 3329 3137 3075 3483 1570 2372 3367 3636 1556 3012 2751 2650 1708 3242 2144 2311 2420 3588 2606 1543 3358 3850 2829 2550 2407 3370 3290 3190 3214 3063 3990 3125 3787 3372 1936 3855 1884 1917 2618 2449 1604 3445
1852 3024 2239 3505 3077 2705 2792 2932 1507 2264 2912 2977 3703 1536 3558 3331 3512 3057 1654 2608 3272 1994 2137 1685 2018 2724 2615 2309 2682 2924 1961 1819 3177 3306 2490 3602 1799 2635 2962 2617 2653 3287 2476 2429 3799 3702 2469 3021 1721 2652 2600 3187 3149 3056 2099 2770 2140 3708 2641 3631 2709 1538 3278 1643 3609 2975 3232 3641 2114 2730 3859 3187 3294 2055 1920 2400 2188 2688 2484 2576 2261 2515 1644 2077 2977 2667 2641 2632 2563 2174 2925 2152 1654 2052 2294 3550 1610 3525 3890 3972 1936 1586 2996 2464 1573 2249 1701 3464 2476 3156 3532 1971 2472 3433 2879 1838 1597 3928 2522 2499 1746 3534 1580 2655 2259 3111 3505 2344 2725 1991 2555 3206 2793 2419 3627 1639 3497 1688 2653 1746 2940 3730 3436 2251 2775 2723 3163 1696 1621 1885 1780 2989 1608 2960 2381 2723 3701 3862 3665 2373 3310 3500 2777 1623 1845 2585 2720 2730 2217 2254 2672 3863 1714 2654 2851 2867 1634 2970 3616 2879 2236 3853 3573 3096 1726 3743 1699 2818 2049 1632 3021 2750 3015 3596 1853 2160 3494 2611 2258 1655 7 36 20 33 41 55 2 75 49 67 62 51 84 18 79 23 96 55 59 94 38 55 86 12 44 28 45 69 7 5 60 16 73 14 96 85 40 48 47 69 76 86 46 14 97 48 77 0 4 60 98 86 80 58 5 2 49 48 96 14 25 40 16 94 24 25 75 60 92 84 98 81 41 69 46 19 62 92 96 45 96 24 1 59 4 60 62 87 65 45 33 49 60 40 84 33 69 40 38 2 2472 2017 2880 3333 3970 2294 1689 1974 2240 3945 1858 3092 3190 1807 2412 2524 2072 2191 1777 3395 2566 2768 1984 2429 3777 3043 1587 3213 1658 3592 3783 3952 2662 1544 1609 3861 1672 2487 3269 1924 2507 1689 2564 1984 1833 3651 1765 3923 3718 1608 2062 3787 1777 3157 2563 3674 2190 1858 2324 1899 2530 3908 2236 3399 3153 3224 2054 3535 3900 1618 2793 3230 1750 1883 1848 3291 3238 2500 3263 2179 3019 3371 3778 3751 3362 1528 3210 3016 3246 3168 3680 3607 2488 3845 3080 2311 3114 1535 2074 3383
2905 3747 2695 3298 2386 3360 3669 2001 1924 1998 3316 1644 2337 1796 3421 2694 2605 1517 3329 2527 2371 3204 1724 2577 2371 1622 2505 3385 2077 2943 3215 1651 3995 3864 3272 1643 1930 3721 3032 3216 2849 3787 1686 3601 1802 3450 3075 3122 2045 1552 3252 1984 1562 2808 1843 3484 2905 3433 3418 3384 2579 3442 3906 1872 2170 3478 2029 2728 3549 1507 1778 3780 1505 1536 2371 2642 1955 2714 1858 1901 3826 3593 2054 3838 3546 3063 1836 1746 2901 2102 2234 1721 2558 3306 1738 2016 2072 3354 2583 3735 3517 3922 3490 3393 3735 3986 3960 3362 3772 2697 3333 3063 2781 2974 1640 2278 3552 3565 3195 3627 3752 3971 3021 3764 2758 2541 2439 2329 1977 3052 1546 3975 2212 3438 3010 2834 3543 2161 3465 2814 2786 2332 2306 2450 2504 3849 2420 1838 3620 2040 3527 2628 3380 2100 3886 3236 1971 2937 1533 2947 1533 2723 2188 3198 2533 3395 2089 1902 2597 1892 3233 3410 3363 2771 3232 3567 2487 3686 3103 3792 3285 1889 3298 3519 2751 3592 2677 1871 1507 1647 3615 2290 2527 3736 3957 3583 3261 2286 3815 3257 83 2 56 13 91 45 92 74 32 81 57 93 19 88 2 10 73 94 57 84 42 33 77 31 76 99 15 54 11 84 29 79 5 19 57 68 96 41 93 57 98 11 86 12 10 86 49 4 0 34 70 46 69 81 94 15 32 10 26 90 12 4 72 2 55 59 60 92 54 31 77 67 49 88 55 35 40 56 28 22 57 22 52 88 77 9 78 67 48 64 20 33 62 47 65 8 66 43 6 97 3546 2749 3762 3013 2457 2044 3905 3225 3700 3306 3650 1629 2757 3827 2125 3849 3628 3725 3260 2270 2460 3400 3285 3314 1529 1972 2409 3083 3180 2180 2658 2818 2654 3855 2691 3476 3093 2081 2465 1609 3134 3037 2725 1709 3390 3767 1598 3098 2020 1796 3526 3686 2808 2552 3110 1509 3663 3914 3295 2406 2192 2701 2287 2098 3121 2569 3559 3395 1621 3632 2095 2807 3739 1990 2770 2189 1890 3827 2327 2765 2978 2107 2328 1615 1807 3351 1873 3831 3107 3893 1741 1677 2315 2928 3656 3083 2710 2476 2331 1623
3403 3828 2936 1805 2156 2697 2432 3468 2631 1815 1826 2551 2903 3200 3539 2634 2623 2312 3559 3509 1941 3600 3528 3802 3620 1950 3522 1813 3187 2603 1647 2889 2051 2417 2621 3483 1567 1611 1958 3913 2259 2122 2422 3889 2497 1560 1550 2956 1621 3369 1817 2514 1981 2331 1994 3397 1523 2780 3131 2063 2142 1974 3461 3756 2440 3619 3472 1721 3958 3604 2332 2066 1971 2828 2666 2340 2971 3390 1845 2323 1561 1507 2518 3169 3111 3806 2842 3511 1823 1795 3908 1612 2169 2183 3628 1771 3467 1931 2255 3902 1590 3260 2842 3929 1530 2659 2024 3765 1513 2867 3112 1892 2134 2911 2585 3534 3540 2914 1672 3857 3602 3333 2725 2272 3955 3593 2286 3209 3016 3266 3537 2836 2844 2040 2097 2619 3876 2505 1952 2912 3514 1986 3141 2134 2444 1516 2938 3873 3076 3966 1670 2966 2122 2307 2118 3726 3585 3967 3270 1890 3684 3251 3280 1927 2059 3906 2785 2242 3148 3750 1600 2207 2832 2783 2467 2016 3978 2936 3017 3921 3300 1811 2794 3467 3029 3197 2310 3457 2939 3114 2988 1898 3127 2674 2805 2751 3795 2503 1781 2415 96 75 56 40 86 85 78 77 63 59 73 76 82 54 49 98 45 3 3 33 75 85 97 21 71 61 51 96 10 88 41 6 84 62 95 80 60 57 71 77 44 88 60 10 6 55 24 60 34 0 4 75 90 15 10 29 15 94 50 22 7 18 65 19 32 30 60 57 66 3 93 3 92 29 50 53 59 15 60 1 25 23 47 97 79 16 43 80 91 51 63 25 45 22 24 85 48 7 92 44 2351 2665 3224 1700 3923 2776 3081 2484 2858 3400 3488 1961 2847 1704 2890 3929 1545 1899 3278 3959 3597 1844 3812 2389 3926 2287 1861 2988 3255 1936 2649 1672 1938 3597 3829 3952 2064 2436 2003 2135 3341 2480 1725 2044 2045 3173 3955 3644 3976 3108 2589 1821 2814 3030 2134 2337 2833 2387 2035 2385 3607 2795 1503 3068 3142 3789 1656 2727 1538 2195 3405 3325 2739 2368 2411 3584 1638 2003 3518 2038 1860 1788 3869 3231 2791 1626 2837 2505 1568 3933 3603 2158 3756 2748 1772 2700 1537 3150 3920 2556
2147 1715 1937 1759 2641 2002 3791 2982 2094 2945 2447 3200 3116 3179 1781 2759 2880 3487 2942 1766 3444 3422 2251 3331 1967 3773 3308 2647 2321 3150 2089 2794 2229 2471 2731 3740 3621 3133 3680 2873 3046 2239 3594 3585 3388 2619 2760 2844 1605 3518 2427 3866 3757 3431 1677 3856 2664 1543 2876 2368 2820 1840 3921 3733 3805 1951 3214 1967 3698 3419 2472 3588 3091 2111 2192 3848 3670 1804 1581 3162 3280 1811 2433 2524 2150 3549 3715 2795 3992 3519 1979 2287 3982 1894 2527 2653 2060 2480 3900 2424 3452 2378 1565 1965 2539 3405 3182 1610 2753 3547 2710 2272 3700 2873 3803 2813 3555 2508 3098 2166 3161 3049 2390 1773 3175 3102 2765 3344 2041 1706 2460 2090 2623 3811 2944 2139 3587 3557 2703 2539 3119 2968 1711 2572 2987 3850 3546 3369 3095 3583 1967 2868 2550 3018 3965 2527 2098 1931 2678 2281 2213 1558 1822 2070 3790 2066 2299 2954 3456 3010 3907 2660 2956 3015 2714 2385 3048 3888 3303 2432 1548 2567 3206 2509 2663 3018 1874 3512 3633 3130 2460 3529 2621 3838 2172 2244 3035 1656 3043 3065 72 23 15 85 54 74 7 99 51 15 79 82 55 30 98 25 9 81 16 28 18 49 13 91 51 50 2 88 12 79 66 27 54 75 54 31 9 13 72 37 12 95 31 10 57 17 47 98 70 4 0 71 85 20 48 85 83 80 29 48 73 67 99 72 16 13 91 10 56 96 98 18 10 57 44 63 84 6 44 83 72 95 29 30 2 93 42 46 52 29 24 28 92 79 79 54 95 65 75 9 1863 2733 3433 2194 1978 3323 2641 1611 3436 1935 3311 3254 3421 3605 1852 3920 1920 3679 3289 3635 3177 3272 3211 3115 1827 2565 3275 2354 3554 2838 2284 3233 2006 1755 3773 3859 2312 3341 2896 3742 3761 1737 1975 2101 2970 3611 2179 3504 3266 3499 3950 3352 1596 3142 2032 3474 1585 3644 1841 2673 2877 3182 2566 2803 3916 2908 2253 2726 2394 2511 2472 3894 1579 1669 2171 2516 2184 2276 2486 2713 3207 1663 3371 3836 3433 3040 2194 3361 3228 2135 3332 1854 3619 2942 1609 3940 2187 2201 3262 2251
2181 1947 1857 1811 3852 1904 3707 1675 2572 3692 1631 2240 2734 2767 3126 3050 2192 3823 3434 1536 2894 3477 3782 1743 3434 3570 2190 2583 1781 3830 2867 1990 3070 3070 3261 1642 1941 2932 3898 2979 2009 2566 1733 2750 3413 2530 2279 3241 2263 1623 1696 3527 3864 1583 1661 2521 2015 1554 3807 1720 2325 2118 3837 3617 2883 2698 3578 2837 3803 2119 1752 1687 3670 2911 1681 2151 2093 2998 3164 3153 1834 2829 3146 1945 2853 1823 1902 3431 1946 3875 2626 2010 1965 2065 2547 3629 2715 3904 2285 3379 2791 2855 2649 3410 3285 2491 1722 2667 3471 1707 2096 3627 2110 2995 2685 1978 2395 2893 2429 1975 3596 3665 3963 1908 2987 2984 3677 2212 3543 2335 3794 2064 3698 2704 1862 3388 2485 3742 3839 1845 2941 2294 1874 2483 3412 3311 3676 1607 1930 2523 3242 1557 3733 3911 1634 2994 1569 1764 3721 3471 3179 1614 2375 2471 2626 3433 2934 3866 1626 2701 3843 3501 2549 2527 1896 3397 1717 3895 1598 2866 2212 2780 1881 3997 3762 2866 2887 3167 2761 2204 2096 3050 3472 2497 2203 3104 3067 3621 3413 2088 45 37 45 65 88 60 74 17 17 94 5 60 68 66 73 9 68 28 53 5 68 14 11 50 75 72 49 84 92 77 62 93 62 33 35 31 35 86 65 11 31 78 10 45 44 39 27 86 46 75 71 0 71 67 3 14 45 82 84 47 9 71 63 16 78 76 13 5 92 48 12 93 98 41 21 48 2 65 57 81 73 58 79 79 92 59 34 68 21 55 60 79 51 60 83 95 86 78 57 74 3342 2702 3247 2463 1934 3586 1767 2281 3869 2535 2929 2866 3657 3014 2036 2330 1588 1719 2453 2239 2819 3238 3034 3851 2749 3152 2047 2108 2192 2212 1816 2411 2505 3460 3316 3593 3191 3208 2320 3622 1704 1821 3588 1900 2789 3210 3063 3146 1782 2156 1631 3359 3429 3030 3499 1853 3035 2609 1934 1763 1691 3690 3892 2541 3920 3498 1540 2445 1759 3651 2643 2943 3942 3425 3670 2851 1931 1660 1858 2612 2886 2905 1948 3750 2202 3832 2991 1887 2943 2283 1893 2388 2939 2455 1879 2337 3617 3053 3552 2854
2104 3240 2687 3889 2998 1712 2710 3224 3033 2176 3224 3812 3438 1793 3017 3479 2759 2129 2362 3501 1702 3676 2563 3890 2476 2864 3008 2215 1720 1629 2407 1531 2169 2877 3792 2852 3318 3335 3093 3252 3802 1781 3474 2903 3703 3855 3831 3310 1732 3813 3705 3637 3416 2162 3566 2072 3910 2428 3352 3741 2851 3611 2057 2463 2639 2377 2849 3881 1946 3438 3898 3409 3836 3701 1791 1931 3907 2865 3313 3287 3235 3677 1760 3894 3566 2946 2628 3474 3009 2606 2821 3773 3667 2399 2852 3378 2766 1716 2211 2810 2176 3755 2550 3840 3481 3297 2394 3902 2654 1857 2245 3598 1568 1725 2615 2102 3236 3790 2847 3142 3677 2419 3824 2790 3294 3538 2969 3317 2297 2688 3065 2179 2206 3012 3792 3997 1638 3253 2906 2266 2471 3035 2842 2836 3494 1979 2853 1990 1539 3961 3988 2444 3798 2656 2562 2221 2433 3175 2054 2113 3909 2210 2218 1778 3517 3915 3300 3097 2355 2827 3134 3363 2387 2804 2271 1590 2961 1557 3379 1734 3944 1624 3581 3726 1861 1563 3497 2962 3844 3071 3678 2265 2529 3869 2839 3705 3234 3912 2136 3581 63 34 43 24 49 41 87 4 16 66 25 30 49 44 24 54 45 70 34 90 3 81 61 69 39 7 56 88 32 67 96 56 38 26 83 41 14 71 76 88 7 4 61 9 5 90 23 80 69 90 85 71 0 25 1 37 36 7 99 16 67 82 54 37 22 44 46 22 24 88 66 59 90 45 27 62 39 11 58 87 75 58 85 87 39 14 44 77 24 86 4 82 99 40 1 26 61 5 9 5 2055 2471 1546 1529 3475 2217 3293 3467 1820 2427 2373 2805 3860 1883 3580 2847 1862 1660 2904 2534 2128 3263 1873 2972 3028 3530 2165 2024 1720 3161 1512 3595 3721 2184 1689 1683 2923 2439 3948 1702 1571 2094 3267 3338 1804 3026 2449 1798 3964 3539 2743 1980 3613 2334 3177 2245 3237 2825 3491 3497 2557 1888 3638 3279 3957 2399 2041 2690 1747 2570 2691 2078 2950 1673 1641 2347 1781 3653 3269 1604 3876 1715 3747 3305 1985 1798 2248 3256 2574 3216 2598 2921 1893 2917 1693 1751 3023 3611 3285 2982
2024 2015 1534 3040 3428 1550 2335 2298 3415 2217 3600 3083 3288 2974 2945 3658 2324 1566 1873 3376 1712 1946 3776 3823 1849 1976 3118 3940 1623 2292 3464 2903 2495 2769 3521 1674 3246 1514 3448 3849 3891 2495 1985 1902 3347 3793 1649 1695 1506 3912 2096 3284 3130 2411 2639 2263 2319 2972 2732 3488 2985 2851 2189 2217 1963 2162 2157 1562 3828 2918 2049 1897 3333 2866 1863 1717 1618 3872 3442 2871 2028 2876 3961 1604 1756 2202 3862 3200 2023 3136 3791 2113 3832 3276 2322 3382 2626 3923 3342 1872 2253 2574 2737 3842 1895 2051 1798 3232 2664 2613 2195 3186 3067 2444 1694 3872 3835 2053 3614 3734 3215 1562 3602 1978 3080 2036 3237 3784 1925 2813 2821 1576 2614 3525 3199 2395 3338 3124 3312 2214 3399 2931 3128 3825 3885 3115 2224 2364 2546 3914 3141 2713 3731 2633 2360 2035 3786 3572 3299 2744 1825 1931 1753 2327 2858 3266 1806 2031 3906 3600 3248 2565 3989 3262 3736 3580 2465 1799 3680 3540 3293 1902 2603 1639 1612 3790 2279 3252 3587 3346 2809 3683 3637 3058 1686 2787 3025 2364 3315 2926 99 16 44 74 32 74 37 45 14 62 97 26 98 23 12 77 80 90 88 99 57 48 2 6 45 76 5 86 55 27 92 77 41 72 82 19 86 87 75 99 70 2 70 70 53 32 93 58 81 15 20 67 25 0 77 52 35 62 96 59 39 34 11 89 93 60 18 23 75 63 52 58 60 28 61 16 8 71 69 94 98 3 17 80 99 12 86 91 81 25 7 88 40 22 26 85 27 81 5 76 2382 2402 2580 2341 3605 3159 2573 3029 3018 2016 2114 3308 1519 3572 3539 1597 3718 3576 2756 1926 3852 3285 3429 2595 1922 2791 3576 2286 3636 2231 3357 2737 1664 3159 3723 3670 1996 2829 3149 2260 1631 1820 3989 1626 2067 2522 2973 1630 1505 3148 3589 2197 3968 1785 3521 1572 1857 2138 1957 2714 2703 1735 2981 2340 2788 2178 3442 3041 1766 2759 3263 2545 2197 1554 3652 3280 3940 1540 3312 1565 3053 1638 2502 2944 2557 2472 3519 1919 1604 3884 1960 3060 2242 1582 3912 1703 3375 2767 3825 2991
3720 2319 3010 3798 1570 1928 1719 1791 3004 2329 2995 3092 1853 3451 1642 1898 2578 2515 3923 2424 3466 2888 3582 2961 3341 1816 2787 3741 2367 3252 2985 2400 2331 1635 3042 1979 3518 1857 2349 2475 1917 3496 1567 3479 2406 2241 1612 3739 3707 2688 3587 2355 2805 3101 2929 2429 3214 3772 1870 3746 2738 3577 3321 2041 1863 2489 2528 3196 2399 2808 2391 1825 3211 1779 3319 3657 3100 3816 2769 2364 3482 1644 3307 3639 2224 2817 2416 3587 3678 3293 3447 1987 2722 1911 2716 3907 1906 1683 3333 3952 2338 3856 1764 1533 3718 1797 2008 2253 3392 3307 3198 2084 3865 2005 2276 3985 3706 2421 1765 3737 2699 3550 2836 3205 1697 2768 2769 3161 3510 2532 2430 1510 1848 2310 3930 1831 3086 3114 3133 3250 2494 2131 1905 1963 2729 3788 3440 2706 1992 2805 2075 2473 2307 1748 1613 3112 2894 2825 3745 1779 2084 3312 3026 2068 3110 2936 2732 3807 2002 3663 3021 3367 2379 2296 2821 3015 2841 3429 3030 2739 3554 2739 3401 3667 3826 2921 2446 1677 3013 3876 3329 3525 1721 3121 2132 3563 2964 1686 3013 3962 85 12 47 72 97 73 36 65 76 63 69 25 89 76 80 95 68 69 9 78 58 88 15 44 74 22 62 30 39 62 78 27 47 26 35 32 58 57 78 68 19 89 28 82 76 59 53 5 94 10 48 3 1 77 0 77 24 45 30 50 6 40 76 48 10 99 48 14 19 37 87 19 65 87 32 18 53 16 86 30 76 48 51 47 89 59 60 82 50 27 13 75 78 19 85 57 37 61 3 80 2134 2711 3507 1711 2723 1846 3326 1552 2541 3660 1566 2671 3146 2040 3047 3890 1978 1829 2174 2003 3712 3348 2398 3874 1921 1536 3446 1926 3132 2855 3898 3595 1607 1768 2086 3250 2563 1975 3709 1934 2780 2256 2370 2885 1952 1972 1502 2404 1582 2882 3344 3917 2326 3313 2843 3642 2597 2233 1905 1625 3815 1548 3180 2668 2840 2513 2194 3062 1897 1992 3688 3754 3023 2613 3520 2453 2489 2127 3962 2636 1963 3446 1686 2965 3193 3028 2348 1677 1827 1875 1707 2345 3448 3937 3961 3051 3169 2185 2071 1991
2046 2963 2584 2178 1748 3092 3156 2447 3482 2552 1822 3300 2923 2709 3892 3271 3927 3440 2320 2528 3582 2908 3161 1678 2339 1658 2363 2990 2656 3398 1754 3374 3357 3991 1817 3517 3133 1665 3171 1854 1628 3065 2991 3128 2263 2550 3421 2877 3934 3929 3144 1950 3131 1604 3965 2023 2657 1937 2300 2411 3850 2100 3966 1694 2121 2472 3890 1840 2617 2471 1941 1926 1602 3328 1953 1673 2173 1848 2606 1836 3122 1781 2128 3485 1722 1573 3199 1567 3863 3355 3681 2503 3838 1625 1886 3646 1692 1642 2648 3612 2161 1873 3510 1703 2652 2896 1678 3433 2196 3431 3467 3718 2485 1730 2280 2115 2125 2128 3581 2034 3901 3409 2425 3648 2198 1746 2645 2975 1952 1759 2480 2811 1767 2186 3381 3433 2082 3322 3067 1854 3102 1547 2643 3373 1638 2969 3275 1714 3106 3802 3895 2917 2602 2456 1773 3577 1967 3476 3197 1515 2556 2766 3354 2795 2609 3217 3428 1957 3182 2166 3900 3533 2127 1819 1606 2116 2407 3051 3978 2487 1545 1705 2506 3860 2882 3864 3512 3546 2020 3656 3275 2111 3513 1783 2538 1793 1950 2277 3397 2580 52 93 5 91 21 38 57 73 91 3 61 75 78 14 50 69 26 96 40 7 38 73 55 52 97 22 88 29 24 63 8 62 69 73 96 63 76 13 30 54 68 41 91 11 6 44 43 2 15 29 85 14 37 52 77 0 95 17 31 95 49 20 99 25 97 77 66 50 83 29 62 27 85 31 81 92 11 34 29 81 45 80 92 23 81 43 56 13 73 38 79 8 9 53 65 68 3 99 22 2 1800 3659 2896 3447 2153 2845 1577 2554 3372 2956 3434 3810 2359 1804 2536 3491 1968 3437 3308 1583 3643 1530 1782 3451 3253 3972 3562 3344 3916 3247 2501 2459 2975 3469 3310 3745 2288 2547 2685 3413 2904 2781 3271 2907 2159 2224 2300 2777 2839 3986 3586 3509 3128 2326 1804 3076 3320 3331 3699 3275 3391 3624 3739 2608 2854 3114 2530 2846 3296 2034 2135 2560 1615 3892 2616 2921 3782 2317 2549 3432 2872 1693 3266 2743 2182 3417 2130 1932 2209 2237 2953 2865 2503 3213 3548 1504 1716 2967 3424 3242
2064 1938 2097 2825 2349 2736 2760 1516 2453 2146 2603 3699 1711 2804 1663 3411 2663 3243 3841 3962 1972 2144 2425 2643 2931 1868 2633 2909 2206 2776 3189 2985 2570 1522 3445 3140 2733 3260 1763 3288 3953 2130 1980 1685 3544 1812 2667 3638 1976 2386 1896 2044 2431 2143 1997 1909 2174 1868 2731 1641 2407 2457 2215 3591 3693 3703 3643 3129 3197 1559 3164 1988 1984 3026 1660 1705 2822 2754 1922 3873 1840 2638 2105 3088 2516 2131 2017 3008 3327 2195 2089 2146 1716 3645 1677 3297 1717 3846 2564 3388 2017 1729 2431 2432 2037 2814 3136 2531 3468 2825 2020 3784 3249 1525 2454 2528 2213 2783 3493 1896 3101 3132 2616 2541 2849 1709 2010 3869 2765 3138 2181 3645 1844 2085 2234 3090 3526 2638 3764 3765 3829 3791 3382 1739 1573 2226 3864 3800 2485 3572 2243 1808 3555 1797 2436 1896 3490 1656 2343 1621 3940 2994 3748 3963 2788 2215 3011 2358 1547 1823 3302 3475 3156 1751 2855 3256 3642 2777 1553 3436 3708 3612 3480 2303 2016 3680 2321 2707 1921 3813 2184 1542 2598 3272 1734 2949 3777 1746 3810 2223 69 55 82 8 95 81 61 89 79 1 95 66 90 27 39 22 29 62 14 44 61 54 76 96 76 56 29 43 69 4 95 62 88 60 87 64 69 37 51 76 24 16 26 21 90 34 60 49 32 15 83 45 36 35 24 95 0 45 18 72 94 3 27 62 55 58 84 5 67 3 34 15 90 64 50 38 87 24 76 26 85 69 72 75 81 29 46 59 68 85 55 54 4 74 18 64 92 97 65 4 1801 3986 2530 2740 1893 2844 3580 2258 3591 3713 2593 2368 1725 2078 3054 3745 2939 2430 2893 1887 2583 3915 2236 2668 1958 1640 1594 3944 2629 3978 3973 3958 3447 3022 3189 3969 2321 3834 2534 3573 3745 2132 1944 2096 3635 3158 3459 3664 1976 3651 1718 3922 2231 1914 2094 2043 2096 2942 2397 2300 3221 1885 3205 2833 3560 2734 3576 2254 3792 2306 3046 2833 3855 3528 1977 3965 2910 2908 1901 3023 2676 3406 3880 3608 2113 2454 1741 3227 1967 3888 3979 2692 3811 3162 3722 2636 2180 2825 2390 2992
1813 3986 3405 2462 1513 3172 2920 3748 2975 3502 1838 2519 3727 3375 2488 3427 2071 1535 2181 3923 3572 3499 2614 3332 1718 1903 2442 2608 3976 3734 3587 3520 2147 2478 1709 2285 3239 2516 2002 3293 3383 2992 2988 2592 3984 3104 3398 1966 1745 2004 1916 1971 1931 3463 2182 2238 2826 3439 3226 3676 1502 3832 3776 2680 2670 3154 1597 1611 1641 3787 3625 1534 2267 1940 1526 2287 3169 3142 2882 2332 2895 1923 1624 3634 2473 2991 3029 2014 1805 3183 2494 2232 1697 3590 3266 2121 3330 2630 3373 3524 2517 1712 2738 3029 3756 3825 2697 3610 3316 1998 2694 3408 2388 2982 3704 3754 3614 3622 1803 3774 3886 3429 1941 3754 1548 3213 2148 2778 3052 3503 3587 1793 2697 3890 3605 3851 2295 2829 3649 3213 3467 3359 2878 3888 1822 1691 3692 2615 3824 2724 3245 3320 1674 3676 2209 3432 1935 2736 3236 2058 3171 3910 2072 2698 2850 2146 2997 3884 3201 2690 2316 2728 3545 3609 3214 3332 2827 2167 1788 2901 2200 2043 2792 2956 2104 3954 1870 2764 3418 2122 3907 2611 2821 3539 2186 2559 3009 2716 2925 1507 73 31 40 26 79 58 21 50 80 87 93 25 94 28 94 48 18 63 29 20 94 64 19 65 16 28 67 33 84 29 81 39 61 34 36 58 68 12 21 39 30 7 55 9 12 85 74 48 10 94 80 82 7 62 45 17 45 0 42 78 44 59 53 3 31 72 30 30 72 7 43 86 11 58 93 41 53 15 1 60 27 34 43 16 5 33 38 76 73 85 12 25 76 17 27 99 20 45 21 88 2555 2339 2057 3136 2027 1613 2139 2401 2769 3121 1823 2011 3367 2569 3142 3144 3349 3584 3547 3696 3991 2358 3748 2324 2474 1913 3084 3746 3461 2655 3837 3445 1774 2460 2111 2063 2066 1901 2408 3969 3376 2946 3345 2366 3504 3289 3181 3254 2511 2891 3746 2032 3271 3250 2941 3893 3694 2490 3240 3385 2880 3185 3014 2408 2247 3164 2101 3583 2931 1779 3304 3071 3082 3429 2618 2775 3445 3555 3899 3432 3917 3405 3855 3920 1580 3901 3410 2917 2134 3391 2282 2305 2943 2312 1865 2484 1509 2855 3014 2061
1811 3186 2315 3304 1500 2394 2116 1668 1522 1741 3147 2387 2093 3019 3240 2421 3792 1557 2620 2882 3760 2663 3631 2159 3549 3844 1569 3264 1543 3816 3147 1785 2047 2692 3995 3618 3632 3045 2632 2501 1678 2126 2039 3566 3865 2947 3772 1738 2520 3251 2252 3562 1989 1918 2468 1907 1644 2610 1667 2799 3597 2092 2230 1863 2657 3052 3410 3762 2623 2793 3708 2043 3592 3010 3572 2910 1565 1660 2256 2296 2463 3325 1726 2273 3943 2897 2522 2221 3857 3657 3896 3321 3385 3188 3865 1752 2096 2289 2570 3433 2732 3000 1983 2284 2243 2857 3121 3016 3390 1588 3380 2510 2939 1986 3773 2655 3223 2086 2653 3730 3304 2193 2153 2925 3999 3106 3913 3288 3452 2658 3407 3265 2531 3304 3916 3396 2640 3021 2500 2514 3010 2473 1684 2938 1911 3396 2845 3386 2043 1583 2623 3879 2054 2634 3062 3931 2495 2661 3814 2297 3547 2345 3617 3474 1744 3824 2114 3872 3360 2512 3409 3876 2695 3634 3638 2136 3889 2822 1506 1821 1837 1507 3643 2395 3975 3617 3787 3933 3172 2109 1582 2046 1660 3449 3678 2583 3729 1589 3824 2908 62 46 99 41 33 85 63 51 32 20 86 64 18 1 98 82 38 34 2 36 63 59 47 18 28 70 91 17 35 14 41 10 58 98 13 31 93 53 15 17 98 27 94 61 48 7 41 96 26 50 29 84 99 96 30 31 18 42 0 14 47 18 25 27 70 10 80 10 73 74 65 30 91 97 96 78 14 83 68 9 60 36 15 23 76 54 17 37 80 94 90 75 29 92 31 78 79 63 44 55 3884 1626 2408 1885 3009 1650 3818 2007 1559 2923 2930 3193 3726 3435 3751 3698 2058 1600 2260 3489 2823 2409 2377 3496 1900 1742 3927 2847 3449 3911 3612 3369 2774 2907 1785 2719 2217 3902 3975 2387 3402 1991 3698 3444 3196 2857 3692 3692 2258 2236 2396 1945 2285 1861 2815 1781 3990 1873 3528 3631 3695 1500 3491 3366 3988 3576 2541 3438 2333 2617 3464 2793 2078 3870 3282 3830 3987 3820 3068 3954 2572 3957 2903 3987 3609 3237 2251 3893 2125 3873 2150 2156 2811 1627 1669 2735 2349 2739 3998 2147
3446 2068 3035 1934 2966 2175 2249 3115 3771 1979 3142 3876 3318 2044 2477 2232 3277 1972 2730 2128 1950 1945 1641 1869 3917 3417 3188 1508 2935 3410 1901 1818 2522 2956 3913 2403 2200 3932 1537 3283 1646 2908 2892 2604 1769 3248 2607 2665 3277 3520 3865 3351 3123 3525 3074 2184 3726 3874 2819 2386 3699 3993 2806 2511 2364 3829 3643 3227 3484 3131 2277 1697 2344 1885 2721 1943 3128 2571 2229 2707 2035 2622 3155 1532 2505 3921 1928 3687 2004 2648 1845 3041 3892 3905 2368 3229 3014 1711 1528 1915 3765 3807 3748 2252 1937 3753 2068 2932 1530 2242 2555 1844 3179 2192 1689 3199 3424 1675 3982 1715 3829 2409 1928 3960 3209 2531 1882 2847 2411 1783 2332 3573 2646 1971 3696 1604 3169 3086 2987 2191 3880 2606 2089 3861 3982 2767 2299 2657 3691 1860 2187 1733 2891 1536 3782 2293 2754 2510 2192 3844 2926 3609 2957 2783 1705 3276 2320 3565 3822 1577 3304 1907 2677 2476 2575 3560 3675 2112 3507 1514 2842 3687 1952 2421 3636 2674 1679 2444 2721 1896 3915 2028 2480 2419 1968 3994 2910 2924 1830 2539 36 58 81 60 30 47 36 2 17 58 23 42 82 31 63 40 24 48 61 90 72 34 74 74 42 8 12 64 99 67 46 73 93 15 24 34 89 60 14 49 13 34 97 42 84 18 42 14 90 22 48 47 16 59 50 95 72 78 14 0 47 53 42 8 80 96 19 2 12 9 27 37 76 86 49 16 91 19 14 31 17 7 62 44 95 17 85 2 7 32 2 62 23 56 80 47 52 76 61 32 2279 1828 3524 3066 1690 2785 3522 3821 3857 2434 2454 2660 3060 2366 3997 2375 2914 2612 1982 2701 2463 2696 3606 1786 3896 2693 1656 3082 2427 2299 1937 2769 1737 3881 3425 3410 1782 3328 1609 3039 2281 2972 1766 1927 2229 1808 1972 3271 2362 2776 3069 1598 2790 2217 3215 1674 1726 2861 2729 3453 2512 2036 2456 3319 3445 3138 1959 1956 3661 2814 2115 3900 3620 2442 3623 2531 1697 2321 2028 2048 2653 3059 3003 2073 2141 1785 3152 3708 2661 3948 3091 2929 2548 2807 2967 2139 3631 2706 2138 2199
2220 2407 2024 3455 2706 3579 2912 3246 2620 1950 2434 2877 1865 2496 2471 1742 1558 2786 3356 3087 1808 1561 1863 3414 2937 1689 3463 3955 1808 3607 3369 2749 1630 2162 2404 3348 1681 3264 3293 3303 2912 3649 3884 3652 1892 3442 2566 2804 3659 1913 3999 3350 3899 2523 1549 3760 1587 2516 1637 1556 2907 2716 1800 3530 2568 2447 3536 3340 3664 2002 3448 2625 3689 3850 3497 1824 2638 2802 3046 2799 1913 3853 1519 2054 2369 2279 3822 1993 3213 3399 2690 1745 3866 3440 1765 1990 1819 1869 2723 2469 2755 3295 1691 2790 2019 3653 3810 2416 2822 1830 1953 3119 2127 2717 3176 3778 2400 2351 3516 3112 1957 2902 3281 3832 2613 2417 2317 3197 1697 2798 3855 2049 2096 2630 2608 2350 3621 1506 2505 3763 3255 2812 1568 3331 1832 3783 1907 2519 2819 1767 2094 3756 2543 3224 2678 2869 3383 2709 3579 3304 2363 3388 3957 3224 2547 1680 2029 1829 2777 2580 3298 3596 3583 3063 2792 3455 3869 3903 3435 2084 3659 1889 3863 3938 3403 3320 2236 3701 3135 2891 3915 1588 3656 3756 2799 2527 1926 1764 2734 2402 18 91 35 54 50 49 97 92 44 55 53 38 96 68 42 55 1 38 65 42 8 75 63 56 21 46 20 4 40 67 98 66 92 6 25 54 89 26 86 84 20 55 84 25 40 98 17 25 12 7 73 9 67 39 6 49 94 44 47 47 0 10 55 34 9 49 71 54 45 56 2 66 57 23 76 76 3 31 53 37 65 15 79 16 44 29 57 43 22 28 62 35 74 68 52 70 41 21 10 71 3655 3415 3957 2479 2755 3819 1772 2152 3813 2615 3429 3520 2700 2288 2358 2689 3449 2415 3396 2500 2443 3580 3607 3263 1703 2949 2078 3234 3567 2807 3048 3479 2115 2611 3454 1735 1963 3996 2537 1822 2723 2954 2837 3930 3638 2315 2896 1572 1634 3369 3282 3095 3827 3223 2100 2770 3745 2941 1755 2516 2283 1765 2858 1661 3749 1842 2104 3707 2925 3947 3029 2886 2323 3333 2022 1884 2718 2706 3852 2005 2239 3543 3434 3447 3434 2616 1758 2138 3182 1760 2940 3789 2784 2733 1775 2762 2808 2183 2893 3559
3504 3120 2310 3405 2666 3656 2669 2511 1785 3684 2037 3219 1789 3885 2409 2618 1839 3292 2828 2515 1978 2376 3947 1809 3083 2502 3848 2750 3642 3735 1661 1702 2732 3451 3993 2477 2103 2132 2786 2844 3145 2368 1714 2718 1562 1758 1573 1705 2222 3632 2096 3360 3907 3399 2658 3739 3605 2250 2611 3091 1520 3927 2807 2560 1703 1988 2033 3464 1819 2603 2334 3319 2508 2218 2460 2195 2488 2720 2446 2510 1737 3237 3881 2544 3056 2593 3563 3257 2077 2964 3373 2640 3462 1875 1531 3148 3980 3129 2193 1795 3628 3412 2405 2574 2701 3049 3449 3424 2516 3474 3545 3502 1703 2892 1719 2790 3089 3682 3226 1745 3310 3649 1998 2767 2719 1964 2993 3702 2732 3904 1645 3080 3910 2463 2580 2821 3107 1884 1711 2657 3923 1742 2542 3733 1804 1684 3388 3004 2573 2432 3791 3704 3291 3325 2718 2593 1954 3178 3650 3767 2835 3433 3300 2261 3594 3737 2715 1564 3472 3217 1919 3609 2524 1540 1813 2527 3240 1823 2488 2136 2595 1608 1750 2095 2965 3045 3240 1538 2787 3956 3791 3208 3988 3222 2799 3083 2696 2977 2057 2994 53 20 56 12 78 76 3 57 63 43 10 58 36 8 25 84 27 62 56 91 86 88 96 88 28 43 98 1 23 7 53 64 25 85 33 56 36 16 8 89 55 48 6 77 78 59 23 40 4 18 67 71 82 34 40 20 3 59 18 53 10 0 44 19 22 10 86 87 84 35 79 76 23 19 16 2 93 44 36 94 27 18 9 13 97 29 89 67 98 27 80 50 69 46 46 53 26 29 36 33 1877 1973 3977 2333 2634 2253 1628 2738 2408 3289 1838 2652 3882 1850 3292 1840 1622 1717 1589 2634 2015 1734 2487 1875 3864 3806 1555 1568 3030 3246 1946 3976 3524 3214 1700 3096 2050 2896 3081 3101 1739 2484 1675 3222 2208 2283 1941 1752 3136 2267 2274 1796 2605 1540 2575 1801 2302 1592 1813 3468 2671 3333 2046 2356 1668 1569 2925 1756 2737 2630 3769 2300 1530 2129 2109 2695 3804 3480 2927 2994 3452 2138 2878 2099 2796 2430 2607 1532 3326 2233 3916 3502 2806 3695 2541 2553 1633 3662 2119 3472
2965 2324 3066 3161 3020 2673 3055 2719 2174 2136 1764 2686 2107 2703 2352 2001 3924 1803 3661 3859 2304 2613 1638 3819 3693 3043 3907 3538 2647 2727 2251 3201 3275 2467 3343 2601 3573 2088 1631 3054 3019 3465 3836 1712 3321 2038 1814 1602 2279 1617 1610 3963 3005 3450 2362 1933 3971 2433 1544 2228 2842 2129 1777 3254 1513 2755 1939 2830 2148 1833 2719 1867 2724 2807 1807 3794 2092 3008 2046 1898 2652 2910 1812 3059 3676 3459 3740 3279 2732 3406 1550 3981 2917 3451 3385 3249 3483 3453 2410 3945 2292 2685 2705 2955 1911 3669 1833 3734 3571 1678 3631 3551 2308 2980 2099 3930 3141 3807 2456 2578 2278 2323 2926 3125 3441 1791 3908 3532 3439 2373 2747 2776 2235 2187 2243 1922 3291 1667 2708 2014 2021 3781 3111 3543 2147 2499 2064 3372 3967 2342 3764 2446 2187 3803 3052 3401 2593 2802 1596 2891 3609 2930 3037 2854 1635 2727 1958 1976 2757 1654 1740 1664 2626 2472 3364 2761 3996 3107 3678 2340 3495 2566 3083 3414 3740 3169 3408 2415 1876 3104 1523 3134 3468 2749 2937 2925 1656 2359 3047 3080 48 57 29 92 27 41 64 37 85 71 6 63 87 18 46 78 97 87 77 22 98 12 71 27 86 62 43 3 4 26 73 93 30 48 18 60 36 96 86 33 2 13 43 72 87 54 43 16 72 65 99 63 54 11 76 99 27 53 25 42 55 44 0 51 11 86 97 8 15 54 19 61 79 30 36 55 3 98 36 28 66 15 35 13 48 4 97 59 79 54 59 97 24 99 93 92 89 50 99 78 3630 2520 3452 1977 2265 3617 2565 3589 3941 2712 2183 3904 3666 1819 1532 2100 2956 1599 3072 2572 3860 3095 3841 2097 3789 3113 1921 3653 2183 3607 3827 3414 2988 1556 3628 3442 2383 2082 3712 3254 2371 2100 2552 3224 1628 2799 3533 2763 2886 2357 2969 2078 3344 3692 3728 2449 3034 3443 3670 3754 1797 1644 3270 1894 2919 1787 1813 2684 1696 2549 3141 3927 1874 2335 3486 3210 2461 3817 2199 3277 2566 2132 2668 3979 3043 2001 2509 3224 3380 2837 2648 1842 1775 2978 1924 3983 2247 3937 3288 3192
3646 3054 3293 3636 3555 3680 2419 3805 1578 2693 3452 3024 2137 3490 2759 3808 2163 2693 2191 3163 2012 3384 3511 2370 3797 3160 3524 2246 2805 2228 2919 1607 3121 2601 2150 1550 3792 2324 1764 2116 1504 3135 3772 3251 2056 2452 1734 2993 1853 2186 3683 2901 1776 2288 2871 3077 1911 2577 3718 1514 1520 2273 2581 2778 3668 3108 1769 2738 2590 2137 3752 3843 2869 2486 2974 3215 2703 3624 3109 3737 3288 2714 3972 1968 1784 3810 3205 1544 2636 3889 3876 3162 3164 2043 2109 3300 3260 2865 3871 1537 1864 1977 2741 3516 1850 2523 1625 2104 1926 1654 2909 3794 1890 3688 2386 1605 3962 2981 2452 2311 2131 1816 3021 3945 2599 1967 3657 2033 1803 2134 2408 2924 3375 3771 2844 2756 2951 1734 3407 2724 3794 3517 1538 3946 3016 2071 2285 2948 3174 1865 2565 3511 1751 2266 2485 1765 3469 2109 2005 2665 3993 2475 3388 2486 2809 1937 3714 3991 2338 3335 1889 3635 3990 3506 2010 3500 3457 3343 1631 2391 3936 3507 2856 2611 2276 1786 1944 3722 1792 2481 1781 3536 3622 2162 1653 1876 3880 3492 2858 2230 62 35 79 80 96 19 53 2 8 1 88 57 61 93 55 47 59 3 77 88 87 87 88 98 24 97 72 44 28 59 71 87 50 63 48 71 27 34 20 4 60 62 8 35 96 78 68 94 2 19 72 16 37 89 48 25 62 3 27 8 34 19 51 0 8 31 48 25 6 94 85 89 30 25 75 67 76 79 10 12 42 75 82 88 36 44 23 69 78 33 53 32 90 71 51 97 21 99 3 3 2324 2360 3954 2096 2487 3526 3967 3177 2278 2420 2745 2717 1820 3690 2719 2806 2487 2466 3352 3184 2276 2103 3953 1594 2236 2519 2723 1588 1962 2582 2283 1871 2101 1712 2095 3364 3753 3700 3526 1780 3440 3197 3903 2210 2764 2817 3502 1505 1513 3375 2856 3887 2311 2963 3107 1882 2264 2652 3505 1982 1708 1657 2949 3581 3488 1924 3732 1686 3927 3560 2572 3588 3319 3734 2301 3868 3277 3883 3331 2169 1727 2700 2898 3211 2480 3676 2095 1714 2699 2200 1750 3392 3946 3681 3246 3105 3025 1830 3732 3580
2885 3859 3100 3996 1732 2886 3066 3436 3988 3598 2064 1790 3808 1943 2009 3310 1786 1812 3762 2263 2296 2503 2311 2847 2088 1574 3727 2129 3722 3085 2656 2917 1739 2439 2081 3242 1917 1774 3579 2820 2383 1702 1582 2759 2878 3044 2808 2477 3590 3423 1963 3519 3892 3463 1891 2495 3005 2488 1790 2457 3205 2306 3321 2926 2491 3513 3906 1966 3051 2609 3669 2279 2988 2231 2263 3169 3733 3534 3002 1500 2463 1782 3968 2267 3777 2636 3074 2306 2223 2886 2370 3205 3579 3981 3786 1756 1744 2568 3054 2761 2913 2778 2479 2392 2866 2224 2185 3585 2293 2066 1929 1855 2354 2207 3464 3787 2983 1684 3289 1937 2761 1802 1965 3330 2955 1580 1813 3684 2281 3641 1887 3140 3085 1911 3479 1955 2551 3992 3091 2497 3219 2586 3223 3076 2264 2914 3925 2246 2680 1669 3725 3125 2076 2008 3809 3407 2373 1668 3447 3910 2971 1642 2711 3546 3038 2789 3545 3135 2440 3700 2136 2650 1565 2926 2477 2055 1776 2890 3861 2112 2998 1532 3010 3241 2752 2653 2280 2819 3004 2013 3408 3413 2693 1595 2302 3098 2386 2314 2354 2624 92 59 12 86 69 70 82 43 9 71 34 76 6 46 58 40 15 19 23 99 8 84 71 75 54 84 50 55 67 37 19 13 57 36 93 49 73 99 1 55 98 70 91 11 35 17 62 24 55 32 16 78 22 93 10 97 55 31 70 80 9 22 11 8 0 81 44 80 23 70 11 96 49 90 14 90 74 65 35 5 35 53 19 93 68 30 41 53 48 49 90 56 57 8 45 36 7 59 20 42 2055 3094 3882 2400 3874 2063 1692 2604 3786 2558 2682 1832 1979 1868 2177 3144 3480 2216 3633 2273 2358 1530 1681 2757 2295 2656 2308 2622 3528 3815 1521 2196 3442 2823 3190 1727 2035 3386 3782 2869 1608 3980 2710 2430 3476 1814 3673 3646 2880 3776 2162 2249 3842 2404 3931 2673 1516 2248 2358 2960 2345 3938 3307 1531 2187 2180 1539 3705 1966 3205 2405 3643 3606 2756 3201 2930 2471 1583 3375 2097 1647 3899 3863 1552 3497 2534 2329 3761 1865 1505 3225 2709 3541 3891 2488 3250 2201 3262 3505 2773
3410 2413 2711 1832 3391 3265 2093 3217 3128 2467 1686 2224 3960 2044 3261 2472 3891 1679 3275 3264 3506 3044 2122 1781 3339 1734 2370 2041 3250 2012 3361 2695 3669 2052 1688 2866 3888 2083 3123 2553 2181 2211 3403 2142 3594 2998 1849 3859 3152 1838 3789 3122 1703 3235 2061 3740 3366 1903 2443 2518 3165 2503 1549 2701 2672 2037 3115 1956 3254 3163 3214 3178 2162 3747 3767 1641 3990 3758 1882 1754 3900 2348 2932 3079 1838 3954 1682 3074 3341 3470 1629 2428 3792 2698 2702 3379 3332 2823 1646 3400 1539 2344 3535 3412 3534 3507 2506 1810 1575 2493 2170 3168 1827 3243 1802 3309 3398 2697 3309 3160 1613 2820 2377 3370 2433 1965 2219 3809 1842 2446 3426 3234 3142 3529 2317 3494 2814 3279 3060 2213 2097 2301 1789 2081 3122 2962 3526 2170 2449 3889 2841 2502 2846 1766 3184 2760 3185 3086 3679 3592 2689 1515 3497 3225 1785 3991 3254 2372 2495 1760 3786 2546 1702 2423 3802 1675 2481 1991 2225 1938 1886 1631 3222 1502 2754 3444 2145 3546 2495 2889 2397 1623 3636 3068 3889 1701 2102 1895 2558 3401 99 64 18 81 87 17 94 56 65 64 6 15 89 4 82 19 78 74 45 86 1 43 67 75 64 63 66 29 66 81 51 80 15 27 75 40 26 28 70 76 75 41 58 80 55 6 84 25 59 30 13 76 44 60 99 77 58 72 10 96 49 10 86 31 81 0 90 86 58 40 72 61 37 18 53 46 41 93 34 25 11 17 68 95 71 82 45 87 92 84 73 60 88 76 49 56 8 85 10 15 2802 2522 3058 1501 1954 2899 3694 2615 2536 3108 3062 2706 3055 2323 3185 3837 2946 3914 1818 3775 2485 2423 1887 3357 2487 3532 1596 1501 2382 2035 2332 2159 3618 2406 3537 3586 2599 1818 3380 1769 1861 3954 3286 3089 3173 3241 3325 2096 2646 3837 2165 1560 2769 2755 2039 2747 3585 3094 2584 3105 2073 3738 2318 3437 3959 1535 2616 2909 3997 3542 3271 2179 2450 3990 2212 3301 2506 3345 1577 2292 3560 3305 3441 3123 3945 3058 2755 2336 2461 2086 2816 2111 3623 2717 1672 1788 3487 2878 3145 2775
3524 1998 2129 3579 2105 2468 2402 3036 2946 2053 3596 3472 3766 3549 3780 2292 2576 2926 2324 3524 3994 1620 2062 1964 2594 2454 2355 3130 2267 2668 2644 2286 2785 3276 2152 3051 3926 3297 3813 1904 3295 2008 3428 2741 3161 2543 3832 2973 2486 3840 3737 1700 1558 3506 1931 2361 1956 2637 1800 1832 3335 1971 2285 3898 3138 2114 2991 3773 3379 2004 2202 2535 2938 3326 1520 2738 3113 3022 1813 2574 1625 2561 2568 2357 2213 2936 2960 2323 3810 2525 3035 2873 1816 3381 2834 2798 3316 2616 2643 3786 1775 3516 3251 2933 2132 3904 3236 2025 2812 3153 2455 2878 3361 3706 1512 1869 1713 2439 2861 3302 2619 3308 2487 1920 3692 2495 3607 3916 3127 3702 1910 1540 1966 3415 2401 3914 3323 3510 3073 3528 2428 2640 3675 1921 1568 1879 3081 3623 3089 1760 2959 3095 3707 1706 1976 2045 3788 1857 3755 3910 2543 2081 3417 1697 2397 2854 2418 1603 3009 3887 1679 2303 2160 3645 2674 3582 3284 3356 2009 3001 3320 3935 3700 3657 3151 2066 2923 2122 2602 3642 3584 3580 1575 1696 3277 1773 1880 2154 3066 1855 34 72 94 70 30 79 57 17 76 48 84 49 1 72 27 54 69 45 10 95 57 85 60 68 34 68 78 24 17 24 63 30 10 7 68 47 5 40 8 24 67 50 56 54 10 5 36 75 60 60 91 13 46 18 48 66 84 30 80 19 71 86 97 48 44 90 0 35 21 62 47 32 52 77 26 26 47 75 19 28 89 6 7 9 14 94 95 32 90 16 49 76 82 54 44 66 25 62 37 57 3176 2964 3757 2275 1874 2226 3791 1673 3969 1662 1747 3654 2436 3223 1867 3285 2351 1880 1950 1749 2170 2828 3847 1877 3331 3354 3413 3329 3040 3416 2972 3276 3937 3406 1599 3930 3106 2414 1957 1611 2645 3396 3797 3766 3033 2229 3822 2091 2114 3023 1782 3343 2738 3953 3786 2783 1726 2711 3538 3325 2712 2216 3525 1786 2846 3557 3675 2726 2843 3306 2227 2558 2243 2925 2361 1735 2743 3559 2530 3451 3289 3374 2907 3180 2416 2014 1962 2654 2420 2561 3608 1738 3908 3416 1581 3783 3687 3612 2560 1652
1652 2214 3998 2792 3249 1542 1720 3180 2579 1918 1577 3958 1830 1902 2598 2677 3005 3591 1985 3219 3479 3575 3499 1579 1570 2361 1673 2353 3726 1796 1503 1853 1872 2000 3098 1790 1926 1582 3877 2798 3013 2128 3297 2317 2444 2861 2201 2197 3449 3762 2462 2243 1695 2743 3431 1627 1754 2883 1670 2367 2567 2185 3833 2832 2584 1640 1774 3882 2613 1694 2029 3956 3141 1644 2124 2871 3231 2679 3657 3446 2914 3316 2084 1907 2871 2921 3340 2836 2838 2125 2847 3978 3374 3870 3175 3744 3652 2799 3407 1935 3743 1964 2142 1595 2453 1964 2646 3785 3132 2731 3026 2151 2626 3992 2305 3198 1617 1983 2416 1601 2275 2334 2763 3470 2864 1643 2237 2203 1991 1521 2471 3697 3215 1568 3725 2594 1875 2428 3099 1936 1503 3069 3932 3173 2551 2443 2467 3360 2347 2225 3726 3768 3416 2068 3960 3455 1635 1788 1663 2306 3329 2476 2268 2339 2958 2387 3871 3542 2712 1637 3237 2197 2888 3065 3601 2736 3761 3569 2112 2575 2299 1704 2987 3540 2816 2034 2042 2531 1502 3933 2565 1684 3400 1833 2737 1936 3699 3487 2986 3078 62 42 71 5 74 89 60 10 84 72 2 53 42 13 96 7 40 37 83 43 88 1 87 12 34 46 77 70 77 98 64 28 47 90 98 99 60 75 57 35 67 1 73 52 25 99 69 60 92 57 10 5 22 23 14 50 5 30 10 2 54 87 8 25 80 86 35 0 20 82 24 88 3 47 48 79 78 34 72 54 65 20 58 78 40 96 79 63 4 98 26 55 68 67 72 61 84 30 14 31 3983 3547 1959 1697 2550 3527 1835 2690 3903 3879 2790 2628 3371 2375 3737 3575 2612 2379 2135 3343 3347 1789 2531 3875 3734 2406 1595 3915 2599 1960 2647 3777 2840 3306 3589 2340 3173 2501 1806 1741 1942 3560 2823 2709 2015 3489 2573 2903 3207 3443 1610 2223 2521 2007 1522 3479 2189 3632 3807 2560 2966 3278 1685 1569 3396 1600 2437 3369 3932 1767 2922 2117 1709 1916 3392 3207 3181 3754 2436 2705 3848 3596 2982 2722 3305 1893 3852 2806 2156 3111 2042 1820 1678 3742 3177 2894 3499 2086 3888 1615
2901 2780 3777 3591 3509 3387 3475 2225 3714 3570 2870 2513 3044 2116 3852 2580 3231 3326 2293 2234 2398 1741 3874 3975 2813 3855 2782 1968 3860 3016 2833 2795 1937 1891 2736 3766 2291 2166 1978 1535 2130 2496 2671 2386 2765 1789 1887 1673 2244 3137 2876 3785 2673 2860 2761 2913 2772 3360 2555 3180 3013 3499 3338 3084 2703 2144 1516 2259 3014 2502 2683 3454 3203 2729 2494 1589 1833 3834 2757 3333 3054 1711 3156 3149 1754 1545 3260 2362 1636 2288 3123 3728 3152 3384 3320 1765 3190 2774 3379 3327 1834 2210 2492 3744 3051 2763 2137 1928 2202 3822 2549 2367 3159 3831 2865 3547 3283 2065 3815 2370 1707 2520 3537 3999 2861 3132 3394 2659 3961 2880 1658 3151 1843 2970 3724 1726 3634 3027 3850 3759 3386 2438 2231 2348 3946 2677 3320 3116 1786 1759 2890 1846 2194 3464 3807 1615 2662 1804 3321 1542 2883 2344 3072 3975 3988 3078 3569 3957 2960 1503 3287 3318 3275 2881 1849 3452 2401 2446 2123 1711 2939 2303 3899 2740 3000 3420 2840 1658 1976 2687 3060 2662 2814 2699 2136 3798 3953 3366 3482 2583 7 50 39 93 6 53 15 9 41 12 73 85 49 92 33 93 8 46 87 28 10 3 43 62 21 64 73 17 5 75 92 62 46 14 90 49 12 99 38 14 77 90 65 80 7 38 6 92 54 66 56 92 24 75 19 83 67 72 73 12 45 84 15 6 23 58 21 20 0 11 59 87 80 81 65 60 99 2 84 16 9 85 47 61 14 79 10 74 5 70 78 69 2 92 86 73 33 6 78 65 3656 3253 1778 2259 2406 2450 3945 3475 3352 3339 1660 1752 3639 2624 2985 2283 2865 2740 1646 3986 1554 2541 2065 3517 3875 3279 2835 3192 2252 3814 3550 2994 2324 3643 2679 3114 1678 3544 2393 1990 1798 3879 2698 3163 2144 1512 3008 3676 3350 1739 3401 1825 3080 2174 2846 1655 2120 3030 3366 2984 3015 2504 3207 3994 3430 2571 1887 3507 1514 2860 1552 2285 3237 1608 2626 3626 3934 2435 2029 3687 1843 2724 1992 3898 1848 2571 3206 3190 1654 2169 2850 1501 3795 1889 3928 2981 3125 1588 2186 3813
2636 2889 3440 2487 3964 2717 1630 3280 2534 2475 2448 2106 3224 2276 2582 1825 2980 1798 1625 3578 1880 3628 1644 1757 1862 3358 3922 3482 2867 3111 2287 3566 3599 3430 3356 3114 2337 2359 3494 3655 2911 2595 1959 2935 3890 3949 1614 1879 2015 2633 3957 2195 2859 1605 3356 3521 2315 2061 3798 3957 3617 1959 2418 3992 3209 3059 3911 3527 2599 3009 2622 2738 3627 2732 3088 3915 1770 2041 3492 3034 2606 1663 3303 3722 3026 2788 2429 2605 3126 1864 2221 2425 2487 2481 2588 2197 2089 3643 3543 2324 2131 3127 2114 3408 1717 3588 2708 2250 1891 3451 3715 3005 2083 2049 3110 3853 3985 2209 2398 3710 1712 3037 3696 1629 3748 3749 1527 2677 2723 3280 3207 3725 2432 3359 3835 3639 2277 1666 3105 2719 2990 2712 2256 1554 2394 2676 3862 2212 2884 3252 2310 3831 3868 3363 2995 1776 2335 3905 3960 3199 1785 3512 3534 3826 2615 3994 2395 2445 3251 3921 1714 2012 2661 1995 2020 2252 2805 2384 3895 3738 2687 1737 2293 2418 2607 1606 2834 1782 3021 1852 3865 3353 3241 3850 1725 1890 2517 3916 3151 3801 58 68 57 40 62 60 1 12 80 81 74 48 84 74 72 47 44 64 68 58 50 19 56 76 38 86 21 36 74 5 45 95 37 77 33 38 68 78 67 31 60 94 57 20 10 44 7 84 31 3 96 48 88 63 37 29 3 7 74 9 56 35 54 94 70 40 62 82 11 0 21 25 4 25 78 58 76 14 80 78 63 36 51 32 18 42 86 44 53 76 74 46 96 6 98 31 9 97 86 93 3269 3205 2109 2737 1655 3097 3243 2113 3944 3609 3611 2633 2556 3473 3885 1911 3973 2641 1775 3788 1827 1545 3765 3641 2831 1650 2419 2120 1550 2646 3168 3625 3003 3621 3960 2595 3189 1841 2738 3828 1755 3616 3254 2241 3296 3073 2430 3332 3417 2038 1714 2506 2905 2158 2538 2381 3037 1848 2176 3182 2309 2053 2639 3583 3292 1563 3491 3746 2971 1634 3202 2289 2796 3526 2782 3857 3707 2238 3191 3659 1544 1827 2652 1549 1729 3131 2354 2177 3251 3437 2496 1708 2759 1871 1511 2770 3126 1611 1912 1618
2221 1560 2228 1666 3600 3222 1619 1785 3228 3358 2720 2432 3766 3006 3937 2644 3500 2403 3844 1912 3359 3104 1690 3960 1782 2417 3628 3584 3563 2258 1794 3915 3682 3901 2823 2781 3997 3902 3117 3881 3933 2560 3146 3754 2045 2303 2558 2995 2099 3756 3478 3418 1864 2856 3589 3147 1900 2581 3120 2883 3235 3096 2918 3157 3368 3607 1778 2101 3790 2484 2304 3334 2701 3243 3392 3482 2788 1979 1510 3605 2593 3061 2606 2619 3395 3082 1610 2086 3616 1627 1600 2014 2854 3776 3921 3173 1591 2810 2114 3213 3913 3424 1717 3361 2815 2725 3134 2843 2319 3004 2775 2091 3111 2907 3403 1989 2718 3472 2282 2022 3835 3613 2602 2904 1958 2768 2628 2379 2895 2005 3633 3392 2716 1929 1512 1554 3368 1881 2704 1985 3444 3920 3483 3632 3862 2734 2224 2626 2794 1775 1992 1966 1769 3017 3195 3182 1705 1988 2563 2145 2971 1782 3851 2260 1828 3640 3390 1866 2301 1850 2487 3371 3189 2131 2388 2091 2911 1779 2280 3392 3967 3176 1630 1957 1741 1580 2565 3271 1505 1966 1652 2252 3465 3366 3087 2415 2724 3566 2959 3752 14 1 84 53 33 73 66 24 35 55 59 27 4 85 76 87 24 81 26 85 10 65 84 31 76 39 56 92 12 1 90 37 95 76 12 23 26 41 37 46 67 20 23 56 60 44 20 98 77 93 98 12 66 52 87 62 34 43 65 27 2 79 19 85 11 72 47 24 59 21 0 42 16 4 65 7 53 4 34 78 17 97 91 11 75 41 12 17 52 79 6 49 59 85 33 1 58 64 62 94 3775 1877 3460 2121 3982 2905 3611 2457 1663 3163 2724 2025 2576 3741 3182 3120 3890 3997 2223 3513 3895 3045 3982 2208 2694 2888 2079 3830 2765 3132 3326 2090 2588 2405 2632 2350 3585 2741 3997 1746 1721 2237 3493 3417 3521 3023 1928 3097 2062 3406 2978 1883 2606 2884 1571 3244 3320 3594 3255 2358 2636 3521 2421 3361 1890 2013 2755 3845 3447 1572 3353 3905 1589 2635 2051 3107 3509 2528 2731 2574 3927 2288 3207 2852 1544 3050 2019 2400 2064 2333 2244 3476 2303 3036 1534 2995 2425 3359 3861 1825
2631 3107 3576 3475 3157 2386 2056 2854 3264 1840 3667 2733 1721 3485 1970 3172 2223 1821 3519 3842 2107 2563 3964 1709 2684 3280 2350 2991 1814 3675 1830 2082 2803 2288 2629 1741 2514 3815 3686 2852 2461 3934 2620 3098 2393 2923 2106 3928 2203 2727 3300 3584 1558 3488 3403 1589 3618 3817 2742 3140 3573 2306 2119 2827 3055 1563 3839 1699 2872 2332 2612 2267 3322 3849 2350 3025 1567 2346 1681 2516 3862 2259 2746 2976 2093 3061 2170 3878 1756 1747 2902 2645 2792 3427 3899 2339 1555 3808 3461 1578 3107 2925 2914 1983 2536 1550 2848 2298 3470 3202 3695 2269 2874 1726 2366 2374 2797 1838 1728 3343 2856 1557 3731 3142 3748 3803 1937 2885 3578 2887 3125 3201 1916 3026 3830 3987 2340 2250 3599 3112 1779 3676 3140 1714 3021 3049 2213 2676 3403 1982 1893 3240 1865 2861 2611 2055 2972 3004 3027 3099 2715 1752 3715 2242 3723 1614 3110 1822 2386 2837 1962 2852 3840 3191 1790 2507 2736 2744 1646 2036 2794 2214 2279 3271 3850 1531 2847 3162 2966 1826 1595 1745 2406 1801 3856 3518 3965 2462 2617 3689 24 92 36 88 87 53 78 76 5 86 42 60 43 32 61 66 37 7 14 33 3 69 10 86 47 29 46 62 67 43 86 74 37 87 50 19 2 59 39 49 53 40 63 10 23 35 6 81 67 3 18 93 59 58 19 27 15 86 30 37 66 76 61 89 96 61 32 88 87 25 42 0 48 78 90 86 66 65 66 77 9 18 18 4 47 51 35 43 89 61 53 30 67 85 43 6 81 61 34 65 1683 2200 2707 3971 3796 1851 2098 3146 3855 2846 2373 3818 2277 2186 3705 3547 2166 3680 2687 2261 3499 2198 3379 1505 1871 3211 3076 2915 2750 3353 2031 1602 3822 1567 3674 3084 2234 2532 3400 2674 3258 2035 2927 2448 3581 3546 3191 2663 1731 1522 3073 1565 3496 1651 1692 3237 3139 1937 2116 1701 3008 3259 1862 2575 2596 1893 3886 2147 2348 3166 3286 3338 2385 2984 3885 1738 1927 3102 2302 3050 3328 2480 2952 2143 3158 1913 3008 3347 1904 3618 1690 3954 2633 3737 3214 3641 1908 2683 2979 3148
2532 1908 2946 1863 2469 3214 3235 2653 1728 3935 3375 2933 2231 3213 2172 2397 3144 2035 1963 2960 2360 1637 3561 2708 3247 2611 1892 3526 3457 2754 2379 3447 2773 1681 3060 2055 1658 2705 3438 2490 1731 3585 2399 2802 1546 3624 3995 1981 3585 3874 2343 1714 2627 3464 2756 3717 3223 3816 1664 3969 3339 1850 2071 2238 1515 3187 3627 2332 1775 2156 2834 2398 1961 3622 3174 3803 3757 3375 2539 2877 3853 2514 3408 2844 3454 3005 1567 3541 3706 3401 2739 3722 3238 2545 3395 3552 2473 3694 1842 2713 2050 3136 3793 3875 2859 3138 2398 1615 3953 3289 3645 3631 2321 2987 2817 2708 1816 3044 3608 1865 2525 2795 3735 3981 1905 3182 3911 3923 2745 2525 3547 1988 2601 2346 3804 3613 2847 2362 3347 3402 3645 2402 3130 3199 3383 3620 2853 2235 3710 2576 1864 2882 1836 3855 3652 2252 1807 2416 3411 3134 2051 3465 2648 2033 1921 2499 2403 2482 3040 2772 3087 1581 3863 3708 3025 2492 3694 1506 2994 1817 2482 1707 1839 2438 2189 2326 3117 3405 2661 1615 3111 1640 2426 2531 2486 2347 2413 3973 2652 2436 98 15 12 36 1 81 94 62 78 18 93 76 35 68 16 2 59 66 28 85 84 23 15 88 63 12 41 65 10 89 8 57 73 30 19 41 46 70 49 81 41 23 47 73 5 74 22 41 49 92 10 98 90 60 65 85 90 11 91 76 57 23 79 30 49 37 52 3 80 4 16 48 0 9 90 28 93 97 60 64 74 6 48 29 20 29 57 37 2 72 98 28 1 41 88 86 36 56 73 51 3315 2286 2186 3583 3102 3534 2996 3099 1945 2940 1630 2657 3512 1942 2240 2463 3238 2286 2719 3762 2362 3062 1958 2209 2744 3898 1858 1837 3496 3704 2512 2627 2520 3406 2027 3798 1933 1909 1777 3529 1951 2929 1662 3172 1634 1501 2842 3232 3151 1662 3741 2042 3319 1784 2290 1651 1717 3927 1617 3389 3165 2942 3929 2049 3449 2189 2879 2122 3357 3936 2594 3934 2891 2527 3905 3923 2921 2324 2263 3065 3125 3637 3437 1710 2313 1511 1699 3686 1976 3515 1807 3969 3525 2962 2602 2212 2939 3062 2743 2833
2729 3074 2148 2662 2254 3913 1708 2668 2056 1619 1836 2649 3696 2967 2873 2065 2219 2014 1901 3306 3798 3363 1807 3824 2448 3735 3298 2285 2348 1744 2856 2618 3563 2054 2069 3892 2294 3482 2655 3528 3734 2634 3585 2077 2358 3970 2155 3195 2980 2141 3568 2624 2180 1690 2931 2181 3277 3531 1734 2562 3173 3486 1543 2198 2952 1980 2139 2816 2761 2932 2712 2174 3626 3299 3154 1947 2470 1707 1638 3128 2315 1824 1966 3146 2260 3326 2811 3430 1721 3105 2887 2292 3005 2875 3331 2398 3113 1527 2959 2256 3591 3170 2779 3433 3743 2621 2475 3717 3575 3214 3425 3756 2609 2426 3695 3566 3712 3147 2530 3097 3395 1656 2230 3395 1690 1536 1694 3715 3044 2095 1620 2826 2164 1962 2634 3321 2800 1905 2584 3345 2066 3810 2391 3895 3883 3077 3489 3497 2301 2305 2795 2544 2877 3879 2752 3392 2260 2404 3453 2485 3733 1718 2892 3293 3133 3103 2203 2411 1671 2254 3556 2678 3086 2568 2203 3988 1885 2438 2536 1540 2364 3538 2172 2838 1982 2025 1702 2748 1952 2686 2311 1793 3543 3129 2872 3232 3140 3346 1684 2657 55 24 92 8 88 31 82 26 30 93 93 4 2 6 7 2 98 44 14 58 51 84 48 55 87 53 51 12 21 71 3 72 76 48 3 31 59 92 99 82 4 87 37 19 67 93 71 69 88 29 57 41 45 28 87 31 64 58 97 86 23 19 30 25 90 18 77 47 81 25 4 78 9 0 65 35 78 15 80 75 78 63 73 70 36 92 63 41 80 46 39 42 37 86 82 32 72 41 91 19 3128 1513 1707 1748 2242 2508 2396 3017 2267 2084 2883 2793 3038 3471 3326 3052 2033 1956 1551 1897 2026 2982 3664 2754 3892 2917 2513 1687 2230 3856 2524 1990 1782 3963 1756 1564 3751 1910 2702 3183 3601 2491 3477 3662 2136 3760 1680 2480 2595 1629 2941 2467 3513 2327 2654 2242 3118 3109 2972 2334 3995 2377 1878 1775 1992 1607 2621 2004 2808 2592 2444 2075 3297 2334 2239 2042 3414 2042 3528 2665 2805 3492 2205 1717 3581 3470 2880 2295 1660 3076 1734 1716 3315 1816 1659 2358 2019 2062 1691 1838
3545 3708 3452 3280 3535 3428 3891 2996 2726 3383 2857 1832 1735 2239 2576 2676 2725 2670 3493 2628 2647 2476 3672 3364 3171 1677 1883 1661 3362 1574 1674 1818 2897 2080 3463 2908 2480 3984 2299 3351 2386 3684 2833 2359 3362 1930 2729 2685 1544 2303 1525 3464 2063 2588 2980 3384 1915 3449 3614 1763 2540 2966 2103 3459 3079 2699 1624 1517 3382 3982 1688 3090 3967 2827 2460 2533 2642 3704 2785 3380 1960 3125 1907 1960 1635 1912 3045 1759 2362 3914 3451 3596 3800 2122 3664 1689 2976 3832 2208 1583 3568 2620 3481 3303 3702 2349 3035 1601 3449 2409 1694 1757 2630 3381 2790 3648 3841 1886 3959 2124 1531 3212 3026 3848 1634 2024 2322 1675 1756 1801 1815 3628 1724 2090 2039 2024 3013 1838 3167 1869 3200 3370 3882 2201 2199 2197 3593 1856 3488 1615 2851 3591 2145 2689 1554 3923 2937 3576 3997 2206 2207 3440 3920 3683 3679 3179 2516 3656 2803 3266 3729 1602 2302 3140 2666 2168 3587 3199 3412 3774 3253 2511 2192 2510 3469 3772 2041 1831 3693 2221 3153 2826 2671 2232 3746 3044 2243 1547 1920 1960 45 61 83 94 35 5 18 40 2 57 93 36 14 56 85 31 43 7 27 80 39 36 76 51 14 95 61 38 9 24 85 60 21 77 34 85 38 19 61 3 36 77 97 15 29 72 63 46 55 50 44 21 27 61 32 81 50 93 96 49 76 16 36 75 14 53 26 48 65 78 65 90 90 65 0 85 53 2 40 11 54 65 44 86 54 75 44 6 41 78 10 45 6 68 29 41 11 21 70 23 1507 2085 2979 2085 1603 2154 2512 3046 2681 3803 3738 2386 1850 2459 3003 2562 3625 3967 2097 3615 2669 1645 1859 3663 2996 3755 2752 2652 2278 3550 1906 2374 2366 1565 1963 2223 3526 2381 1816 2400 1800 3324 2147 3069 2454 3204 3810 3586 2574 3148 1666 2663 3475 2230 3818 3477 3127 2414 3761 2923 3692 2215 2036 3949 3511 1837 3649 1550 3575 3210 1873 1546 2478 2354 2080 1777 2965 1632 2289 3239 2402 2137 2386 2139 2805 3665 2214 2865 3570 2598 1774 1629 3177 2699 1672 3070 1923 2163 1621 3459
3563 1983 1880 3327 1945 3562 1876 3931 2870 2922 1513 2675 2642 2207 2033 1911 1936 2465 3884 2783 1959 2234 1758 3863 3781 3444 1643 3591 1776 2408 3438 2199 1995 1539 1960 3611 1778 3491 2065 2302 2999 2974 2490 2399 2871 1508 2504 3752 2423 3994 1545 2497 2805 3831 1715 2654 2435 3232 1648 3353 1923 2660 3445 3146 2802 1994 3386 3086 2458 3067 1561 2569 2218 3092 2286 3021 3580 1664 1633 2177 1663 1974 2322 3939 1890 3703 1556 1585 2127 3727 3517 2300 2301 2365 3893 2536 2399 2945 2687 2287 1896 2272 1955 2950 2376 3299 3351 2022 3347 2930 3044 3716 2509 1669 1649 2481 3110 3291 2268 2599 1863 2903 2094 3343 3163 2882 3073 2480 2443 2147 3044 2209 1903 3656 1754 1654 3676 2783 3103 1542 2305 2433 2066 3828 3771 3366 1850 3775 1925 2152 2900 1956 1942 2410 1546 2284 1864 3366 2796 2625 3398 2368 2655 3697 3854 3765 3341 2421 2260 3679 3788 2711 3402 1578 3255 3583 3268 1992 2532 1767 1730 1545 3355 3840 2832 3965 2224 1920 3713 1617 3206 1525 2451 2677 2145 3611 3249 3841 2331 2215 4 34 43 8 33 79 63 38 62 55 47 73 30 44 6 13 11 82 63 40 17 19 69 93 25 26 15 90 66 99 81 89 29 48 14 63 38 35 85 69 92 36 31 3 87 76 40 19 35 53 63 48 62 16 18 92 38 41 78 16 76 2 55 67 90 46 26 79 60 58 7 86 28 35 85 0 89 36 95 6 82 62 51 85 68 83 88 49 52 98 84 78 58 12 31 54 52 96 62 31 3801 3071 3879 3444 1654 2861 2756 3723 3354 3454 1506 2876 3701 2166 2258 3431 1918 1795 2284 2916 2631 3742 2454 1921 2360 3657 1922 3238 1911 3059 3899 3091 2491 3921 3899 3956 3648 1677 2201 3498 2128 3729 3781 2742 3150 1840 3357 1973 1640 2866 3383 1638 2286 3868 1618 2479 2592 1948 2241 1918 1766 1619 1687 3230 3562 3817 2601 3451 2190 3537 3635 2247 3555 3249 2681 2768 3336 1872 2201 3808 3505 2393 1721 1719 1747 2342 1944 3129 2400 1936 1769 3339 2406 1524 3986 3006 1719 3285 2814 1957
3066 3473 2948 1618 2192 2496 3515 3444 3874 1787 1795 2916 2414 1801 3058 2063 3725 2524 3344 3797 3103 2276 1955 1799 2249 1679 2013 1757 3709 2895 1704 2755 3220 1852 2317 2009 3395 3319 3540 3919 1811 3993 1993 2497 3549 3284 2725 3249 3126 2962 3170 3550 2650 2650 2885 1852 2929 3555 3451 3573 3369 2485 3712 1522 3448 3706 2285 2070 3319 2964 1520 3319 2514 3729 2533 2402 1728 2061 1610 3117 2082 1727 2132 3163 2949 2538 2421 2854 1859 2213 3200 1601 3412 3480 1871 3589 3007 1659 2922 2805 3834 1920 3473 3181 2760 1645 1854 3934 3405 1741 3671 3003 3268 3774 3910 2972 2635 3820 2882 1853 1704 2791 2100 3766 3901 1601 2789 2026 2667 2576 2532 3577 3271 2542 3600 2851 3851 1614 3944 1779 2160 2165 2787 2677 2548 1960 2018 1974 2216 1628 1792 3119 2786 1850 3421 1829 3376 3214 2211 3010 1938 2076 1853 1878 3509 3127 3777 3914 1730 2538 3121 3073 2632 3004 2130 3233 2347 2663 2190 2915 2461 3408 1897 1965 2503 1594 3427 3697 3801 3648 1822 1563 2140 2695 1961 2628 3991 3860 3717 3814 23 22 40 31 30 51 49 88 28 6 21 99 98 4 26 69 16 19 28 93 4 65 29 69 5 17 87 18 64 4 73 6 32 28 49 24 18 53 39 73 69 27 2 42 64 34 69 62 40 59 84 2 39 8 53 11 87 53 14 91 3 93 3 76 74 41 47 78 99 76 53 66 93 78 53 89 0 66 81 88 89 44 59 96 22 8 77 88 11 14 62 14 33 71 66 97 77 15 68 63 3433 2279 3317 3107 3680 2524 2459 2313 3386 2508 3150 2496 2664 2963 2742 2570 1945 2497 2961 3514 2840 1790 2162 3364 3646 2378 3363 1987 3024 2323 3103 3507 3610 1542 2206 2621 2072 3659 3106 1738 1683 1638 3340 3496 3972 1620 3573 2446 2409 3694 3494 2907 3957 2105 2907 2174 2354 2740 3713 2755 3413 2272 2181 3654 2823 2242 2770 3269 3260 3853 2122 2388 3302 1902 2651 2781 3193 1995 2665 2308 2605 1790 3098 2175 3040 3148 2912 1631 2558 3711 3168 3899 3730 3892 1598 2069 3137 3011 2850 3419
3275 1585 1998 2915 2182 2853 1812 2929 3814 3047 2705 2401 3356 3246 3055 3673 3101 3784 3199 3366 2321 2307 3592 2077 3019 2990 1529 2877 3095 3765 2926 1991 3582 2778 3197 3339 2458 2485 1597 2308 2389 1536 2286 3307 2271 3126 2994 2423 1915 3692 3092 2720 3195 3939 3549 3727 1854 3294 2694 3208 2797 2263 2376 2278 2335 2881 1863 3589 2550 1967 3445 3850 3799 3428 2511 3212 1644 1788 1550 3620 3924 3420 1602 2199 2078 3486 3504 2666 2115 1663 3209 1776 2190 2728 2340 1708 3378 2399 3870 3278 3934 2975 2805 3485 1582 3826 2899 1983 3297 1548 3550 1921 3515 1684 3399 3798 1638 2614 2088 3005 1530 2712 2819 3801 1936 1707 3338 3892 1683 2562 2620 2940 3276 1767 2326 3160 2497 3404 2607 3079 1930 1600 3797 2493 3863 3737 2806 2778 2480 3671 3042 2087 3600 2300 2851 3104 3430 3037 3379 3374 3982 1780 1947 1537 3622 1615 3866 3047 3556 1989 1999 2528 3556 3246 2283 3629 2983 3669 3122 2102 2309 1807 1755 2591 2122 2486 1836 2028 3583 2219 2311 2253 3023 1538 3028 1929 3085 3753 3824 2132 50 2 62 69 68 58 5 62 19 29 41 91 70 69 53 25 20 33 29 52 2 6 91 5 66 65 67 47 74 49 87 45 86 63 93 70 43 77 39 90 41 47 45 38 59 27 87 92 56 15 6 65 11 71 16 34 24 15 83 19 31 44 98 79 65 93 75 34 2 14 4 65 97 15 2 36 66 0 56 95 37 15 99 12 75 78 40 66 69 62 15 48 55 48 12 29 36 49 29 69 3393 3627 3540 2982 3762 3694 2307 3666 1765 3577 3005 1627 3318 3086 2230 3820 2089 2299 3667 3004 3528 3582 1914 2149 1629 3759 3236 3569 2405 3509 3375 2314 3177 2974 3193 2431 3251 3711 3893 2754 3736 2303 2123 2541 2481 3313 2943 2298 3294 2069 2877 1898 2826 3712 1743 3959 3289 2623 3856 2847 3090 3453 2249 3189 1906 3008 2257 3662 2328 1962 1571 2752 3716 2834 3472 3671 1551 3806 2705 3430 3325 1954 3704 3506 2670 2651 2763 2625 3311 3278 1548 2891 3376 3831 3582 2166 2468 3167 1649 3661
3897 2892 1684 1719 3265 1797 2104 2378 2828 3850 2483 3784 3699 1897 1983 3516 2586 2735 2668 2903 2777 1524 3976 3282 2685 2934 3483 1933 1508 2680 2789 3009 3471 2602 2530 2864 3166 1630 1749 2237 2601 1936 3384 1931 3551 2048 2051 3877 3889 2570 3589 3717 3856 3336 3654 2564 3047 2102 2239 3320 3673 3870 2216 2304 3197 1636 2119 2981 2101 3742 1583 2761 2373 2801 2967 1680 2495 3586 2988 2165 2401 3573 2203 2264 2355 3617 2176 2198 3785 2186 1590 1764 2767 3336 2681 2847 1904 3105 3672 1980 1983 1570 3570 2063 3711 3139 2061 3549 3312 3571 2968 2044 3209 3651 2582 3318 2910 3631 2669 1680 2474 2659 3231 3424 2217 3485 2838 2718 2055 2582 3036 2798 2139 2676 2335 2350 2497 2802 3263 3675 3685 3900 1511 3593 2405 2932 1532 3619 2610 3182 3372 2075 2909 3704 1665 1776 3080 2028 2691 2881 3330 3270 1787 3866 2761 1917 2767 1892 1855 2710 2403 2973 2855 2719 2877 2204 2758 2901 1997 3491 2578 3323 3558 2034 1576 3771 3519 2563 2086 2229 1990 2828 2249 2874 2913 1994 3638 3624 2342 1845 94 85 32 11 83 23 59 81 59 18 77 1 56 15 88 15 5 1 28 11 44 2 3 61 62 44 1 20 3 48 76 76 66 13 76 86 72 91 18 36 53 89 95 16 73 15 9 96 28 60 44 57 58 69 86 29 76 1 68 14 53 36 36 10 35 34 19 72 84 80 34 66 60 80 40 95 81 56 0 29 98 8 30 36 20 80 60 34 34 19 89 53 29 15 44 52 49 75 73 9 3866 3563 2847 2872 3936 1832 3416 3059 1622 2786 2623 2129 1643 3543 3716 1829 2427 1708 3369 1922 1717 2137 1807 2817 3298 2015 2205 2671 1545 2546 2017 2340 2157 2778 3923 3578 2468 2132 3532 2550 1656 2321 1640 1514 3502 2976 1736 3264 2455 3819 3646 2030 3131 1531 2722 3841 3659 2044 3231 3979 2234 2353 2327 3602 3539 3978 3530 2512 1892 3589 1777 1701 2051 3604 3568 2057 3023 3175 3487 1697 2374 3137 2132 2350 3464 2370 2194 1961 2781 2145 3204 2711 3107 2277 2677 1710 2777 2745 3922 2666
3092 3167 2580 3945 3984 3803 2433 2515 2299 2509 2622 3282 1672 2905 3949 1942 1838 3528 2380 3953 3127 2858 1673 3133 3710 3144 3103 3142 3250 3083 2152 3853 3124 2007 2363 1572 2524 2149 2251 3153 3529 3916 2401 2803 3725 2869 3130 3436 2762 2176 1674 3829 2829 2456 1535 1745 2271 3566 1827 3566 3748 1950 3892 1585 2509 3491 2755 3601 2094 3813 2805 3463 1830 1834 3463 3196 2236 2699 1677 3348 3445 3813 1674 1991 1538 3661 3100 2231 2043 2847 3507 1971 2186 2585 2736 2535 2893 2979 1631 2691 3736 2334 3680 2611 3952 1520 2232 2818 3577 2338 3326 3552 3290 2945 3365 1713 2147 2771 2554 3727 3098 1653 1876 1872 2671 1742 2810 2351 2906 1697 3221 3014 2214 3887 3634 3639 1748 3386 2235 1889 2002 2081 2582 2802 3755 1842 2505 2367 2181 2183 3677 1543 2592 3680 1948 2540 2991 2917 3723 3268 2650 2946 2006 2281 3613 3598 2119 1577 2428 2255 3712 2051 3530 2326 2345 1840 3440 1793 2805 3822 3300 2643 3446 3186 1611 3327 2867 3888 2624 3987 2584 2850 3252 3920 2913 3468 2752 1845 3887 1580 27 64 14 91 33 97 43 88 13 29 24 96 74 90 17 33 18 1 70 28 12 47 65 67 63 36 38 3 68 74 20 51 29 30 69 99 71 4 73 5 93 17 73 64 46 96 71 45 22 1 83 81 87 94 30 81 26 60 9 31 37 94 28 12 5 25 28 54 16 78 78 77 64 75 11 6 88 95 29 0 93 87 24 98 31 14 91 13 55 2 91 48 20 25 64 44 49 32 10 82 3004 1588 1649 2508 2944 3354 3369 1523 3427 3128 3643 2791 1555 1849 1548 3572 1570 2537 2493 2760 3525 3357 2403 3183 1703 2001 2052 1684 2080 3211 1865 3373 3749 1989 2025 3860 2271 1924 3470 1847 2412 3883 2189 2479 2368 3514 3946 3593 3349 3207 3964 2825 3003 3669 2691 3179 2840 2308 3121 3647 2215 2368 2263 1811 1614 2552 3420 3762 1738 3884 2459 2168 3567 3560 1759 3292 3194 3813 2797 2988 2020 3233 2708 3486 3690 2673 3937 2612 3475 1809 1556 3326 3807 2929 3993 3476 2338 2617 1980 2348
2423 2056 2617 2790 2863 3544 3614 3568 1853 3605 2763 1536 1570 1856 2201 2033 2118 3834 2264 3270 2063 1685 3136 2016 3914 3884 2650 3259 2462 2090 3989 3633 3892 1745 3739 3349 2465 3843 1835 1872 3859 1600 1903 2231 3754 3051 2803 1663 1621 3322 3965 2437 2277 1963 3812 2201 3872 2738 3149 3419 1600 3859 3742 1648 1941 1830 2925 3636 3610 3977 2785 3183 2225 3279 3863 3857 2171 3124 3656 3167 3288 2262 2932 2367 3450 3263 3127 1991 3846 2372 3790 3685 1603 2250 3313 1893 3750 3731 3432 3079 3982 1765 2765 1957 2821 2798 1891 3083 3255 2254 3258 1960 3629 2398 2425 3966 2305 3131 2626 2748 1577 3781 3654 1821 3181 3555 3370 1731 3906 3902 3307 3942 3762 2130 2462 3091 2596 3496 2574 3559 3993 3202 3550 3669 3786 2857 3781 3262 2392 3562 1992 2974 2684 1539 2070 2040 2058 3508 3781 3447 3288 3269 1856 3908 1800 2119 1944 2785 2547 3356 1610 3050 1578 1840 1794 3055 3591 3447 2860 2310 1583 2172 2386 3876 2070 1958 2090 1975 1762 3410 1992 3588 3750 2778 3110 2125 3891 3713 1753 2461 64 77 88 11 6 3 5 46 54 45 25 15 1 86 62 82 87 25 11 23 17 86 80 84 37 93 21 83 8 81 25 52 20 2 17 94 40 96 45 45 30 69 20 91 67 70 24 96 57 25 72 73 75 98 76 45 85 27 60 17 65 27 66 42 35 11 89 65 9 63 17 9 74 78 54 82 89 37 98 93 0 98 62 57 12 34 22 15 38 88 14 9 24 59 82 91 30 19 17 79 3380 3556 2972 3622 3479 3947 1713 1872 3722 3474 2601 1927 3785 3557 3958 1972 3509 2309 3442 1563 2101 2050 1705 1738 1800 2360 3575 2061 3242 2993 1969 2656 2520 2410 3209 3100 3403 3953 1812 2869 2935 3041 1650 3986 3003 3384 3566 1657 3628 2188 2623 1928 3170 1510 3045 3329 2970 2665 1630 2771 3356 2746 2969 1616 1888 3384 2128 3356 2135 2541 2862 1989 2498 3110 2708 1813 1770 2663 2156 1893 3873 2909 3131 3839 3345 1733 1973 1735 3892 2541 3860 3479 3048 2989 2056 2731 2456 2328 3997 2000
1705 3453 2780 2549 3716 2793 2095 1733 3002 3345 2594 3537 2498 3409 2613 2973 2612 3207 2125 1509 3030 3808 2301 1690 3316 1587 3660 2474 2607 1539 2116 1680 2178 3325 1782 2699 3364 2817 3941 3987 3295 2898 1601 3342 3089 3189 2926 2866 3718 3275 2641 2838 2474 3437 2104 3214 3386 1784 2169 2295 3112 3730 1734 1707 2223 2166 1558 3888 2960 2280 2662 1526 3775 3748 2745 1947 3777 3488 3090 3886 2533 2936 2271 3014 2964 2425 2497 2640 3551 2036 1773 3254 2653 1570 3806 2474 3434 2129 3610 2248 3071 1966 2937 2724 2674 2290 3013 2561 2034 3857 3679 2414 2478 2156 3294 2655 2440 1732 2458 2692 1923 3757 1928 2447 2089 2905 1858 3428 3221 2971 2625 1943 2320 1618 1908 2115 3514 2769 3091 3865 3513 3512 3826 3794 2742 1872 3603 3885 1651 1683 1590 2315 2252 1503 3850 3491 3142 3148 1851 2667 2181 3263 2313 2200 2806 2392 3453 3472 2572 2572 3117 1873 2900 3200 2294 2416 3482 2321 3714 2398 2573 2949 3376 3595 2419 3270 2428 3153 3676 2545 2498 3696 3016 3725 3232 3924 3911 2537 3561 2788 5 4 19 14 64 38 25 86 68 83 4 5 55 51 22 25 86 96 9 12 82 86 18 57 98 76 69 60 88 69 67 78 97 33 3 66 80 63 82 80 65 32 98 96 17 42 55 24 22 23 95 58 58 3 48 80 69 34 36 7 15 18 15 75 53 17 6 20 85 36 97 18 6 63 65 62 44 15 8 87 98 0 29 54 56 68 72 30 41 44 70 68 56 9 65 67 53 65 44 7 2978 2647 3910 3968 2454 1616 2852 1823 3574 2571 2737 3794 2184 2623 3205 2273 1543 3483 3716 1595 3963 2574 2969 2408 1637 3207 2784 3681 1544 3809 1582 2803 1833 2298 1609 2651 2757 2228 2765 2663 1916 1672 3238 1878 3617 3341 2669 2676 2261 3334 2284 2569 2285 3773 3599 3288 3551 1935 2426 2874 2499 3356 2447 2763 2566 3791 3683 2319 3324 3577 1717 2420 1507 2424 3031 2248 3148 2421 3628 2632 2147 3743 1851 3606 1988 3830 2583 3648 1509 1539 1784 2894 1794 3625 1508 2387 3471 2537 3168 1903
2881 2894 1514 2504 2600 2363 3168 3647 3406 2609 1909 3538 3687 2693 3227 3426 3452 3093 3774 1552 1917 3567 2888 3578 3211 3667 2601 2996 3632 3571 3506 2007 2016 1829 3982 3404 2479 3775 2282 2033 3896 2872 1618 1886 3823 3083 3947 2403 3731 1622 3094 3604 2289 3839 2163 2968 2597 2416 3911 3804 2884 2951 2211 2755 3569 2420 2244 3005 3644 3360 2510 1976 3067 2644 3655 2081 1727 3787 3182 3236 3328 3757 3732 1582 3109 1638 2921 3258 2255 2222 3974 3203 2454 3227 2985 1784 3811 3893 2778 3363 1732 2859 2355 1905 1837 2474 2627 1576 2774 2367 1717 1638 3961 2490 2144 3607 2795 1913 3680 2116 2153 3874 2636 2444 1681 1802 2769 1523 1714 2580 1956 2243 3856 1805 2958 2716 1939 2939 2710 3208 2236 2672 3391 2367 2138 2141 3259 2207 2583 2178 2029 1670 2522 2407 1581 3775 2937 2558 1697 3569 1635 1718 3213 1596 2311 3232 3892 3306 2632 2701 2081 3346 3984 2849 2291 1923 3167 3688 1571 1771 3913 2763 2471 3051 2118 3760 3618 2659 3985 1931 3907 1948 3184 3397 3465 1627 2397 2682 1731 2604 6 35 8 44 37 47 49 79 5 10 56 45 73 67 93 81 79 40 63 26 88 12 18 26 72 8 10 56 50 72 66 37 22 92 7 68 8 34 22 47 39 38 70 19 72 97 87 1 52 47 29 79 85 17 51 92 72 43 15 62 79 9 35 82 19 68 7 58 47 51 91 18 48 73 44 51 59 99 30 24 62 29 0 29 25 54 27 4 54 59 81 66 49 58 10 43 39 59 30 41 3664 3492 3057 3715 1617 2496 3004 2809 1829 1974 2399 2795 3389 1981 3513 2558 3970 2552 2970 2702 2754 1570 3102 3534 2753 2431 2246 2084 1785 2450 2101 1679 1953 1836 2234 1533 3361 2128 2305 1509 3162 2767 1615 2870 2324 3737 2185 3634 1679 3046 3133 1893 3024 1747 3105 2731 2225 2506 3074 2566 2916 1831 3168 1724 3718 1634 2189 2373 3850 3422 3383 2852 2350 3549 3693 2234 1925 2422 2902 3970 3801 3706 2882 2183 1621 2927 2361 3971 2604 2702 1962 2789 3442 2988 2880 1838 3513 3475 3235 2883
2078 2544 1986 3969 3695 2894 1511 1980 3057 1736 2074 1838 3168 3312 1880 2165 2727 3956 2578 3410 2036 3027 2051 2632 3523 2923 2581 3563 2567 3695 3136 3330 2168 3829 1950 2077 2807 1529 2047 1760 1914 2436 2145 1977 3971 3716 2615 3218 2164 2722 3288 3586 1921 3612 2521 2891 3446 3942 3189 2937 2394 3038 3384 3961 2569 2468 3136 1766 2139 2649 2678 2943 3172 1551 1772 3286 2202 2627 3726 3552 3944 2106 1891 2494 1514 3824 3558 2724 2862 2224 3821 2878 2102 3577 2162 2491 1745 3282 3279 3925 3368 3003 2904 1742 3058 2564 3765 2993 1844 1758 3842 3142 3782 2475 1852 3072 2058 3335 2358 2794 2671 1777 3246 2216 1568 1614 3052 2938 1990 2964 2418 2536 3836 1790 2858 2949 3815 2815 2170 3271 3842 2103 2433 1637 2250 2098 1756 3338 2444 1872 3063 1893 3441 2863 2086 3640 1833 1637 2518 2670 3896 1754 1849 2977 3598 1934 2307 2431 3274 2267 2944 2052 3695 3726 1644 1979 2016 3500 1681 3373 2934 2945 2618 3662 3362 1689 3098 3430 3759 2682 1996 3584 3996 2185 3126 1993 2108 2254 1524 2066 80 32 64 24 63 89 11 1 1 51 30 7 86 51 95 57 42 85 37 67 25 69 91 80 47 14 87 92 47 68 96 61 9 84 61 53 66 37 29 85 29 53 70 20 16 41 62 59 88 97 30 79 87 80 47 23 75 16 23 44 16 13 13 88 93 95 9 78 61 32 11 4 29 70 86 85 96 12 36 98 57 54 29 0 96 10 67 80 91 25 14 86 37 38 10 82 56 23 37 48 3558 2171 2525 3323 1559 2151 1735 2667 2216 2432 1687 2760 2412 1740 1590 2744 2348 3249 3291 1621 3269 3202 3320 1766 3814 3795 1537 3605 2208 3142 2434 2704 1990 2439 2998 3114 3303 3972 2873 3078 1950 2009 2511 2790 2038 3268 3632 2750 2335 3770 3800 1962 3972 2240 1542 2945 2378 2074 3251 2293 3860 3234 3770 2769 3281 2374 3068 3126 2864 3968 3931 2528 2787 2707 2042 3680 2855 3097 1698 2092 3765 1641 2981 3288 2244 3752 2491 2882 2700 3023 2483 1541 3143 2579 2568 1957 2102 3886 1754 2186
2984 1530 1705 3351 3141 3229 2116 2657 3445 2583 1852 3579 2644 2358 3868 3752 2911 1739 3643 2010 3859 3343 3722 1633 3070 3126 3381 2395 3964 3554 2412 1706 2468 2485 1572 2414 3143 2551 2780 3084 2112 1945 3412 3869 2382 2058 3571 3727 2860 3584 3825 2579 2294 1554 3657 3750 3849 1810 2649 2965 1613 3579 1694 3613 3504 1748 1942 1766 3845 1822 1697 1847 3997 2323 2581 1522 3150 2331 2972 3423 2463 3755 2344 3028 2093 1588 2642 3395 1779 3416 1745 3775 2043 3522 2871 1772 3460 2666 3665 3396 1648 3404 1798 1519 3962 3735 2143 1730 3862 3386 3368 3517 2164 3200 3531 2607 1631 3585 2445 2443 3419 1971 2334 1749 3326 3725 3470 1687 2368 3067 3142 3782 3726 1665 1539 3240 3845 1950 1570 1730 3811 2022 2650 3613 2324 2893 2879 2399 2497 1939 1767 1850 2055 3248 3899 2258 3598 3067 3117 1649 3407 3200 3526 1837 2017 3805 2884 3992 3133 1613 1867 3949 3385 2047 3665 2768 2799 3299 2076 3345 3211 3588 1711 3157 2177 1976 3595 2544 3607 3568 2459 2696 3212 3875 2551 1557 3171 1865 3740 2537 91 66 55 45 51 77 43 25 55 16 45 59 50 70 43 84 3 23 46 65 60 58 34 80 40 97 87 45 12 71 45 49 38 27 84 93 22 91 46 73 83 31 40 63 29 84 97 4 77 79 2 92 39 99 89 81 81 5 76 95 44 97 48 36 68 71 14 40 14 18 75 47 20 36 54 68 22 75 20 31 12 56 25 96 0 17 46 75 5 91 80 30 71 16 68 77 80 90 81 34 3386 1577 2196 3204 2627 3940 3383 1835 1564 3986 3470 2302 1966 2805 2174 2399 2858 3641 3130 2883 3671 3624 1897 3070 2275 1685 3191 2476 2877 1736 3548 3354 3528 2783 3809 2508 3475 2313 3520 3960 3537 3477 2855 2173 3892 3089 3264 2716 3765 2406 3529 1633 3079 3058 1645 2331 3889 2712 3254 1851 3365 1813 1773 1678 1898 2475 2652 2171 1502 3940 3955 2028 3747 3370 2882 3443 2090 2047 3244 1660 2737 2019 3487 2424 3449 2250 3645 3260 1962 3599 2881 3939 2177 2858 1586 1933 3768 2138 2829 2743
1564 1836 3449 2538 3484 3936 1582 3958 3751 2279 3275 1602 3251 2007 3981 2709 2228 2658 1976 2581 3417 3327 2110 3028 2655 2876 3093 2790 3356 2145 3587 2136 3527 1961 3784 2451 3788 1841 3986 3691 3497 2531 3320 2466 3385 2459 3910 1657 3271 2858 1525 1686 1724 2047 2265 2573 3570 3306 2270 2336 3499 2007 2524 3840 2484 2640 3198 3498 1770 3136 1632 2333 1826 3571 2186 3522 2548 2391 2410 1638 3335 3664 1926 2937 3348 2431 1661 1975 3609 1777 2997 1833 1681 3250 2048 3748 1589 3804 2713 1716 2401 3822 1717 2492 2471 2867 3160 3103 2220 2428 2811 3325 3782 1961 2315 1857 3309 2952 3461 1771 1995 3071 2701 2716 1948 2313 2503 2514 2819 3369 2804 3403 2416 2668 3200 3830 1842 3124 2970 2674 1971 2277 2519 2466 2496 2941 2031 2242 3922 2933 2163 1766 3036 2081 3019 3582 3629 3231 2265 1872 3977 2977 2966 2451 3459 2099 2335 1841 2277 2795 3858 3248 3341 2974 3734 3763 3215 1777 2266 1598 3254 2767 2463 3208 1925 2573 3876 2233 1955 3063 2937 2314 3637 2106 3814 3500 2872 2789 1715 2220 9 29 78 81 42 99 64 59 98 99 24 60 10 59 18 28 24 65 3 8 1 38 4 20 89 96 23 68 22 14 2 79 40 43 91 27 9 53 28 29 3 45 15 53 89 38 91 60 9 16 93 59 14 12 59 43 29 33 54 17 29 29 4 44 30 82 94 96 79 42 41 51 29 92 75 83 8 78 80 14 34 68 54 10 17 0 66 96 76 67 93 76 27 57 10 84 29 31 73 6 3377 2802 2877 3546 1557 3413 3480 3884 2592 2506 2605 3016 3555 3449 3779 1976 3058 3818 2825 3726 3432 1625 3845 3950 2297 3060 3853 2689 2050 1881 1898 2050 1978 3519 3839 2762 2203 1700 2424 3092 3989 2013 3603 3872 1820 1692 3436 3625 2736 3460 3170 1964 2556 1971 2494 2309 3373 2499 2248 3293 3322 3822 2664 1968 2155 3229 2807 3279 2657 3095 2262 2768 1573 3864 1787 3016 3866 3718 3249 2302 3961 1960 1926 1869 2834 3213 3923 2297 3154 2690 2659 2628 2466 1885 1625 2777 2780 3275 2918 2139
3620 3282 1623 3319 1533 3971 2091 3901 3336 1577 3541 3480 3361 1869 3767 1663 1835 1807 2199 1654 3004 2168 2429 3092 2505 3946 2873 3076 3451 2711 3991 3550 2453 1511 2289 2474 3923 1557 3126 1812 1835 2772 2579 3989 3570 1579 2439 3966 2074 3363 2806 3422 2674 2920 1555 1894 1502 3126 3985 3890 2327 2177 3849 1821 3685 3194 3362 3783 3937 2092 1899 3143 1705 1558 3079 3825 3705 1810 2207 3370 2923 2911 2703 3870 1797 1500 3893 1801 2670 2009 2961 3142 3654 2774 3087 3499 2834 1667 2287 1851 3982 3589 3438 3546 3227 1569 1884 3727 2756 3578 3637 2787 3644 2489 3183 1821 3871 2771 1526 3668 1927 2849 1804 1987 1993 3995 1549 3017 3028 3344 3826 2428 1711 2868 2217 3112 2339 3686 3849 3501 3771 3369 3179 2487 3341 2145 3537 3175 2772 2120 3465 3083 3885 2549 2176 2997 2424 3399 3483 3338 3193 3882 1724 2099 1971 1810 2183 2045 3533 1553 3905 2583 2706 2673 2810 3274 3587 1518 1568 3546 1620 1962 2372 1768 3701 2805 2581 2456 3765 2281 2934 3283 3526 2271 3588 2104 3832 3855 3512 3433 5 20 71 44 70 64 29 47 88 89 97 25 45 18 22 68 92 48 62 1 76 49 56 91 95 79 95 20 34 3 66 40 25 94 96 33 86 31 16 13 85 90 45 40 74 43 75 62 78 43 42 34 44 86 60 56 46 38 17 85 57 89 97 23 41 45 95 79 10 86 12 35 57 63 44 88 77 40 60 91 22 72 27 67 46 66 0 87 84 8 53 38 35 32 54 53 74 63 3 49 2715 2280 3298 1589 2898 2391 3586 1635 2700 1758 2546 2347 3424 1796 2310 2959 3942 2334 3612 3514 2563 3960 3371 2998 3751 1690 3753 1545 2471 3674 2799 1861 3647 3237 2083 2803 3015 2342 2879 3874 2520 2414 3577 2528 3157 3356 2223 3493 2704 3594 2025 1825 2558 2858 3401 3438 1590 1844 1792 3360 1875 3647 1923 3671 3141 3694 2758 3925 2245 2679 2368 1840 1719 3591 1513 2785 3502 1704 3928 3860 1722 2130 2658 3099 2500 2293 1866 3998 1766 3938 3784 3347 1745 2485 2152 3899 3499 1819 3507 1679
3861 2517 3671 1956 3705 2298 3975 3904 3485 3551 3629 2611 3589 3282 2475 3793 2237 3585 2289 3209 3494 2991 2427 3499 3933 2917 3257 2514 2878 2552 2896 1755 3598 3856 2655 2892 2392 2884 3761 1714 1932 1560 1628 2898 2705 3204 2592 2186 2997 3606 2731 2261 3291 2705 2747 2089 3363 1716 2973 2497 1610 2208 3020 1635 2446 3876 3954 2409 3587 1913 1590 3992 1642 3824 3883 1875 2168 1536 3348 2129 3160 1784 1743 1749 3157 1649 3273 1650 3008 2402 1888 2065 1960 3211 2505 3210 2947 3791 3452 2075 3456 3750 2372 2897 2111 2571 3811 2943 3174 3383 1879 2637 3645 3232 3023 3246 2010 2918 2421 2615 2864 2661 3404 3367 3768 1777 2709 2987 3453 1844 1693 3628 3165 1655 1993 2102 3450 3429 1929 1836 3323 2640 1786 1641 2691 3237 2916 3581 3661 2440 2563 3883 3922 3244 3297 1980 1951 3490 3469 3545 3147 3089 3525 1542 3423 3390 3909 3144 3745 1861 2686 3919 2060 2791 2325 2280 3183 3865 2054 1622 3329 2185 2134 3706 2650 2104 3523 3116 2166 1948 1812 3816 3966 3506 1660 1931 3355 3495 3154 2385 29 27 8 33 63 67 16 47 8 50 96 36 3 22 94 94 35 73 20 36 38 83 13 98 71 84 89 21 53 74 89 36 76 36 22 5 70 98 38 69 21 88 4 7 43 47 60 87 67 80 46 68 77 91 82 13 59 76 37 2 43 67 59 69 53 87 32 63 74 44 17 43 37 41 6 49 88 66 34 13 15 30 4 80 75 96 87 0 65 45 97 86 22 71 49 76 51 85 33 87 3459 3027 2982 3518 2151 2443 2569 3212 2890 2307 2035 2254 2092 3392 3602 3990 3858 2157 1751 3310 2901 2604 2218 2584 3953 3828 2274 3184 2531 2016 1666 2991 2603 3077 2428 3390 2970 3254 2182 2484 2587 3007 3570 2521 3130 2981 3052 1897 3346 2106 2478 3020 2942 3153 2645 1653 2763 2578 3302 3080 2052 2447 2262 3552 2374 3657 3787 2645 1663 2337 1809 1793 2320 3249 3019 2690 2135 3302 3129 3088 3022 1578 2828 1811 1644 1767 2638 2925 2512 3611 2921 3443 2971 2709 1951 1725 2851 2676 2797 1511
1863 3291 2032 2499 1906 3254 3052 3145 3151 2044 3115 3749 2817 3732 3297 3979 2324 1578 1648 2640 2631 3290 1846 2270 2765 2579 1945 3067 2626 3943 2183 3193 2432 3750 1962 3722 2554 3576 1524 1984 2319 2323 1826 2110 3845 3544 1629 3182 1861 3157 1685 3439 3450 3906 1995 1823 3640 3559 1638 2737 1505 1800 3119 3712 2948 3502 3628 3196 1684 3401 2652 3693 3052 2581 3142 2537 3983 3499 2431 1692 3028 3827 3815 3918 1540 3048 2571 3494 1580 3955 3071 3488 1519 3790 1915 2189 2919 3633 3957 2088 2151 2621 3232 2854 1719 3543 1773 2170 2680 2507 3707 2636 2538 2707 2663 3789 2865 3586 3834 2560 3228 3189 2668 2749 1916 2722 3784 2283 2447 3583 2809 2282 3480 3531 1652 2334 2315 3954 2986 2420 3884 3642 3518 2278 2817 2596 3256 2736 2036 3487 2709 2377 1548 3946 1977 3980 3570 2523 2336 3746 3133 1512 3135 3074 1507 1522 2953 3249 1849 3260 1721 3933 2308 2535 2475 3356 1738 3043 3680 2698 3681 3971 2881 2285 3633 2043 3254 2905 2626 2613 2784 2759 1606 1537 2500 3460 3127 2900 2922 2364 99 71 55 88 46 88 44 23 66 3 73 77 88 96 36 29 95 25 57 10 11 9 57 26 59 47 91 22 13 71 68 54 71 84 87 80 62 57 29 8 86 13 62 19 32 24 51 65 48 91 52 21 24 81 50 73 68 73 80 7 22 98 79 78 48 92 90 4 5 53 52 89 2 80 41 52 11 69 34 55 38 41 54 91 5 76 84 65 0 6 83 40 23 33 2 62 50 82 86 21 3205 2376 3194 1784 3529 2949 2167 3863 3465 2498 3286 1925 3450 2155 3741 2633 3136 2118 1655 2613 2952 3215 2821 3138 2617 1733 2052 3829 2278 2732 3299 2411 2060 3345 2142 1519 2859 3461 2735 1562 1688 2048 2679 3240 2593 3039 3810 3860 2216 2858 2872 2146 2355 3007 3025 2423 3894 1542 1982 3529 2054 1904 2661 2714 3538 3098 1768 2319 2773 3874 2860 1504 1807 1949 1651 2004 1601 2088 3884 2783 2639 1585 3500 2733 1510 2766 3032 2045 2926 2466 3176 3238 1762 1695 2389 3103 3361 1945 2429 2470
3547 3902 2290 3455 2359 3896 2112 1507 3514 3864 2634 3998 2179 1751 2749 3435 1768 2457 1978 2040 3201 3822 2997 3723 3273 2922 3623 2346 2710 3348 3121 1923 2873 1535 3450 3314 2545 3265 2861 3828 3220 2393 3126 2687 3583 3049 3204 2799 3590 2580 2829 1674 2314 2572 2425 2347 3010 3669 3243 2865 1675 3601 2076 3187 1611 2923 2989 3957 1937 2806 2626 2308 2921 3103 1508 2705 2098 2272 2290 3146 1559 2658 3366 1561 2724 2301 3559 2977 3516 2586 3976 2712 1620 3041 3730 3101 3001 2719 2081 3965 2739 2705 2713 1943 2311 1592 2357 3416 3117 2663 2856 3277 2820 2260 2588 1553 3026 1877 2120 2525 3341 2429 2943 2111 2894 2649 1954 1729 2278 3504 1631 3873 3125 2628 3676 2611 2256 3992 2505 3846 3840 2729 3545 2347 1884 3822 3124 3343 2782 2486 1592 1697 1754 3003 2638 1928 3401 3438 3692 3871 3173 2863 1882 2264 1550 2730 2659 2798 1525 3486 2370 2584 2051 2191 1731 1798 2076 3149 2907 3384 3115 2132 3812 3623 2424 2039 2386 2505 3841 2152 2742 2232 2164 2038 3413 3341 1834 3149 3744 3599 33 6 81 15 80 23 92 45 51 51 98 17 66 50 56 23 6 8 48 57 48 22 86 56 72 70 76 13 51 12 8 80 77 84 76 72 80 40 13 67 98 55 6 6 24 76 83 45 64 51 29 55 86 25 27 38 85 85 94 32 28 27 54 33 49 84 16 98 70 76 79 61 72 46 78 98 14 62 19 2 88 44 59 25 91 67 8 45 6 0 4 54 62 50 68 85 8 18 77 10 3680 1732 1929 3746 2345 3500 3847 3229 1660 1972 2686 3188 3936 3598 3365 2229 3723 3964 3934 3447 2119 2603 3462 2532 2479 2981 3842 3084 1662 2183 3698 3559 2553 2771 3340 1943 2746 2281 3152 2144 2715 3505 3478 3852 2695 2873 1655 3150 1901 2949 2503 3568 3416 2721 2280 2549 3616 2236 2916 3424 3172 3624 1826 3512 2050 1942 2340 3332 3393 1562 2914 1678 3657 1572 1729 2330 1761 2908 1989 3669 2257 2802 2814 2042 2357 3873 1691 2752 3309 2682 3566 2170 2099 3853 2774 3314 2487 1847 3063 3655
2516 3115 2341 3521 2234 3766 3391 2747 3627 3287 2201 1909 1725 2142 1654 3551 1723 3014 3566 2107 2569 1849 3907 3425 3811 3894 2972 2123 2060 2656 2372 1954 3232 1808 2881 3142 2736 3195 2469 2294 2063 3453 2035 2057 1871 3614 1803 1508 2716 3521 3820 3781 2888 3415 3234 2234 3259 3026 3156 3749 1773 3638 2670 3692 2830 2540 3675 1790 3972 3354 1526 2114 2652 1975 2926 1539 1713 3233 3263 2083 3822 3894 3622 3817 3530 1783 2189 2427 3288 3531 2596 3284 2183 1652 1593 2527 3793 3791 2472 2410 3389 1639 1863 2496 1729 1829 3517 2004 1590 2982 3677 3531 1670 3221 2217 2830 2551 2303 2842 3792 3051 3252 3667 3781 1677 3198 3327 2559 3359 3242 2239 1720 1783 2125 3644 2939 3993 2389 3864 3484 2681 2411 3493 2282 2225 2066 2519 3510 2870 1967 3744 3588 2074 1520 3892 2874 3337 3746 2377 3938 2339 2823 3266 2642 3367 2483 3685 1995 2590 3485 2285 2966 2966 2535 2371 2872 2021 1653 3905 3159 3873 2223 1783 2865 3603 3743 2325 2165 2379 2025 2599 2178 2243 2621 3848 3395 2620 2311 2855 2082 68 17 68 81 69 14 95 41 26 87 13 93 52 78 12 51 16 10 15 71 43 29 23 2 53 61 10 58 94 98 84 38 55 17 85 3 71 42 72 11 80 13 59 57 40 56 86 33 20 63 24 60 4 7 13 79 55 12 90 2 62 80 59 53 90 73 49 26 78 74 6 53 98 39 10 84 62 15 89 91 14 70 81 14 80 93 53 97 83 4 0 99 42 72 99 16 14 99 22 83 2870 2775 1820 2710 2310 2355 2813 1680 1817 3248 1939 2459 3603 1575 2868 2254 2144 3135 1668 3803 1761 3862 3672 3336 3275 3929 3459 3194 2312 3768 2083 2695 2722 1668 3324 3855 2161 2519 3966 2508 2793 3174 2295 2734 2169 2965 2847 2168 3954 3911 3433 1863 3750 2377 1870 2939 2214 3951 3142 1919 3330 3049 3097 1975 2945 2713 1925 3061 2146 2999 3032 2739 2809 3915 2618 2268 1758 2631 3706 2622 3644 3088 2646 3477 3766 3972 1510 1617 2433 2449 3922 3882 1745 3921 3268 3625 2662 2073 3196 3350
1604 3354 2770 2179 3602 3062 1602 1694 3055 3458 3814 3167 3778 2839 3683 3419 1557 3716 1549 2071 3852 1918 2813 1711 3158 1994 1727 3178 3606 2182 2612 2451 2209 2324 3614 2960 3504 2853 2076 2588 1754 3172 1740 2831 3697 1828 3954 3197 2530 2191 1517 2994 2867 2571 2329 2478 3766 2697 2454 2232 3346 3047 2203 2096 3670 2325 3646 2439 3514 2958 1858 3199 2930 2697 1704 3041 2527 2145 1856 2242 2283 3764 2708 3739 3716 3005 2478 2852 1564 2380 2136 1554 1730 2860 3152 1810 1536 2014 1829 1906 2124 3953 2828 2064 3748 2299 2626 3553 3339 2932 2308 2006 3016 3280 2733 3034 1804 3689 2172 2357 3694 3637 3956 2786 3197 1723 2056 3154 1665 3755 3579 3436 1995 3718 1547 2587 3393 3942 3206 2638 3150 3729 3360 2353 2434 3505 3770 3870 2511 1834 3830 3582 3142 2681 2339 1709 1828 3894 3428 2291 2804 1663 2811 3350 2348 3417 1684 1549 1969 1641 3438 3872 2460 1945 2282 3445 2429 2889 3614 3368 2904 3496 2557 3215 1942 1614 3347 1905 2748 2925 2101 3072 2514 1918 2971 2740 3251 3497 2969 3939 92 14 8 66 80 77 20 17 64 96 59 61 37 4 62 80 96 13 74 86 88 88 47 36 60 49 60 44 67 22 50 60 59 78 4 96 82 6 99 14 76 83 87 78 42 79 44 49 33 25 28 79 82 88 75 8 54 25 75 62 35 50 97 32 56 60 76 55 69 46 49 30 28 42 45 78 14 48 53 48 9 68 66 86 30 76 38 86 40 54 99 0 84 81 34 11 23 57 31 8 1787 1555 1986 3858 2965 1551 2488 2775 1748 3188 3002 1871 3137 3008 3076 2664 2154 2286 2990 3554 3427 3954 2587 2290 3644 3725 2027 2543 3835 3239 3096 1511 1649 2754 2962 1856 2377 2269 3906 3741 2860 3658 3613 2457 1703 3539 3259 1831 1783 3176 1930 2317 2168 2499 2261 3052 3826 2786 3057 2218 1596 2942 2512 1668 3747 3067 1913 2138 2470 1517 2487 2337 2116 2030 2642 3067 3505 1683 1902 2042 1933 1935 3096 3345 3462 3281 3577 3674 3678 3587 3096 2678 2895 2761 1835 1868 3722 2331 3230 1555
3774 3028 2413 2734 3201 1533 2004 1934 2575 1776 2285 2279 3334 1500 1583 2279 2853 3431 1680 3011 3775 3323 3350 3698 3139 2810 1634 2567 2056 2716 3096 2422 3036 2256 2969 2686 3344 3091 2281 2695 1513 1676 2266 3887 2681 3744 3844 3609 3333 3089 1691 3944 2432 3582 2394 3332 2365 3936 2809 2287 2839 2500 2531 3859 2052 3077 3323 2848 2087 1731 3728 1985 3552 2585 1934 3824 3278 2325 2583 3210 2647 1559 3480 3006 3634 3639 3523 2134 1758 2719 3579 1748 1734 2993 3216 3447 2750 1580 3178 3729 3510 2632 3497 2368 2340 2806 3838 2668 3902 3879 3925 3932 2431 1661 1891 2489 2730 2098 2968 1832 2626 1644 2881 1969 2721 2812 3934 2799 1735 1676 3364 1582 2547 3705 2258 3048 1952 1506 3374 2268 1546 2259 2367 2667 3394 3225 2930 1794 3599 3981 2657 2533 1759 1589 3131 1679 2064 2218 2266 3675 3226 1878 3538 2174 2944 3946 3355 3268 2957 3013 1905 1696 3123 2857 1926 3321 2927 1851 3984 3404 2666 3569 1606 1845 2153 1919 2639 3309 2329 2435 1830 2713 3457 2854 3525 3297 3179 2197 2115 1654 37 37 63 49 72 36 15 93 24 14 95 3 86 39 11 48 58 9 24 56 47 80 20 46 59 55 77 9 43 22 24 98 5 31 67 93 83 88 93 62 21 8 55 91 21 9 25 60 62 45 92 51 99 40 78 9 4 76 29 23 74 69 24 90 57 88 82 68 2 96 59 67 1 37 6 58 33 55 29 20 24 56 49 37 71 27 35 22 23 62 42 84 0 67 47 8 59 53 51 88 3129 2943 3022 2314 2468 3891 1513 2615 2898 2650 1836 1815 3030 2864 2231 2454 3345 3507 2774 3927 1699 1723 3647 1829 1807 2596 2787 3386 1516 3280 3161 2098 3517 3639 1747 2436 1979 3675 1777 1804 3440 3715 2303 1503 2207 1554 2900 2134 1892 1959 2938 2076 3584 1870 3482 3177 2464 2445 2306 3317 2197 2768 3967 2046 1834 2698 2915 2728 3497 2914 2001 2720 3993 2252 1721 1764 3143 3280 3184 3029 3258 1971 1591 3455 2714 2704 3324 3018 3823 3320 2647 3751 2108 2404 2542 2045 2517 2747 3274 3636
3852 2250 2985 2914 1918 1610 3065 3197 3104 1965 3291 3024 3295 2902 3271 1731 2543 1573 2693 3431 2750 1649 3958 2839 3751 3942 2836 3785 2511 1554 3077 3129 1552 3293 2298 1928 3747 2088 3213 2581 3930 3477 2593 3724 2522 3105 2859 1826 1736 1577 1807 2520 3526 3535 2158 3911 1816 3879 2499 1541 3650 2681 3849 2157 2331 3034 3232 2200 1785 1869 3440 3765 2900 3801 1587 2234 1632 2996 2351 2673 3264 2646 2385 2248 2523 3482 2488 3153 2646 3713 2628 2611 3132 3254 1930 2592 1509 3172 2124 3044 1937 2057 2062 1501 2976 2186 2911 2301 3589 3294 1798 3738 3534 2894 2288 1507 3097 3949 2782 3686 2685 1991 3747 1968 2832 2329 2187 2151 3258 2330 3500 2011 1514 3037 2726 2108 3228 2576 3209 3860 2068 1645 2347 3196 2535 2598 1575 3300 1951 2932 2038 1739 2756 1546 3112 3997 2072 3518 2409 1785 3756 3870 3047 2142 2394 1808 3386 3950 1713 2896 1542 2393 2632 1953 2544 3367 3277 2656 3328 2066 2146 2128 1551 1643 2276 3218 2198 3641 1908 3700 1991 2360 1707 3518 3656 3372 1812 2056 3980 1980 70 55 29 81 41 37 61 63 73 76 36 55 99 15 15 54 11 43 96 36 67 87 63 54 90 62 11 99 4 48 48 55 12 80 44 70 30 74 9 23 93 66 16 55 23 35 11 40 47 22 79 60 40 22 19 53 74 17 92 56 68 46 99 71 8 76 54 67 92 6 85 85 41 86 68 12 71 48 15 25 59 9 58 38 16 57 32 71 33 50 72 81 67 0 1 35 62 61 93 97 3547 2606 2977 2692 1517 3418 2768 3919 2753 3961 3556 3550 2456 2554 3587 2600 2219 3569 2392 1800 3513 3732 3671 2200 2448 1931 3595 2708 2807 1871 3617 2855 2071 2324 3404 3226 3258 3222 3719 1946 3902 2293 3977 2480 3381 2184 3705 3633 2542 1979 3076 2092 1776 3649 3885 3750 3581 1760 2803 2156 2892 1881 2002 2813 3344 2465 2734 3060 1679 3244 3610 1753 3373 2745 2880 3914 1777 3386 2057 3736 2880 1883 2830 3474 1915 1782 3878 1650 3111 2087 1651 2786 3375 3912 2618 1591 2362 3175 1759 1506
1607 1684 2445 3640 3265 3009 3183 3800 2350 3979 2483 2337 1818 2287 2867 3233 1874 2724 1597 1653 2088 1805 3095 2903 3519 1658 3600 1664 1559 3247 3268 2486 3572 3773 2670 3440 3389 3078 2736 2300 2045 2460 3807 3719 2636 2444 2603 1845 2485 3669 2384 3890 2487 2923 3691 3317 3442 2023 1745 1982 3125 2849 3410 3394 3400 2300 3440 2111 3122 1560 3915 2893 1802 3899 3552 2997 3112 3483 3177 2022 2643 3871 2463 2884 2684 3737 2739 3565 3069 2571 1922 2591 3094 1653 2878 2639 3076 3464 2068 3333 2219 1803 1663 2140 3835 2665 1727 2896 3720 2929 2376 3678 2055 2383 3150 1723 1941 2482 1584 2906 3334 1871 2591 3093 2197 3308 1682 3923 2437 2777 3217 2847 1855 3487 3354 2577 2802 3423 2390 3479 2317 2741 1826 3732 2963 2053 3480 3802 2284 3359 1575 2533 2481 2807 2541 3403 3580 2319 3851 2500 3434 1977 2123 3503 3390 2118 3588 3210 2300 1771 2259 3298 3195 1701 3263 3749 1876 3482 1883 3396 3181 1993 3329 2529 2176 1698 3586 3451 3008 3683 3700 3264 1888 2456 3065 3512 3334 3407 3020 1647 77 84 20 68 44 79 93 13 45 72 7 98 42 18 23 67 8 25 12 93 31 73 44 80 95 91 76 57 50 99 80 33 2 69 37 74 83 1 37 4 55 73 72 14 11 18 69 84 65 24 79 83 1 26 85 65 18 27 31 80 52 46 93 51 45 49 44 72 86 98 33 43 88 82 29 31 66 12 44 64 82 65 10 10 68 10 54 49 2 68 99 34 47 1 0 52 80 64 83 19 1603 2470 1726 1692 2067 1890 2243 1773 2035 2809 2176 2453 2553 3918 2707 2884 1553 2554 3624 3383 3549 3021 3707 2539 3389 3972 2711 2181 2573 2914 3822 3010 2878 2056 1662 2110 3640 1508 1538 2532 3729 3073 2609 3357 3025 2561 1994 3604 3692 3150 2785 2203 2914 2115 3821 1958 1815 2524 3797 3627 1608 3473 2445 2042 3295 3492 1867 1946 1783 3931 2341 3138 1748 2348 3738 3711 3271 1502 2069 1612 2289 2061 3045 2290 2049 1503 3969 3086 3682 2281 2279 2361 1600 2650 2097 3343 1837 3040 2675 3647
2983 3032 3305 3115 2192 1767 2879 2045 1588 2851 1691 2617 2460 2916 2663 1767 3385 3934 3360 3401 3154 1693 3744 3522 3222 2055 2605 3905 2434 2348 3918 3217 3271 3059 3396 1945 3246 2390 2666 2583 3942 2788 2066 3980 1601 3367 1514 1698 2912 2512 3792 2268 2019 2288 1680 1627 2532 3848 1639 3871 2871 3387 3008 3826 1933 1953 3892 1701 3620 3918 2971 1797 2266 3363 3005 1791 1959 2127 3589 1589 3959 2109 2252 2794 2852 3740 2705 2365 3730 3025 3626 1815 3447 3546 2766 3840 1704 2832 3466 3331 3897 2432 3537 2677 1623 2399 3937 3183 2614 2249 2199 1618 3394 1593 3406 2149 2151 1511 2289 3794 3172 3049 2387 2137 1793 3766 3755 1546 3754 3753 2982 1521 3775 3360 2369 2477 3443 2155 3481 3044 2435 2583 2709 3345 2738 1755 3622 3870 3178 2585 1726 2650 2456 2354 2996 3801 1999 3981 3902 2989 3852 1866 2564 1926 2992 2282 1872 1637 3655 3334 3541 2498 3037 3687 2949 1597 1651 3419 2194 2504 2089 2167 2473 1719 2147 1569 3428 2657 3524 3301 3544 3994 2011 3224 1956 3823 2107 1606 3737 3729 67 97 7 71 95 1 34 76 24 97 44 28 5 94 67 79 54 72 85 68 49 30 54 18 49 5 16 96 83 56 11 40 32 56 16 65 27 19 53 37 58 22 90 5 62 36 12 33 8 85 54 95 26 85 57 68 64 99 78 47 70 53 92 97 36 56 66 61 73 31 1 6 86 32 41 54 97 29 52 44 91 67 43 82 77 84 53 76 62 85 16 11 8 35 52 0 62 7 30 7 2890 3682 3348 3274 3569 1587 2054 2682 2331 2591 2215 2036 1859 3713 2432 2272 2983 2593 3662 2738 3050 3614 1784 3066 3803 2602 2136 3799 2302 2674 1544 3225 2609 2882 2128 1925 1963 3728 2853 1874 3502 3057 2469 3759 2917 3058 2539 3206 3997 1826 1945 2914 3533 1689 2925 3120 3746 2772 3814 3314 2977 2102 1961 3519 3822 3764 2521 2260 2476 3642 3363 3677 3786 2702 3222 3578 3531 3611 2111 2701 1801 2271 2742 2033 3729 1997 1796 2437 3913 2159 3680 3377 2533 2463 3090 2513 3981 2331 2003 3107
3556 2116 3973 2805 3201 1743 1590 3328 3739 1554 1770 3483 3862 2144 1909 2969 3289 2523 3481 2885 2053 2981 3378 2816 3154 2661 3431 3003 2766 3149 2406 3862 3451 2492 3320 2450 3979 3353 2398 2756 2247 2999 2214 2256 3672 3542 2075 3951 2176 1618 3582 1558 1525 3018 3669 3953 3955 3053 3173 3912 2941 3361 2513 1855 2817 2952 3771 1662 2929 3333 2181 3163 1943 3336 2393 2284 2618 1608 3343 3262 3381 3124 2143 3629 3538 2551 3432 3350 2706 2311 2747 2622 3810 3175 3510 1637 3061 1878 3962 2370 1774 2148 2100 2938 2209 3873 3678 2683 3408 2372 1778 1619 3804 2034 2411 1834 2394 2186 2810 2936 2905 2203 2568 2812 3981 3669 2980 1831 2830 2262 2279 2811 3201 1733 2195 2700 2177 1506 3625 3813 1680 1763 2176 3301 2657 2575 3976 3762 2573 2542 2004 3414 3625 1713 2896 2041 2826 3781 3066 3034 2338 3004 1669 2739 3029 2734 3865 1971 2804 2219 2354 1763 3039 2640 3547 2859 1971 2351 3604 2082 2732 2765 2385 3098 2975 3949 3674 1960 2238 3864 2887 3514 2461 3399 2793 3987 3496 3177 2003 2482 54 22 92 63 83 93 85 71 62 35 58 74 18 10 12 98 28 18 62 85 71 41 45 83 25 86 61 42 19 92 3 63 86 99 6 70 6 62 54 77 84 86 33 86 29 73 52 69 66 48 95 86 61 27 37 3 92 20 79 52 41 26 89 21 7 8 25 84 33 9 58 81 36 72 11 52 77 36 49 49 30 53 39 56 80 29 74 51 50 8 14 23 59 62 80 62 0 48 2 20 1985 3189 2678 1859 3270 2710 2344 3671 1806 2673 2883 3347 2042 2634 3502 3897 2863 2973 2667 3769 2819 2012 3061 3212 3172 2114 3574 2658 3945 3710 2000 3194 1977 3208 1830 3254 3549 2856 2177 1771 2325 1528 2817 2000 2389 2209 1902 3442 3561 3189 3749 3152 3900 1695 3185 2199 2709 3097 3611 1638 2812 1797 3954 3604 3591 2816 2174 2525 3258 1643 2219 3916 3527 3904 2083 3771 2316 3215 1573 2461 2182 2850 3051 1638 2503 1802 2683 3346 3172 3336 3833 2610 1883 1777 1593 3853 3732 3626 2921 3814
3474 1802 1868 1999 2853 3998 2472 3159 2831 1741 3851 3493 1842 1817 3657 3427 3770 1594 3532 3159 1642 3186 2507 2144 2191 2747 2350 2242 2585 2296 3516 1794 2747 2074 3474 2921 1933 3661 2193 2358 3023 3996 1852 2762 2716 3155 2252 2163 3715 3217 3551 2645 2134 2800 2585 3878 1845 1664 2258 2632 3307 2843 3188 1940 3633 3185 1787 1820 1709 2736 1758 3456 2639 3586 2472 2129 2540 2216 1910 2041 3025 1510 3366 1922 2999 3738 2175 1947 2724 3540 2213 2111 3005 1718 1752 2118 1766 3998 2064 2589 2792 1951 2293 1612 3297 3792 1820 2459 3399 2979 1804 1683 1819 2068 3778 2445 3162 2697 1616 1726 1900 2004 3678 1649 3375 2054 2838 1574 3451 3740 1986 3427 3263 3444 2283 2361 3418 3682 3661 3188 2873 3960 3299 3368 2835 1596 1939 3160 3203 3090 3440 2221 3146 1846 2843 3116 3017 2120 1836 2069 2433 1796 3774 2842 3754 2679 2583 3667 1928 3490 2883 1923 3558 3933 1756 2958 2161 2274 2067 3550 2560 3509 3877 3069 2791 2192 3828 2263 2065 1762 3639 2752 2300 3947 2158 1608 2795 1795 2397 3706 72 7 85 81 81 80 44 83 9 89 19 44 45 59 1 23 23 97 75 45 82 38 40 33 44 94 17 3 57 47 4 53 69 29 4 31 76 53 57 41 29 45 1 27 85 73 79 40 43 7 65 78 5 81 61 99 97 45 63 76 21 29 50 99 59 85 62 30 6 97 64 61 56 41 21 96 15 49 75 32 19 65 59 23 90 31 63 85 82 18 99 57 53 61 64 7 48 0 7 4 3271 1848 3618 1787 3675 3729 2467 2278 2179 2882 2214 3043 3571 1877 1648 3234 1750 2976 2806 2039 3312 3242 3979 3963 2056 3847 1678 3863 2206 2296 3220 1972 2384 2740 1557 2553 3824 2595 2871 3776 3180 3915 3196 3603 2356 1558 2086 2084 3091 3440 2076 3374 1867 1919 2984 3049 3119 1594 2193 1774 1701 3222 3619 3757 3772 2652 3320 1834 2912 1865 3942 1626 2307 1722 3283 2446 2248 2300 2492 2959 3230 2275 2525 3053 3249 2373 1702 3113 3769 3649 2095 1658 2464 3118 3245 2982 2211 3332 2762 1755
2538 2935 1798 2731 3419 3681 3380 3077 1714 3977 3854 2568 2779 2490 2948 2304 2888 3725 2074 1669 3276 3994 2073 2995 1670 3917 2350 1527 1823 2272 3111 2651 3772 2648 3099 2165 1663 2887 2505 3374 3875 3220 3226 3093 2394 1882 3749 2877 3668 2753 3943 3512 2464 3072 3707 2514 2648 3138 2902 3926 2056 3887 2125 2173 3563 2278 2089 3680 1527 2265 2048 3748 2594 2675 2135 3290 2879 3794 3736 2592 1789 2954 2999 3170 2628 3074 1840 3684 3737 3590 1591 3437 3621 3490 2688 2603 3579 2828 1620 2966 2344 1588 3029 2911 3866 3966 1923 2175 1660 3992 1843 3618 2554 1770 3169 2893 1818 2450 2634 2115 2471 3850 2356 2407 3019 3072 2428 3043 2111 2491 1863 3896 3069 2119 2169 1675 2778 1925 1846 3334 2276 3769 3528 1541 2499 2570 1956 1974 1825 2351 3389 2848 2320 1799 2776 2592 2508 2050 3029 3849 3030 2656 2963 2328 1764 2663 2986 3494 2516 3794 3337 1794 2580 3723 3283 2924 2635 3334 3037 2381 2904 3087 3497 3505 3587 3135 3952 2580 1918 1678 3513 2667 2024 3234 3080 3653 2042 3566 3859 2610 79 38 77 90 31 50 81 64 70 23 4 89 68 65 84 5 65 33 16 72 71 81 62 37 53 39 28 96 41 26 53 53 70 29 20 45 77 66 17 23 27 37 85 50 43 20 48 38 6 92 75 57 9 5 3 22 65 21 44 61 10 36 99 3 20 10 37 14 78 86 62 34 73 91 70 62 68 29 73 10 17 44 30 37 81 73 3 33 86 77 22 31 51 93 83 30 2 7 0 58 2615 3733 2396 3013 3732 1592 2754 2973 3155 1871 1861 3772 3616 2817 2439 2067 2607 2519 1858 1779 3173 3130 2419 1535 3588 3891 2491 3984 1531 1601 1776 1599 3154 2036 2090 3891 2445 3991 2956 2594 3317 1941 2609 2834 3199 3600 2247 3389 1966 3114 2822 2987 3502 2793 2283 1989 1954 1810 2539 3222 3955 2773 3211 3086 2912 3519 2552 2139 1570 3456 3014 3297 2495 2314 2073 2788 2894 3148 1816 2298 2039 3591 3455 1896 3526 1872 3541 3576 3560 3309 3705 1930 3121 3409 3592 2076 3805 1975 1577 3169
3649 3025 2202 1586 3749 2317 3333 2024 1992 1793 2482 1663 1751 1569 2121 2696 3740 2642 2214 1609 1580 2036 3090 2049 3612 2490 2426 3008 2463 2863 1520 2549 2640 2773 3374 2159 2196 3939 3624 2564 2021 1805 2311 2539 3209 3978 1809 3379 2667 1553 2653 1987 2963 2469 1578 2154 2867 3379 3754 2630 3780 3443 3388 3456 3281 3459 2624 3173 2315 2843 3004 3620 3222 2160 2580 3213 2603 3784 3217 3259 1724 1513 3241 3521 3828 3771 3408 2356 1669 1903 1684 2000 2419 1758 2269 3036 3003 3711 2291 1532 3083 2553 1622 2333 2223 3666 3274 2956 2408 2078 1622 3477 2513 3202 3082 3786 3042 2569 1527 2735 2075 1864 1705 2143 2908 1834 3462 3443 3458 2714 3773 1927 3437 2146 1548 1907 2159 1980 1692 2130 2314 3328 2644 3885 2320 3441 3971 2284 2851 2648 3399 3175 2373 3431 3779 1690 3117 3650 1990 2190 2014 2112 2919 1528 1856 1856 3260 1819 2292 2668 3539 2030 2333 2319 2679 1782 2710 2638 3266 1678 2896 2817 3689 1975 3356 1904 2296 3470 1605 3343 2415 1864 3666 2345 2058 2783 2801 2859 2986 3711 62 45 25 41 31 91 29 21 1 98 48 75 9 6 50 91 95 70 12 57 64 97 17 19 69 29 97 69 57 91 96 35 99 51 40 77 98 40 93 99 61 51 91 23 26 72 95 2 97 44 9 74 5 76 80 2 4 88 55 32 71 33 78 3 42 15 57 31 65 93 94 65 51 19 23 31 63 69 9 82 79 7 41 48 34 6 49 87 21 10 83 8 88 97 19 7 20 4 58 0 1723 1774 2982 2100 3645 3185 1585 3688 3404 3725 3560 2768 2943 3673 3384 2718 1527 2450 1974 3460 2680 2475 2011 2405 2763 2091 3990 2684 2455 2087 1753 1696 3400 1997 2236 2299 1563 2943 3393 1912 3126 3713 1584 2575 3313 3764 2046 2057 3500 2770 2846 3409 2842 2185 2755 2357 3767 2137 1929 3833 1660 1616 2811 3759 1525 3644 2808 3989 3300 2994 2458 3045 1781 3350 2811 2813 3690 3398 2637 2048 3081 3365 2381 3920 3928 2754 2759 2506 2261 2468 3240 2125 3803 3143 3063 2466 3034 2801 2066 2108
3574 2485 2007 3128 1698 3900 1726 3834 3922 2240 3535 3186 3113 2091 1977 2664 3927 1573 2080 2544 2389 3850 2591 3627 1920 2541 1580 1977 3405 3850 3001 3076 3701 3446 1760 1569 1994 1517 1754 3778 2813 2514 2729 3457 1941 1613 3615 1748 2678 1777 3857 2043 3315 2164 3992 3909 2198 3806 3818 2691 2224 2413 3369 3867 1808 2776 2849 1790 3259 2018 3481 2301 3993 1871 3592 2703 2556 3026 1551 3983 3350 3388 3223 3575 3473 1863 2439 2670 3414 1555 1816 2829 1916 3264 1936 2341 1721 2574 3524 3442 2270 2131 1756 3878 2830 3894 3654 3519 3899 2284 2450 3770 3350 2285 1756 2930 2251 3147 2050 3782 2971 3248 1535 3151 2396 2811 3698 3950 2990 2836 2597 3663 3229 2595 2307 1702 1531 3617 3313 2352 2851 3118 3610 2481 2402 2828 1711 2721 2117 3251 2026 3387 3073 3752 1627 3982 3667 2874 2926 3106 2147 3800 3559 3329 1853 3787 2888 3376 2238 2649 1679 1984 3866 2121 2345 3333 2243 3747 2118 2681 3008 2710 3548 3070 1737 1833 3218 1854 2663 2722 3177 3271 2038 2798 3014 1804 2662 2850 3847 2802 2050 1636 2824 1885 3864 2386 1914 1667 1626 3873 1809 3924 3185 2308 1559 3799 2163 3243 2609 2613 2794 2707 3802 1531 3033 3621 3131 2914 3299 3292 1883 2683 1666 3732 1997 1696 3919 3175 1611 3937 1811 2696 3454 3557 2092 3145 2347 2472 3546 2351 1863 3342 2055 2382 2134 1800 1801 2555 3884 2279 3655 1877 3630 2324 2055 2802 3176 3983 3656 3269 3775 1683 3315 3128 1507 3801 3433 3393 3866 3004 3380 2978 3664 3558 3386 3377 2715 3459 3205 3680 2870 1787 3129 3547 1603 2890 1985 3271 2615 1723 0 47 98 29 99 70 50 12 71 96 37 20 10 91 74 17 22 33 70 59 99 65 55 69 1 46 49 97 99 7 5 63 59 84 83 34 44 68 2 38 15 35 35 89 7 38 78 26 27 15 62 40 56 23 82 99 67 89 11 81 6 10 46 9 46 43 30 25 34 98 6 1 45 12 64 14 80 40 57 94 52 61 57 76 11 55 39 25 54 67 58 35 91 50 49 8 73 89 84 20
1783 3074 3326 3967 3132 2892 3842 2492 3495 1816 3070 3043 3945 3149 1954 3616 2574 2942 3576 2595 1759 3939 3404 3935 2643 2659 2538 2031 3221 1634 2834 1790 3611 1654 2498 3073 2723 3846 2666 3561 3992 2435 1832 2553 2509 2583 2171 3689 2613 3180 3519 3705 3044 2264 1712 1590 2857 3668 3964 1613 3125 2258 2512 2149 1839 1700 1794 3296 3877 2655 3179 2767 2527 2105 3316 2514 2022 1966 2340 2499 2634 2024 3526 2332 1898 2675 2736 3881 2763 1931 1691 3225 2854 2140 3176 3486 2776 2273 2142 3994 2341 3662 3871 2785 1949 2970 1624 2974 3430 3302 2276 2150 3238 2963 2808 3896 2521 2647 3404 1501 2423 2334 2104 2500 1568 3265 3680 1603 1557 2750 3732 3070 2186 3266 3022 3894 3088 2373 2036 3639 1921 2887 2691 3328 3999 3332 3739 3441 3901 3571 2250 3559 3074 2155 3904 3872 3301 2277 1770 2650 2902 1603 2496 1706 3966 1876 2479 3648 2088 1689 3366 3781 3019 3011 1678 2470 2312 3052 1941 3389 3868 3750 3943 2731 3034 1712 2085 1816 3414 1908 1981 3211 2329 2381 2588 2373 2601 2442 2570 2798 3830 3478 2214 2811 1791 2039 3364 2088 2369 2738 3890 3833 3719 2246 2237 2313 2416 3313 2579 1735 3938 1658 1605 1677 2241 3485 1675 2455 2360 3793 2039 2808 3643 2584 3546 3756 1803 2882 1533 1879 2344 3640 2092 1705 1934 2436 3702 2017 2749 2665 2733 2702 2471 2402 2711 3659 3986 2339 1626 1828 3415 1973 2520 2360 3094 2522 2964 3547 3253 3205 1877 2200 2286 1513 2085 3071 2279 3627 3563 1588 3556 2647 3492 2171 1577 2802 2280 3027 2376 1732 2775 1555 2943 2606 2470 3682 3189 1848 3733 1774 47 0 7 32 32 25 91 7 84 87 5 38 45 37 61 24 17 67 8 34 51 30 90 70 3 88 59 65 72 25 95 86 13 33 83 90 98 84 10 26 66 76 80 11 27 80 69 97 61 80 77 2 55 41 52 68 91 22 64 31 8 17 56 9 84 84 4 75 5 99 80 77 62 80 65 51 73 76 6 23 30 75 79 72 91 10 43 13 38 84 70 90 91 75 97 38 41 14 29 32
1524 3980 3313 2980 1764 1585 3084 2781 1946 2652 2196 2966 1536 2345 1839 2345 1529 3918 3968 1603 2936 1702 2433 2998 1639 3963 3779 3557 3768 3761 3854 2130 3673 2793 2787 3323 2984 3170 3779 1678 3428 3808 3640 2433 1889 3878 3088 3448 2925 3047 1522 1774 2842 3060 3181 3942 3371 1988 3713 3714 2262 2056 2845 2280 2485 2017 3187 2426 2584 3890 1752 3959 2219 3095 2561 3464 3787 3134 3077 1775 1949 3607 2434 2458 2915 2457 2689 3303 3376 1785 2222 2341 2479 3286 3836 1688 3094 2900 3258 2932 1843 2926 2577 2044 3174 1571 3516 3662 2774 2780 3029 1930 1654 2801 3346 2675 3423 2968 2887 1804 1573 3219 1835 3491 1991 1808 2893 1549 2285 3723 3129 2150 1815 3900 3480 3200 1728 1765 2089 3273 1728 3059 2447 1559 1909 3565 1999 3789 3535 3986 1550 1916 3140 3727 3572 2061 1873 2246 3165 3707 3742 2464 3356 3237 3618 2120 3439 1562 3716 2290 3666 2294 2956 2283 2885 3140 2453 1949 3281 1606 3631 3913 3551 1779 1899 1809 3907 3518 3517 3337 3894 1993 1518 3070 3708 2418 2823 3195 1713 3652 2851 1835 1621 3111 1638 3048 1763 3883 3743 2047 3855 3333 3210 1850 2055 1556 2762 3255 3832 2336 3412 3414 1526 3251 2783 1768 2852 2398 2444 1625 3295 2424 3244 2763 2679 3496 2852 3659 1562 1960 2319 3698 3100 2121 3362 3849 2972 2880 3762 3224 3433 3247 1546 2580 3507 2896 2530 2057 2408 3524 3957 3977 3452 3954 3882 3058 3757 1959 1778 2109 3460 2707 2186 1707 2979 3879 3317 3540 2847 1649 2972 3910 3057 2525 2196 2877 3298 2982 3194 1929 1820 1986 3022 2977 1726 3348 2678 3618 2396 2982 98 7 0 69 31 83 10 50 33 94 38 36 21 90 25 32 77 31 68 69 61 39 49 72 87 36 56 62 71 98 67 80 31 47 6 23 60 31 58 56 53 26 96 48 60 31 49 11 36 98 51 45 13 13 51 11 61 32 92 22 65 40 87 24 10 61 99 77 92 42 73 46 79 89 40 52 22 41 76 79 26 55 71 97 66 35 45 15 59 50 4 12 62 4 30 15 42 84 15 47
1755 3395 2920 3543 3803 3138 2490 2314 2563 2952 1938 3536 2359 2049 3129 2438 2529 1675 3314 2155 2467 2259 1767 3242 2251 1955 1930 3722 3440 3335 2778 1968 1552 2582 3946 1938 1592 1754 3440 3138 2084 1547 2474 3259 3183 3315 2633 1666 3847 2767 2501 3033 3231 3637 1947 2874 1821 3514 3120 2149 2174 3646 3512 2127 3309 3477 1672 3571 3580 3014 2266 1527 3615 2351 1950 2072 2914 1933 2266 3460 3453 2365 2544 1978 3519 2293 3258 2163 1526 3259 3200 3172 2306 3285 3282 1882 2040 3025 3231 2519 3206 2203 3869 1999 1804 1733 2526 2484 1689 3532 3236 2702 3818 1657 2272 1732 3311 3747 3628 2496 2850 2838 2097 1658 3477 2689 3292 2115 1750 2570 2823 2843 2211 2422 3537 2757 3488 1937 2156 2816 2151 1777 2806 3968 1880 1958 3464 3277 2698 1766 2322 2070 2945 3487 1791 2331 2935 1689 2108 3607 2257 3949 3489 3200 2951 3381 2384 2247 2620 3538 3128 2483 3306 2329 2033 1589 2423 2595 3240 3336 3679 2870 2352 2511 1810 2265 3921 1762 2391 1849 3272 2473 1698 1781 2677 2932 3773 2138 2092 3261 3262 2258 3846 3592 2911 3724 3661 2293 1923 2325 2307 3803 1603 3458 1778 3501 1585 2649 3175 2790 2868 1935 1972 1890 2296 3793 2693 2519 2605 3621 1832 3905 3788 2637 3009 1845 2628 3218 3892 1655 1861 2996 3446 3348 2087 2089 3348 3333 3013 1700 2194 2463 1529 2341 1711 3447 2740 3136 1885 3066 2479 2333 1977 2096 2400 1501 2275 1697 2259 2737 2121 3971 3583 1748 2085 3444 3107 2982 2872 2508 3622 3968 3715 3323 3204 3546 1589 3518 1784 3746 2710 3858 2314 2692 1692 3274 1859 1787 3013 2100 29 32 69 0 9 11 59 70 41 27 11 58 6 42 80 92 33 75 21 98 11 96 16 72 65 81 25 59 72 9 39 63 28 54 43 54 32 15 22 68 30 15 47 63 4 14 27 3 5 26 82 91 95 51 44 13 85 32 73 32 20 41 16 47 47 87 36 64 92 12 28 24 14 76 29 18 31 71 99 14 37 30 77 82 67 87 20 34 52 10 64 39 3 64 31 50 75 58 22 66
2412 3809 3982 2485 3638 1833 3864 3573 2335 2863 3515 3871 1843 2890 2940 2968 3290 3104 1860 3630 2066 2985 3669 3600 2043 2472 3647 2386 3983 1659 2609 1896 1800 2134 1782 1674 2138 2819 3960 3145 1787 3644 3898 2268 3837 3181 2677 1857 2225 3699 1610 2054 2701 3935 3852 1595 1588 3250 3521 3096 3420 1548 2240 1839 1934 2642 3714 3433 1838 2118 2051 2308 3893 1734 2108 3536 3132 3815 3389 3670 2376 2308 3875 1671 2504 3715 3930 2761 2862 1881 2990 2942 2143 3774 2759 1654 1552 3466 1982 3010 3374 1661 2500 3471 1660 1522 2700 2208 2814 3606 1662 3318 2278 3746 2814 2364 3748 3338 3306 1613 2931 3445 2460 2283 1531 3122 3324 2051 2166 2885 3289 2746 2423 2421 3806 3989 3217 3044 1978 1572 1713 2130 3766 3022 1818 2010 3702 3869 3647 2657 3402 2243 3731 3359 1716 2788 2543 1538 2681 3685 3640 3186 1965 2369 3719 3618 2855 3409 2235 2283 1827 2233 2765 1658 1607 2625 2964 2622 3317 2061 2186 3436 2491 2209 2613 3220 2206 3629 3476 2501 3015 1637 1951 3530 2260 3633 2175 2479 1562 2651 2984 2736 2404 2565 3682 2434 1978 3239 2784 2737 2343 3015 2507 1625 2365 3952 3763 2174 3907 2590 2150 2419 3674 2820 3301 3760 3381 2480 1899 3688 3979 3747 2622 2323 2513 2848 2953 2312 2025 3517 2059 1810 2045 1987 3667 1786 3247 3970 2457 3923 1978 1934 3475 3605 2723 2153 1893 2027 3009 1690 2755 2634 2265 2487 3874 1954 1874 2550 2406 1655 3982 3796 3102 2242 1603 1654 3680 3762 3936 2944 3479 2454 1617 1559 2627 1557 2898 2151 3529 2345 2310 2965 2468 1517 2067 3569 3270 3675 3732 3645 99 32 31 9 0 23 43 99 68 49 7 93 41 2 12 65 19 92 56 85 59 48 5 89 30 83 84 3 75 91 97 90 77 44 16 50 16 78 81 11 92 2 89 15 42 59 81 42 3 60 13 11 3 63 17 5 95 20 41 45 86 29 61 89 99 28 43 53 62 92 57 92 97 4 36 94 80 5 50 7 71 36 13 58 1 23 80 43 18 34 64 26 36 37 57 20 69 71 12 1
1774 1669 3749 1809 3865 2374 2438 2116 3680 3339 2803 2407 3820 2038 2455 3072 2340 3073 3266 1654 3364 1797 3049 1903 3433 1872 3659 3842 3274 1568 1713 2077 2188 1868 2979 3602 3550 1523 3938 1717 1831 1676 2680 3288 2199 1792 3547 3457 3969 2116 1535 3280 3777 1995 2300 3305 3495 3373 3516 2786 3639 1954 2249 2251 2482 2063 3803 3357 2760 1892 2765 2770 2947 1899 2777 2817 1636 2775 2448 2850 2644 3084 2051 2400 1518 2247 3704 2236 3222 3284 2140 3527 1902 2035 2744 3417 3074 2711 3473 2631 3471 1916 2131 2942 3160 3850 2634 1639 1613 3157 2757 3355 2334 2270 3848 3794 3183 2613 3581 3409 3516 3934 1848 2424 3031 3939 3243 2542 2193 3135 2373 3791 2880 1747 2714 1597 1500 2055 2501 2771 3671 3155 3761 3737 1664 3820 2037 3590 1510 2672 2632 1636 3935 2933 3025 2956 2936 2383 1543 2403 3034 1653 2511 2665 3675 2079 3636 2780 3469 2972 2700 2144 3489 3331 2562 3572 3267 3456 3477 3707 3195 2844 3372 3209 2640 3345 3373 1507 2989 3537 1758 3223 2364 3687 1750 2339 3400 1925 2895 2681 3771 2466 1900 1899 3916 3765 3829 2745 3687 1596 3673 3726 2751 3283 3919 2245 3652 3254 2781 3245 1791 3203 2896 3880 3862 3399 3426 2408 3893 2587 2739 1811 2419 3006 3099 2063 2837 2103 3258 2600 3157 3319 2954 2794 3971 2828 2171 2294 2044 2776 3323 3586 2217 3159 1846 2845 2844 1613 1650 2785 3819 2253 3617 3526 2063 2899 2226 3527 2450 3097 2905 1851 3534 2508 2154 2861 2524 3694 1832 3354 3947 1616 2496 2151 3940 3413 2391 2443 2949 3500 2355 1551 3891 3418 1890 1587 2710 3729 1592 3185 70 25 83 11 23 0 51 2 92 4 4 45 82 4 33 45 17 25 39 63 21 73 65 34 65 10 41 98 10 3 86 71 38 91 36 2 16 1 60 54 87 74 44 1 12 56 73 38 2 98 47 88 52 5 95 50 62 58 42 9 87 48 39 13 55 62 60 77 76 92 81 65 96 11 80 68 12 25 45 67 75 40 88 70 17 74 17 34 87 19 45 54 64 89 78 13 88 64 43 17
1696 1880 3954 2466 2392 3581 2344 2100 3504 2223 2702 3065 3543 1668 2693 2370 2009 3564 2632 3261 3819 2690 3880 2956 1640 1904 1861 1851 3117 1884 2817 1929 2147 3366 2999 2236 3923 3225 3708 2946 3260 3917 3470 2949 2952 3321 1950 1868 3909 1754 1745 2328 2236 3495 2127 1621 3591 3453 1649 3729 3727 2828 2380 2333 1951 2584 3311 3945 1542 2235 2786 3395 2531 3953 2504 3870 3055 3742 3206 1595 1752 3162 3884 3485 1612 2780 1826 3876 2835 2341 3839 2027 2024 1715 3992 2479 1516 2879 2499 2580 3023 2335 3720 2976 3679 2069 1758 3601 2933 1991 2809 3293 2236 2684 3055 2051 1924 2722 3903 3240 1719 1958 3580 2168 3521 1902 2780 2185 2208 3340 2316 3511 1880 2093 1706 3340 3347 2283 3656 1977 2884 2862 2319 2749 2032 2654 1759 2043 2117 2808 2899 3011 2238 3416 2346 2703 3534 3191 3295 2742 3663 2555 2411 2354 2804 3820 2354 1788 2599 1792 2427 2050 2648 1526 3901 2723 3986 3111 1858 3939 2652 1631 1743 2674 2465 3895 2735 1630 3100 3594 2533 2582 3036 3651 2972 3512 2120 3347 2934 3377 3596 3485 2527 3574 3572 2860 2757 3486 1638 3260 3702 1751 3328 3220 2935 3758 1621 3717 1950 2654 2844 3288 3234 1571 3605 2992 2493 3105 3493 1633 2485 2892 3938 3065 2338 1921 3370 3232 2674 2723 3132 3608 1735 3322 3760 2461 3065 1689 3905 3081 2641 1767 3293 2573 3326 1577 3580 2139 3818 3522 1772 1628 2565 3967 1692 3694 3791 1835 3945 3243 3611 2098 2996 2396 2512 2756 2459 2307 3416 3369 1713 2852 3004 1735 3383 3480 3586 2569 2167 3847 2813 2488 1513 2768 2243 2054 2344 2467 2754 1585 50 91 10 59 43 51 0 37 14 50 50 56 46 42 79 91 49 63 70 94 28 37 86 69 38 13 32 48 79 64 25 39 91 39 12 6 62 88 28 30 38 47 44 54 64 37 22 52 22 64 75 62 34 60 86 47 99 58 63 52 45 8 57 11 15 54 64 14 56 83 21 76 86 5 25 31 52 99 74 20 66 77 62 65 20 63 51 65 21 97 40 15 2 75 24 1 61 51 50 35
2146 2396 2619 3619 3029 3966 2785 3437 2113 2115 2051 2626 3756 2491 2837 2168 2064 2842 2665 2004 3830 1777 3318 2008 2446 2055 2221 3026 3225 2927 3560 3840 1998 2960 3614 2738 3185 3584 1527 2417 1990 3056 3107 3928 3012 1818 2086 2718 3343 3445 1733 3472 2524 2199 3942 3161 3329 2310 2410 2608 2613 1752 3711 2523 3596 1618 3207 2403 3552 2605 3141 2326 2874 2498 2384 3635 3613 2879 2809 3567 1765 3250 2338 3042 3350 3891 2416 1718 3094 3813 1957 2582 3452 2215 2767 2703 2328 1728 2408 1584 3147 2152 2959 3827 2787 2360 2822 1895 3262 1988 3393 1882 2213 2366 2433 2166 3811 2863 2141 1888 2251 1697 3647 3400 3564 2315 3583 2502 2768 1858 3029 3500 3798 2467 2030 2942 3680 2930 3665 3351 2523 1950 3272 3833 2334 1957 2373 3539 2088 3552 2551 3238 3623 3700 2276 1802 3289 3393 3527 3322 3257 2248 1686 3566 3574 2949 3543 1666 3528 2490 3739 3840 3984 3025 2839 3060 3562 3553 3355 2076 1956 1766 1864 3318 3604 2381 1920 2083 3040 1977 2235 3835 3502 2252 2229 2168 1803 2216 1986 2082 2783 2118 2332 1661 2234 1804 3507 2412 2732 2948 2018 2654 1576 2757 2395 1719 2680 2838 2129 1885 3679 3040 1692 2270 2695 2310 3582 1953 2318 3067 2499 3060 3218 3463 2562 3232 1766 3434 3804 3185 1601 2365 2800 3280 1901 3715 3945 1974 3225 2484 1611 2281 3467 3029 1552 2554 2258 2401 2007 3821 2152 2738 3589 3177 2604 2615 1673 2690 3475 2113 2457 3146 3099 3017 3046 3723 2313 3666 3059 1523 1872 1823 2809 2667 1835 3884 1635 3212 3863 3229 1680 2775 2615 3919 1773 2682 3671 2278 2973 3688 12 7 50 70 99 2 37 0 80 33 87 14 71 7 27 58 38 76 50 43 97 53 65 38 54 66 64 12 98 20 9 1 59 8 60 96 24 68 41 39 17 92 27 35 84 22 70 70 60 45 49 28 76 64 95 96 7 83 30 9 60 61 90 60 76 16 85 11 20 28 72 83 96 73 79 54 32 54 17 51 49 61 96 92 61 20 39 67 72 18 63 71 83 62 48 74 40 49 99 85
3131 2974 2884 3082 2920 3217 1527 3887 1812 2051 3551 3545 1645 1670 2000 2634 1586 3423 3350 3073 3562 1628 3268 2574 3503 2136 1548 1568 1852 3224 3661 2381 2386 1905 3576 2111 3713 3894 2196 1875 1567 2000 3887 3643 1532 2507 3672 2020 3157 1516 3675 3609 3611 2430 2742 3153 3220 3985 2886 2958 2210 1678 3779 3181 3459 1626 3659 1555 3593 2981 2642 2148 2363 1847 3553 3238 3027 3596 2695 3260 1919 2334 3132 3838 2261 2119 3016 1910 3512 3069 2523 3088 2558 3137 2839 3928 3270 3587 2586 3895 1649 3006 1863 2075 3731 2473 2576 2280 2069 2067 2367 2953 3863 1511 2950 3392 3303 3710 2378 2069 3656 2010 2063 3387 2307 3659 1606 2798 3249 1690 2362 2354 3679 3041 3410 3934 3913 1705 1808 2839 3989 3619 3884 2339 3242 3522 2275 1822 2485 2296 3752 3603 2617 3362 2376 1575 3327 3873 1589 1780 1620 3295 2200 2203 3370 3070 3510 1889 2347 3977 2910 2636 3205 3904 1675 2133 1733 2538 1988 3639 3967 2162 2794 2082 1674 3925 3442 1714 3670 2832 3708 1559 3161 3814 3069 3439 1543 3684 2212 3577 2915 3689 3070 3275 3111 2949 3231 3433 3633 1617 3292 1762 2427 2311 1795 1721 3187 2766 3393 2166 3097 2628 2733 3856 1785 3828 1502 2268 2559 2437 3781 1890 3977 3908 3768 1996 3730 1706 1916 1539 2371 3451 2619 2864 2168 3169 3229 2240 3700 2858 3436 3869 1820 3018 2541 3372 3591 2769 1559 3857 3813 2408 3941 2278 3786 2536 3969 3903 3352 3944 1663 3855 1945 2267 2681 3354 3386 1765 1622 3427 3722 3574 1829 2216 1564 2592 2700 2890 3465 1660 1817 1748 2898 2753 2035 2331 1806 2179 3155 3404 71 84 33 41 68 92 14 80 0 67 71 26 98 21 8 72 57 69 16 12 69 58 74 62 2 55 52 34 83 19 72 79 95 55 96 82 7 35 61 56 76 67 83 54 72 39 61 45 60 30 54 68 42 22 61 26 12 11 38 55 91 14 97 93 40 2 78 94 10 95 28 22 50 48 48 82 12 57 25 45 87 79 96 11 43 39 9 49 81 41 8 7 36 40 3 38 90 47 51 27
2810 3238 2516 2145 1673 2252 2086 2259 3870 3211 3137 2256 3903 3768 3378 2502 3173 3736 2824 3087 3332 3951 3229 2991 1956 2985 2499 3597 3755 3056 2573 2197 2748 1800 2800 2843 2060 2030 3157 3792 3331 3200 3716 3854 2129 2078 2400 3991 2431 1646 2013 3438 2974 3585 3488 3824 2130 2989 1906 2873 2675 3299 3596 3803 2935 3359 3788 3334 2853 3493 2116 2885 2442 2144 3640 3108 3413 3637 2523 1649 3092 3185 2300 2926 2915 2348 3414 3522 1758 2624 3362 2039 3792 2306 3086 3473 2317 2371 2025 1958 3661 2844 2375 3639 2933 3016 2375 1524 3320 2926 2949 3245 1885 1679 3528 2024 2801 2754 2104 2658 3682 3809 3633 1974 1848 3267 2153 2434 3057 3487 3736 2833 1600 2910 1784 3929 2408 2060 1595 2326 2387 2875 1809 2557 2343 3449 1665 1948 2970 2463 3682 1767 3511 3619 1646 2675 2040 2247 2663 2111 2245 3030 1632 2557 3701 2345 3942 1554 1765 3884 2379 3786 3711 3526 2456 1791 2887 3691 2227 1711 3096 2279 2015 1771 3389 1820 1977 3068 3121 2700 2264 3666 2203 3568 2938 1550 3423 2980 3652 2165 3739 2758 3095 2025 3171 1897 1901 2183 1978 2834 3757 1839 2975 2573 2431 3759 2832 2950 2188 2451 3579 2681 2398 2084 3347 3843 2815 3301 3705 1578 2301 1552 2657 3408 1767 1842 3210 3285 3904 3357 2105 2386 3567 3082 2257 3667 1603 3945 3306 3400 1935 2535 2427 2016 3660 2956 3713 3121 2923 2434 2615 3289 2712 2420 2558 3108 1662 3879 3339 3609 3163 2846 2940 2084 3803 3454 2508 3577 2786 3128 3474 2571 1974 2432 3986 2506 1758 2307 2498 1972 3248 3188 2650 3961 2809 2591 2673 2882 1871 3725 96 87 94 27 49 4 50 33 67 0 78 28 71 78 90 55 5 89 17 94 62 51 55 95 93 5 3 75 92 77 4 88 10 37 26 56 19 41 93 66 46 27 36 1 35 46 15 96 6 10 97 14 25 95 28 89 43 14 29 67 85 18 43 74 58 37 6 89 3 6 66 76 86 92 79 76 88 92 73 44 92 73 94 60 84 68 56 32 35 4 73 23 51 77 76 8 41 55 30 92
2184 3240 2205 3419 2758 3954 2542 2390 2432 1626 2522 2150 1604 2137 3669 1787 3070 3712 2333 3127 3550 3260 1575 2644 3869 2099 2758 1869 3421 2735 2328 2624 1649 3664 3479 3354 3558 2727 2462 3115 2598 1589 1602 3927 2819 2839 3930 2975 2776 2503 2913 3836 3924 3325 3477 1846 3483 1558 2717 2204 2428 2765 1629 1635 3220 1919 2896 2597 2459 1997 1709 2541 2069 2900 1801 2898 2531 3666 2975 2381 2712 2840 2464 3216 3648 3011 2749 1886 3345 3729 2278 3625 1826 3183 1813 2846 3397 2320 2510 1922 2006 1594 3977 1538 2965 3065 2672 3425 1752 3451 2940 1989 2571 2189 2013 2529 3730 3070 2651 3512 3784 2424 3742 3496 3147 3730 2940 2278 2042 2087 3562 1616 1939 2258 3183 2202 1979 2060 3528 3845 2111 1542 2133 1858 2020 2785 2496 1963 3465 1603 2937 2531 2596 3114 1614 1749 3628 2872 1813 2154 1772 2623 3113 3758 2732 2550 2016 2320 1727 3566 3708 2867 2672 3371 2056 2244 2574 2265 2233 1690 3086 3239 1593 1693 3203 3446 3553 3800 3344 3266 2457 2033 1909 2739 1899 2791 2512 3263 3762 1805 2224 3755 2687 1796 2031 3107 3249 3132 3496 3373 3928 1523 3199 2792 2092 1783 1592 3846 3958 2004 2235 1542 3574 3607 2594 3397 3775 2087 2723 3828 3682 2514 2828 1577 1838 3834 3754 2162 3136 3169 3183 2807 1856 2616 2284 1845 1508 1858 3650 3488 3311 2929 2373 2114 1566 3434 2593 1823 2930 2454 3429 1838 2183 2745 2682 3062 1747 2790 1660 3611 2724 2373 1630 2883 3738 1506 3150 3005 2623 3643 2601 2737 2399 1687 3470 2605 2546 2035 3286 2686 1939 3002 1836 3556 2176 2215 2883 2214 1861 3560 37 5 38 11 7 4 50 87 71 78 0 79 33 61 87 3 92 6 33 14 49 94 38 44 99 76 23 36 65 96 91 2 97 6 3 31 21 48 22 91 96 20 87 44 79 89 46 59 74 48 75 14 72 16 96 24 13 3 99 58 17 95 22 99 29 80 21 71 97 29 25 37 4 45 53 61 54 55 35 67 81 72 29 8 6 12 92 81 26 92 76 11 14 89 81 40 37 69 38 17
3876 3766 2266 2118 2805 1536 1934 3786 1652 2699 2264 2640 3476 3126 2680 2745 3252 2130 1819 2289 2345 3315 1578 3457 2422 3807 2962 1699 2379 2284 3248 1978 3371 1966 2312 3319 3590 1921 1576 3386 3739 1841 1682 1551 3631 3171 1559 2607 2714 2248 2261 2883 3890 1745 1552 2994 2514 2125 2546 2134 2720 3664 3768 3032 3140 3629 2867 1897 3968 1641 3150 3992 2992 1949 1995 2525 3659 3914 3271 3897 2459 1946 2800 1599 2140 2224 2487 1780 3233 3785 3621 3456 2053 3215 3854 3535 2722 3333 2464 2872 3342 2081 2965 3654 2879 2928 3915 3652 2863 2411 2179 2966 3919 2467 1612 3882 3386 2599 3832 3769 2738 3301 2967 2525 3287 3123 2431 3534 3614 2305 1939 3492 3348 2814 1942 3269 2570 3503 1563 1516 1806 3188 1933 2711 2813 1924 2405 1934 3971 2343 3594 2650 1888 2559 2683 3535 3727 3880 3707 3896 3403 2574 1978 2388 3359 3590 2977 3372 3000 3513 3715 1855 2940 2995 3279 2015 3682 3374 3925 2952 2946 2802 2190 2907 1723 2432 3896 2774 2020 2897 1886 2032 3128 2454 1989 2837 2278 3063 2769 2889 3420 1817 2027 2404 2103 3355 2791 1762 2520 3652 1999 2822 3193 3853 3733 1880 2350 3898 2530 2692 2053 3934 2778 1563 3256 2292 2782 1555 1530 3422 1966 3044 2001 3106 2623 1815 1892 3961 2803 3892 3878 3511 2108 2736 2761 2124 1719 3092 1629 1961 3254 2866 2805 3308 2671 3810 2368 2011 3193 2660 3520 2652 3904 2717 1832 2706 3654 2628 1752 2633 2025 3818 2657 2793 2386 2876 2496 1627 2129 2791 1927 3794 2795 2760 2302 3016 2347 2254 1925 3188 2459 1871 1815 3550 2453 2036 3347 3043 3772 2768 20 38 36 58 93 45 56 14 26 28 79 0 84 25 6 6 44 24 90 6 75 95 37 64 90 20 51 23 68 17 79 60 53 54 8 10 56 4 46 47 76 50 51 33 11 11 93 80 45 66 14 43 69 63 75 55 85 68 20 41 84 72 96 16 3 34 14 89 90 49 54 18 81 2 40 91 21 78 35 21 16 80 60 35 54 52 47 67 94 50 68 53 71 99 59 6 40 80 9 23
3256 1841 3358 2126 3066 3391 3478 1534 3122 3558 2711 3312 1716 2601 3365 2751 2864 1760 3367 3113 1605 2764 2641 3612 2073 2956 1824 2309 3534 1844 3471 2161 3593 2423 1615 1722 1984 1565 1841 1965 2546 2724 2900 1922 3460 2068 1923 2445 2326 1715 2192 2728 2800 2197 3543 2880 2609 2172 3374 2342 1638 3053 3073 3145 2325 3230 2044 2894 1738 2165 2093 1671 2369 3565 2995 1694 2712 3401 2126 3283 3765 1820 1868 2069 2937 2230 1885 1969 2392 3319 3896 1844 2554 3281 3840 3190 2897 1557 1806 2076 2540 2629 3837 1576 2611 1650 2792 2305 3969 3758 2108 3616 3489 3427 2357 2123 1817 2249 2646 2681 3913 1811 2958 3118 3936 2850 1590 1657 2117 3676 2081 2466 3685 2614 3497 2237 3055 3122 2369 2597 2372 2905 2354 2297 3101 2222 2691 3101 2281 2803 2033 3724 2204 3702 3984 3766 2843 2077 2593 3297 1972 2094 2835 2244 2965 3974 2560 3742 2279 2524 3041 3475 1782 2867 2828 1511 3013 1908 2907 3744 1614 2781 2194 1538 1961 2810 1985 2871 3922 3214 2502 3969 1971 1881 2565 3632 2815 2278 1887 2172 2727 3384 2228 1772 1888 3310 3436 2456 3032 1763 1818 1679 1611 1992 3167 2291 1831 1775 2877 1553 2659 1747 1907 3120 2601 2971 2613 2644 2865 2270 3049 3253 3046 3804 2737 1517 1916 2139 1644 3197 2022 3424 3442 3508 2055 1537 3529 3190 2757 2847 3421 3657 3860 1519 3146 2359 1725 3367 3726 3060 2700 3882 3666 1820 1979 3055 2436 3371 3639 2556 2576 2277 3512 3038 1850 3701 2664 3318 1643 1555 3785 2184 3389 2412 1966 3555 3424 2092 3450 3936 3603 3137 3030 2456 2553 1859 2042 3571 3616 2943 10 45 21 6 41 82 46 71 98 71 33 84 0 67 54 71 39 96 37 75 73 35 68 62 2 93 30 55 96 29 54 23 69 28 1 7 27 86 34 44 7 15 95 34 51 8 53 95 80 78 39 74 23 81 87 43 43 66 80 96 42 65 48 43 76 23 51 29 89 35 60 53 51 73 75 99 88 72 11 6 98 70 82 80 34 66 30 32 36 2 38 67 72 61 90 59 29 96 4 12
3086 1928 2078 3431 2147 3227 2471 1971 3694 2073 3992 3144 2851 2836 3849 1936 2198 2845 3642 3637 3959 2604 3864 3883 2306 3730 3215 3203 1840 2704 2149 3957 3605 1827 2458 3019 3337 3313 2839 3601 3250 3299 2478 3476 2253 2527 2741 2668 2103 3391 2569 3677 3049 3146 3334 3395 2450 1903 1617 2915 2165 3750 3804 1889 3006 2303 2866 3263 2608 2337 1943 1655 3373 2261 3684 2079 1756 3407 2738 1723 2749 2100 3106 3907 2417 2267 2841 2803 3800 1829 2955 3698 2865 3385 2774 3618 3419 3903 3351 3622 1764 2255 1775 2037 2023 1957 3299 2602 2313 3376 2560 3301 2237 3073 2106 2542 3705 2429 3965 3782 2241 3748 2669 3626 2096 3488 1889 3159 3105 2796 2898 1971 3266 2073 2271 2109 3860 2434 3777 2769 3612 2610 2311 3960 2498 3582 3809 1965 2551 2557 2061 3796 1619 3187 2538 3114 3857 1785 2579 1770 2237 1949 3165 2677 2415 3227 3928 3130 2659 2843 3686 2951 1732 2021 2346 3737 2284 2882 3973 3953 3700 1554 2229 2709 2483 3430 2597 2437 2829 3502 3024 3606 2600 1754 3430 3542 3448 3619 3068 1904 3617 1855 3409 2472 2638 3654 1954 3187 2591 1675 3198 3249 1590 2970 2695 1838 2295 1884 2933 3074 3786 2251 3659 2523 2613 2875 1543 3612 1930 3150 3010 1857 3324 2071 3367 2560 1506 2567 3624 3464 3163 3561 1991 3936 2688 2213 3063 1807 3827 1704 3605 3014 1883 3572 2040 1804 2078 2569 3435 2366 2288 1850 1819 3690 1868 2323 3223 2375 2624 3473 3741 2186 1942 3471 2459 2166 2963 3086 3543 1849 3557 2623 1981 1740 2805 3449 1796 3392 2155 3598 1575 3008 2864 2554 3918 3713 2634 1877 2817 3673 91 37 90 42 2 4 42 7 21 78 61 25 67 0 95 67 2 2 46 69 16 65 83 56 69 95 1 71 42 33 50 38 93 32 97 46 43 92 67 50 40 82 90 11 70 33 88 18 22 74 14 81 15 89 63 34 88 59 30 90 39 50 92 49 38 58 8 99 22 54 75 82 88 54 62 6 12 36 73 39 28 24 68 30 10 7 71 16 99 25 97 14 57 23 8 36 70 13 31 16
3859 2281 1866 2266 1692 2985 2867 2650 2326 3930 1822 2009 1935 2817 3398 2545 2255 2300 1734 2250 1552 3065 2230 3928 1791 1898 2937 3050 2215 2477 2688 2311 1837 2626 3185 2772 1798 2832 1557 2092 3836 2354 3173 2903 3180 3794 3563 2220 3192 3118 2648 2485 3233 3969 2473 2281 2375 3811 2633 3796 3015 2131 1593 2476 3803 2816 3209 2712 3892 3898 1934 3282 2087 1706 1822 1639 2881 2388 3504 3842 1693 2444 2239 2768 3100 2786 2703 3151 2353 3825 1877 3896 2287 3062 3461 2398 2703 2857 3579 1854 3347 3366 1616 1823 1822 2958 3631 3003 1703 2320 2060 3232 3406 2637 3091 2365 3574 2490 3081 3818 2802 3048 2013 2866 2970 2079 2266 2569 3580 2044 2431 1582 3093 1861 3111 1948 3993 2824 3964 3004 3501 2004 2591 3865 3451 1718 2183 3218 3089 2338 3842 1701 3796 1914 1943 3806 3171 1785 3702 3800 2381 3610 2125 3308 2473 1784 1866 2774 2631 2803 3500 3350 2192 3320 2345 1921 3223 2070 3289 1728 2099 1978 3128 2718 2943 2438 3713 2777 3870 2160 3911 2444 2788 2372 3808 1709 3586 2292 3482 2862 3860 3371 3752 2203 1713 3612 2020 1926 2157 3428 2670 1883 1960 2045 2535 2758 3719 2362 1707 2695 3240 3435 3443 2666 2580 3934 2809 2413 2768 3655 2001 3781 2136 2733 1558 3424 3212 1679 3618 2112 3704 2914 3863 2670 3320 2939 2398 2412 2125 2890 1852 2036 3580 3539 3047 2536 3054 3142 3751 3997 2358 3292 1532 2719 2177 3185 1867 3737 2985 3885 3182 3705 2240 3326 3003 2258 2742 2230 3716 1548 3958 3205 3513 1590 2174 3779 2310 3602 3741 3365 2868 3076 2231 3587 2707 2432 3502 1648 2439 3384 74 61 25 80 12 33 79 27 8 90 87 6 54 95 0 47 66 5 46 44 68 84 43 54 29 74 81 84 50 47 90 53 58 87 28 17 77 59 25 90 10 49 83 55 49 78 34 38 49 71 62 29 10 49 77 29 6 56 45 20 49 63 5 92 83 86 15 56 10 41 65 53 30 79 97 83 95 78 86 8 61 9 74 86 86 49 38 45 85 56 50 15 82 39 95 88 6 20 60 25
3463 1919 3126 3393 1560 2145 3192 3737 3178 3514 1772 1500 1564 3544 1867 2466 3639 3888 3139 3283 2590 3871 1502 2894 2839 3223 2726 3406 2310 2824 3869 3233 1840 2775 2188 3585 2498 2405 1995 3941 3213 1866 3495 3773 2036 3871 2776 2114 3228 3270 1987 3785 2771 3257 1920 3336 2812 1777 2690 2310 1583 1963 1624 3014 2433 2776 3425 3346 2185 2955 2505 3844 2317 1829 3930 1559 2882 3381 3333 2890 2431 3605 2749 2496 1990 1885 3727 3572 3844 2603 2424 3728 3759 1771 3794 2931 1687 2306 3443 3608 2792 3455 3212 1995 3959 3414 3582 3808 2076 1661 3853 2470 2707 1508 2850 3493 2333 3157 3361 2326 2768 2660 2495 2148 3388 3569 2803 1981 3949 3813 2874 1698 2224 1999 1532 3258 2927 3520 2724 3401 3111 2420 2356 3735 2322 2808 3934 2161 2385 2365 2077 2470 2920 2754 2417 2121 1588 1810 3553 2793 2347 3403 2737 1522 1889 3241 3774 2989 2509 2999 3527 2368 2992 2009 2240 2292 3281 2081 3389 3262 3664 1674 3400 3151 3944 2485 1520 2864 1799 2048 3665 1500 2163 2330 3051 2401 1775 3699 2271 3182 3644 3903 3229 2171 3350 3073 3824 2589 2636 3113 3641 2046 2811 3170 2369 3625 3623 3000 2343 2504 3899 1520 1719 3045 3244 3388 2364 1975 2084 3002 2186 3128 1816 1753 3436 2471 2038 3306 3959 2631 2402 1930 2669 2728 1834 2325 1716 2524 3849 3929 3920 2330 2847 1597 3890 3491 3745 3144 3698 2375 2689 1840 2100 2806 3144 3837 3285 3575 2283 1911 3120 3547 2463 3052 2562 3431 2570 3820 1829 3572 1972 2273 2558 2744 2399 1976 2959 3990 2633 2229 2254 2664 2454 2600 2884 2272 3897 3234 2067 2718 17 24 32 92 65 45 91 58 72 55 3 6 71 67 47 0 33 31 76 88 37 37 19 88 60 13 87 28 24 13 37 65 74 64 23 37 71 95 66 86 43 86 90 28 23 46 48 38 41 76 34 48 24 54 98 93 96 16 87 64 52 35 12 69 5 35 98 40 15 91 91 55 20 76 11 37 8 91 99 62 56 72 52 59 56 24 79 61 10 74 7 60 84 43 38 88 62 94 10 34
1817 3289 2843 3997 3424 2848 1726 1504 3612 1813 1548 3033 3376 2260 1735 1554 2768 2994 2400 3137 1677 1839 3333 3208 2567 2395 3150 2074 2323 2502 1983 3758 3100 3342 2355 2447 3058 2157 3928 3090 3678 3263 2562 1956 2658 3697 3166 3135 3709 2652 2275 3535 3786 2066 3319 3984 2390 2731 3148 1856 3471 2271 2270 3442 1801 2222 2289 1923 3740 2486 3186 2094 3324 3135 2358 2600 3209 2595 3288 3073 2261 2584 3940 2131 2556 3989 1711 2459 2249 2659 2251 2614 3060 3918 3684 3799 1561 3950 2703 1959 3385 3761 1808 2408 1768 3235 2545 1962 1877 2923 1502 1617 3515 1862 3542 2991 2090 1778 2443 3405 3404 2903 3728 3375 3207 2371 2998 3193 2647 1600 3192 2455 1867 2188 3981 3589 3353 1945 2182 2833 3779 2798 2858 1713 3124 2618 3154 3766 3667 2462 2859 2763 2012 3730 3626 3355 3812 2176 3962 3719 3966 3467 3239 2016 3641 1928 2922 3729 3852 3804 2198 2801 1638 2579 3050 3794 2114 3226 1777 3352 3572 3771 2661 2989 3198 3372 3160 3801 3972 1983 3163 3243 1852 2630 3518 3191 3057 2670 1886 2891 2827 3591 2366 3857 2850 2696 2184 3290 3847 3825 2945 3452 3704 3470 2949 2439 3598 2090 3767 2561 3524 3956 3414 2783 3390 2923 3472 2825 3885 2053 1619 2858 1862 2930 3021 1623 1626 2823 2552 2561 2498 3691 2988 3547 3320 3989 1945 2072 3628 1545 1920 1588 1862 3718 1978 1968 2939 3349 2058 2914 3449 1622 2956 2487 3480 2946 2351 2612 2865 3973 3890 2166 3238 2033 3625 1918 1945 2089 2427 1570 3509 1543 3970 2348 2858 3058 3942 3858 3136 3723 2144 2154 3345 2219 1553 2983 2863 1750 2607 1527 22 17 77 33 19 17 49 38 57 5 92 44 39 2 66 33 0 87 17 24 34 75 16 47 58 48 83 45 1 62 76 48 32 66 7 76 65 61 95 27 96 79 75 11 9 10 89 65 23 49 36 92 56 28 78 36 32 36 41 48 20 28 13 63 56 63 86 35 44 92 5 92 51 91 33 70 63 12 74 74 41 44 98 94 57 76 6 28 82 63 82 9 79 29 42 71 85 86 74 60
1592 2529 2161 3614 3277 2104 1536 1883 3174 3162 2910 1604 1752 2590 3597 2389 3032 2786 2423 2079 3537 2933 1739 2114 1764 1806 2606 3758 3458 2538 2337 2579 3644 2965 3429 2023 2250 3834 3855 3885 3202 1635 3468 1666 3950 3396 1620 2250 1749 2827 2871 2620 2578 3210 1904 3570 3485 2687 2670 2915 2498 1693 2060 2724 3465 2609 2362 2624 3096 2751 3949 1581 2433 2213 3334 3717 3153 3170 2309 1636 3748 2249 2114 1880 3606 2305 3073 2134 2185 2636 3707 3797 2931 2967 2780 3166 3423 3114 2032 3553 2942 2756 3840 1923 3108 1962 2606 3050 1932 2265 3475 3573 2644 2253 1556 3007 3075 3617 2794 1705 1610 2433 3099 2382 1611 2304 2698 3420 3056 3929 2907 2483 2439 3194 2625 1813 1904 1878 3276 2168 3072 1855 1507 2742 3434 2278 1531 3661 2767 1903 3879 1550 2716 1798 2881 3081 3277 2807 3605 1776 1705 3434 2710 2257 3036 3098 1653 2421 3876 2531 1723 3853 2983 2795 3557 1844 2472 3346 1943 3287 3822 3509 3374 2330 3700 2705 2108 2982 1929 3413 3690 2031 3113 3653 1807 3821 2212 2437 3938 2308 2184 3661 3551 2986 3155 3703 3002 2357 3047 3224 2414 3912 2411 3665 2493 3119 3083 1781 2564 2829 1891 2727 3609 3736 2331 1775 1728 2490 3848 2565 3723 3735 2240 3246 1645 3685 1781 3027 1992 2800 3340 1976 3346 1638 2914 3950 3951 2191 3725 1899 3679 1719 1660 3576 1829 3437 2430 3584 1600 2612 2415 1717 1599 2466 2216 3914 1880 2379 2740 2641 3997 3680 2286 1956 3967 1795 2497 2299 1708 2537 2309 3483 2552 3249 3641 3818 2334 2157 2118 3964 3135 2286 3507 3569 2554 2593 2973 2976 2519 2450 33 67 31 75 92 25 63 76 69 89 6 24 96 2 5 31 87 0 74 93 64 58 97 10 86 25 68 8 1 20 53 99 45 12 68 47 57 70 54 66 72 82 37 3 47 35 44 48 54 22 89 91 97 76 68 84 43 75 32 75 97 21 98 31 43 28 27 48 90 71 27 39 21 85 31 91 85 76 41 79 25 96 55 5 14 78 62 82 13 10 39 2 85 64 5 5 80 97 63 11
3661 3752 2258 3514 1808 1524 3227 1684 2236 3649 2935 2062 3162 1572 2908 1540 1637 2232 2200 2053 2360 1982 2324 1758 2724 3926 1928 2140 3297 2945 3466 2721 2204 2031 2109 1989 2017 2753 3553 2063 2679 2338 2151 3056 3065 2516 1774 2646 3961 2642 2423 1792 1550 3671 3247 2007 3411 3025 3090 2207 3841 3530 3115 2066 2230 2279 2517 2385 2950 3248 3665 1564 2074 2727 3162 3464 2603 3038 1917 2587 2312 2736 2925 3601 2358 3928 3343 2185 2824 2287 3417 3339 3556 1806 2594 3670 3016 2275 3946 1827 1659 3561 2365 2200 2667 1899 3794 3092 2079 1526 3467 3230 3266 2620 2537 2210 1548 2338 3845 3041 3093 2056 1942 3777 3441 3338 2789 2489 3897 3752 1561 2786 1776 3044 2355 2047 3651 1752 3751 1930 3667 3100 3132 1557 3118 1806 1823 3806 3130 3564 3952 3311 3608 2564 3693 3526 2876 2658 2251 3129 2927 2272 3001 2664 1857 3509 2639 3650 1691 2932 2812 2678 3223 3419 2335 2853 1613 2713 3328 2450 2284 3666 2971 1883 3257 1855 2042 2630 2693 1616 3276 3508 3539 1602 2679 3100 2194 3362 2075 3880 3032 3050 2023 3873 3475 3333 3074 1969 1740 2641 1665 3143 2469 2972 2703 3728 3227 2401 2956 3127 2665 2493 1895 1884 3076 2554 2469 2648 1561 3717 3034 3249 2701 3648 2011 2466 1505 3018 3815 2551 2508 1974 2176 3786 1711 3720 2339 1777 3260 3278 3289 2453 2904 2756 2174 3308 2893 3547 2260 1982 3396 1589 3072 3352 3633 1818 1950 2135 1646 1775 2223 2687 2719 1551 2097 2284 2961 3667 3369 2493 3442 3716 2970 3291 3130 2825 3612 1751 1655 3934 1668 2990 2774 2392 3624 3662 2667 2806 1858 1974 70 8 68 21 56 39 70 50 16 17 33 90 37 46 46 76 17 74 0 78 66 46 12 67 49 20 73 18 27 33 90 93 74 80 63 28 68 75 30 71 88 28 57 4 63 47 72 54 84 91 7 39 79 49 24 55 35 2 17 64 14 83 66 62 59 51 41 79 80 74 63 97 3 7 21 43 72 90 3 82 96 56 51 46 2 13 94 6 46 24 74 49 29 29 56 81 46 42 91 73
2519 2209 3655 1841 3766 3332 1845 2239 3433 3617 1958 2805 3969 2049 3472 2101 1679 1859 2493 3681 1641 1767 2046 2129 3545 3774 2416 3623 2087 1772 3181 3890 2017 2915 3929 3506 3838 1605 2067 2763 3827 2575 2651 3939 1677 3779 3374 3926 2671 2745 3053 3189 3445 3825 3421 2887 2971 3999 1764 1623 2820 3839 3872 3636 1750 2833 3018 2770 2010 2057 3573 3027 2022 2915 2407 1987 3324 3886 2817 3797 2067 3729 1776 2566 2778 3528 3019 3195 1773 3718 3796 3074 1552 3998 3957 3929 1999 2845 3251 2168 3739 2893 3276 1698 1729 3059 3265 2694 2218 2139 3562 3486 2160 2119 3292 3159 1818 3213 1620 2040 2722 2101 2535 1657 2052 1984 2200 3768 3658 3757 3020 2067 2192 3290 3796 3603 1550 2629 3001 2575 1803 2233 2913 2226 2955 2081 3111 2569 3595 2245 1759 1610 3428 3630 2198 2772 3526 3389 1628 3328 3814 3285 3450 2996 3818 2915 2567 3417 1507 2002 1930 3884 2001 3121 3820 3311 1521 2672 1951 1869 2400 1632 3771 1657 3216 1862 2905 2966 1616 3214 3551 1803 1795 2330 2172 2662 2467 3567 3208 1986 3641 2149 3129 3806 2447 2348 2978 3601 3216 2705 1547 2812 2156 1710 3172 3963 3936 2025 1990 2304 3441 2510 2343 2843 1947 3247 3886 2398 2264 2200 3696 2323 2046 1557 2633 1878 3310 3817 3098 3246 2488 3117 3441 3040 3897 3961 2744 3395 2270 3959 3635 2239 2534 1926 2003 1583 1887 3696 3489 2701 2500 2634 2572 3184 2273 3775 1749 3343 3986 3788 3513 2261 3762 1897 3615 2916 3514 3004 1922 2760 1563 1595 2702 1621 2883 3726 3514 3310 2613 3447 3803 3554 3927 1800 3383 2738 3769 2039 1779 3460 59 34 69 98 85 63 94 43 12 94 14 6 75 69 44 88 24 93 78 0 13 52 9 96 69 69 67 41 95 35 77 59 74 68 51 35 74 34 52 92 6 99 77 19 81 47 20 94 66 16 70 42 2 28 91 19 90 36 98 34 56 7 86 29 90 45 82 8 29 56 69 66 9 32 16 38 76 87 2 92 47 51 13 74 79 92 15 82 75 19 83 97 76 10 16 27 67 65 53 8
1648 2354 1601 2833 3203 3459 3796 1946 2974 3301 3030 3571 3476 3713 3355 2134 2567 2980 3590 3332 2312 3283 2118 1565 3462 1788 3288 3338 3405 3440 3731 2612 1716 3449 2388 1587 3064 3819 3894 1776 2904 1886 1918 1744 2957 3885 3595 1519 3394 3233 3477 2506 1799 3710 2432 3474 3903 3714 3506 3178 2398 2679 1944 3492 2996 3270 3269 2625 3592 2407 1511 2480 3809 2929 3877 1566 2477 3824 2724 3717 3801 1721 2014 1783 3739 2175 1559 1750 2092 3311 2215 3175 3108 3180 3670 1809 1931 3475 1915 2994 2649 2840 3323 1759 2691 2720 2411 2330 3692 2626 2068 2033 3670 2790 3047 3947 3605 3142 2404 2450 1797 2611 2737 1721 1919 2032 2840 1606 1690 2408 1659 1896 1947 2184 2294 3971 2516 1730 2727 3363 3702 3404 3113 3583 3083 3601 2701 2450 2997 3595 2023 3229 2841 3462 2553 2431 3189 3318 3064 1858 3103 3130 3667 2991 2868 2499 2691 3124 2715 1547 2317 3102 3481 2909 1642 2442 3111 2833 3463 3334 2626 3821 1718 3757 3979 2935 3394 3797 3997 3285 1864 2973 3964 2119 1588 3314 3873 2474 2921 3534 3488 1795 2428 2581 2218 2337 3447 3481 1595 1514 3820 2193 3588 2098 2403 3690 2961 2329 2672 2789 3136 3379 3088 2928 2921 1511 3706 1578 3175 3111 2841 1622 3735 3192 2109 3400 3088 2720 3188 2771 1566 3236 2853 2611 3869 2403 3739 2566 2460 3597 3177 2819 2128 3852 3712 3643 2583 3991 2823 2463 2443 2015 3860 2276 2358 2485 2170 3347 1554 1827 3895 3499 2362 2026 2669 2631 2840 3528 1717 3525 2101 3963 2754 3269 3671 3432 2563 2901 2952 2119 1761 3427 1699 3513 3549 3050 2819 3312 3173 2680 99 51 61 11 59 21 28 97 69 62 49 75 73 16 68 37 34 64 66 13 0 49 48 92 9 83 97 38 7 9 64 94 6 47 36 78 16 86 70 82 98 42 92 10 51 62 67 57 52 37 20 87 18 44 55 17 31 42 61 42 3 93 36 62 63 28 99 72 24 49 58 39 36 90 68 25 9 10 11 93 20 90 33 90 77 18 37 63 14 15 92 26 25 69 78 30 49 45 91 52
2691 2247 2176 3368 1992 2066 3520 3959 1922 3960 2238 1997 2708 2519 1795 3398 3924 3974 2562 1646 1500 1747 3137 3973 2425 3523 2760 3062 2242 3001 2395 3652 2160 3177 1581 3465 3359 2992 2108 3293 2891 2912 3299 2103 2266 3966 3051 1700 2968 2186 2717 1862 3079 1905 1999 1512 3902 3195 2552 2017 1778 2369 3865 3982 2766 1645 1988 3451 1585 2791 2109 1771 1712 2807 3720 2821 2457 3579 3411 1656 3194 2870 2051 3293 3212 1952 1884 1833 3697 3151 2721 2148 2000 2888 2663 3963 3643 3952 2774 3113 1562 3867 2321 3930 2861 2093 1787 3747 2948 2011 2802 2006 2865 2617 3455 1599 2487 3517 3414 2110 2731 3344 1772 3217 2202 3664 3168 1561 2706 2059 1689 3953 3140 3467 3182 3443 2328 3999 2248 1822 2126 1874 2292 1553 3587 3559 3606 3824 1910 2103 3092 2584 2642 3906 3699 2877 1538 2581 2815 3632 2468 2385 2910 2455 2117 1832 2491 3153 3095 3081 3956 1817 3857 1587 2926 2489 2936 3687 1857 3543 2906 3910 1500 3816 3399 2256 3525 3059 3885 3923 1701 2067 3309 1972 2677 2359 3104 3838 2361 2874 2958 2761 1960 2262 2157 2354 3856 2281 3466 3086 1960 2515 2205 3089 3078 1512 1698 3263 3264 3280 1530 3974 3703 1555 2437 3588 2516 3347 3422 3126 3974 3034 3887 2626 2350 3427 3953 3498 3089 2055 1627 1941 2411 2347 3948 2868 1754 2768 3400 1844 3272 3238 3263 3285 3348 1530 3915 2358 2409 2696 3580 1734 3095 2103 1530 2423 2828 1789 2541 1545 3045 2198 3062 2982 1645 3742 1790 3582 2137 3357 2050 2574 1570 3202 3624 1625 3960 2604 3215 2603 3862 3954 1723 3732 3021 3614 2012 3242 3130 2475 65 30 39 96 48 73 37 53 58 51 94 95 35 65 84 37 75 58 46 52 49 0 44 36 47 57 95 20 18 99 58 11 80 8 79 7 13 56 40 47 28 49 97 78 61 13 59 98 74 9 76 81 64 60 20 87 40 74 91 28 75 64 26 84 80 74 10 12 36 68 59 62 69 18 15 36 12 51 81 56 83 41 71 54 3 56 41 18 13 55 11 70 26 4 95 12 12 25 6 33
2451 2097 2896 3708 2505 2460 1782 2717 2381 3375 3764 2457 3404 2212 2470 2273 2942 3752 3007 2284 3627 3816 3089 2019 2498 3131 2849 2187 1961 2396 2664 1662 3586 1948 2721 3367 1821 3338 1789 2041 1860 3366 2567 3516 1749 3673 2731 3199 3236 2413 2667 3426 3314 1966 3674 2526 2867 1797 2898 3276 3461 2981 2665 3780 3935 2327 3551 3930 1772 2160 2720 2005 2322 2689 3117 2860 3745 3398 2484 2435 3145 3603 2549 2229 3497 3757 3133 2048 3199 3306 2219 3877 2853 2183 3598 2128 2673 1662 3787 2119 3793 2934 2510 1987 3823 3550 3265 3737 2882 2224 2629 2216 1595 2697 3663 3404 2346 2846 3323 3065 1718 2136 2570 3622 2335 3621 1741 3848 2492 3092 3117 2469 2438 3039 2768 1571 2775 2312 1845 3370 2426 3074 1661 3479 3744 2746 3528 3703 3161 2219 1536 2678 3906 1661 1970 1597 1656 3236 1756 2437 2547 3873 2606 2389 1698 2800 3200 1838 2216 3269 3604 3244 3238 2793 1572 3755 3542 1639 2732 2030 1956 3831 2178 1915 3966 1555 1957 3048 2022 1806 3242 3017 1840 2406 1546 2878 2427 3520 2533 1978 1841 1529 1567 2964 3330 1921 2772 3712 2530 1665 2256 3970 2685 2150 3245 2071 3401 2739 1915 2538 2632 3388 3561 2786 2899 1831 2098 2481 1992 3011 3712 2886 2614 3813 1585 3992 1523 1918 2216 1831 2220 3988 1755 3082 2243 3258 2392 1984 3285 3812 3211 3034 1873 3429 2398 1782 2236 3748 2377 3606 3607 2487 3841 3953 1681 1887 3847 2531 2065 3765 3982 3379 1958 3664 1859 2454 2162 1914 1807 2403 1705 2969 3102 3320 1897 3845 3371 2218 2821 3462 3672 2587 3647 3671 3707 1784 3061 3979 2419 2011 55 90 49 16 5 65 86 65 74 55 38 37 68 83 43 19 16 97 12 9 48 44 0 64 32 90 30 97 41 38 89 33 37 63 53 54 8 83 14 61 17 98 76 13 91 33 48 43 49 3 36 51 25 93 44 42 74 98 27 29 43 25 91 88 39 54 14 43 94 52 3 72 72 40 62 17 9 86 33 55 97 48 94 72 23 47 78 64 64 72 88 44 22 74 59 90 95 45 14 34
2577 3601 3183 2674 3905 3827 2330 1618 3898 3094 3650 2057 3716 3591 2878 3016 3954 2145 2545 2411 2489 2060 2754 3750 2020 3846 2083 1888 1819 1902 1783 3825 1949 2823 2221 2020 1876 3237 3646 2051 3936 3722 2911 2308 3086 3079 2674 3931 3149 3399 3377 2035 2107 3395 2567 3315 2696 3832 1755 2560 2726 3806 3528 3551 2448 3237 1615 3388 3508 3372 2575 3917 2951 2812 1778 3867 2252 3152 2817 1811 2284 3358 2389 2746 3513 3080 3718 3612 3522 2162 3628 3878 3633 1879 2427 1506 2722 3299 3775 2900 1638 1529 1788 1912 1632 2896 3348 3577 2357 1819 3018 3523 2299 2839 1946 1504 3571 3253 2240 3602 2508 2245 1825 3891 2955 1537 1815 2046 2471 3813 2675 3012 2207 3944 3958 3190 3312 1704 2399 3621 2429 1858 1514 2718 1570 2143 3496 1977 3972 3536 3941 2407 1740 1827 1632 3897 1545 2605 3963 2387 2463 3564 2775 2120 2048 3836 3809 3729 2817 3412 2531 1708 3665 3219 2160 3508 1559 2064 3554 3124 2897 2563 1929 2112 1592 2193 2171 3071 3759 3320 3153 3233 1718 2752 2831 3494 2971 1600 2514 3043 2551 2984 2315 3803 2190 2552 3690 3990 3633 2262 2814 3961 3608 2707 1901 2429 2988 3806 3349 3082 2032 2389 3035 1562 3818 1684 1689 3306 3487 3349 1863 2992 2064 2515 2860 2173 3046 3674 3351 3416 2137 2920 1763 3475 3527 2196 3440 2429 3314 2389 3115 3851 2972 2595 3874 3451 2668 2324 3496 1786 3263 1875 2097 1594 2757 3357 1877 3875 3517 3641 2208 1505 2209 2754 3663 1921 3364 2149 2817 3183 1738 2408 3534 1766 3070 3950 2998 2584 3138 2532 3336 2290 1829 2200 2539 3066 3212 3963 1535 2405 69 70 72 72 89 34 69 38 62 95 44 64 62 56 54 88 47 10 67 96 92 36 64 0 36 3 61 21 43 5 84 60 25 50 27 91 73 63 44 44 50 97 13 5 84 90 22 8 64 58 34 3 90 44 86 5 66 38 62 70 75 98 49 60 84 26 60 74 27 5 42 59 82 93 41 78 58 33 54 14 27 10 97 81 78 91 1 81 15 35 29 50 29 39 87 90 60 67 46 77
2574 3554 2934 2040 2730 1766 3912 1665 1774 2469 3059 3630 1661 2751 3177 3166 3686 3182 2580 2869 3605 2389 1958 2089 3602 2066 3420 1814 1767 3168 1722 3712 3107 2330 3087 2401 3772 1825 3986 3048 3958 2998 3545 1794 3851 1564 3998 3061 3190 3622 2988 3504 2238 3060 2271 1970 1945 3952 1514 2884 2908 1865 1722 3990 3127 2636 3938 2720 3108 2782 3929 2405 1597 3320 2010 2170 3013 1730 1898 2148 2075 3765 1854 1548 2596 1584 2863 2923 2395 2866 3539 2878 1622 1810 3684 3295 2506 1729 3727 3900 2485 3501 2504 3162 1552 3764 1798 3351 3050 3701 3047 2579 3378 2966 3502 2459 3382 3102 3792 1878 3935 3594 2840 3634 3493 1725 2670 1704 2985 3376 3315 2634 2177 2397 1715 1908 2012 2546 2482 2131 3445 2601 1593 2017 2626 3648 3399 2128 2637 1594 2995 1857 2402 2260 2344 2180 2796 3405 2158 1658 2532 1999 2059 2670 2052 2545 1703 3742 2076 2128 1642 1915 3908 3360 3166 2553 2615 2580 2078 2879 2711 3271 3676 3200 3647 1814 1753 3643 3115 1680 1826 1616 2237 3627 2650 1855 1793 3063 3392 2525 3011 1921 3000 2627 1721 3163 3654 1724 3727 2563 1617 3040 2094 3529 3256 3528 3098 2836 1923 3281 2467 3182 1541 2388 3542 3847 2702 2429 1837 3466 2935 3146 2199 2918 3472 2726 3682 2174 3887 3269 3314 3399 2636 3864 2018 1894 2241 3777 1529 3926 1827 2749 3028 1922 1921 3253 1958 2474 1900 3896 1703 3864 3789 2236 2295 2487 3331 3734 3875 2831 2694 1871 2744 3892 2996 2360 3646 1629 3298 1703 1800 1637 2753 3814 2275 2297 3751 3953 2617 2479 3275 3644 1807 2448 3389 3803 3172 2056 3588 2763 1 3 87 65 30 65 38 54 2 93 99 90 2 69 29 60 58 86 49 69 9 47 32 36 0 72 21 85 32 2 82 57 77 40 63 93 37 58 95 75 55 11 72 23 54 73 51 14 56 12 6 84 36 28 71 10 39 49 39 53 50 63 74 90 73 67 81 88 87 21 42 84 21 70 98 34 33 14 47 35 68 56 57 49 95 99 36 69 56 63 60 77 44 44 84 35 76 78 32 6
2285 2239 2920 2314 1518 3785 2897 3595 2874 2992 2753 2595 1722 3095 3459 2583 3470 2473 1928 2910 3897 1929 1547 2897 3915 3096 1550 3588 3126 2395 1563 3099 3393 2305 2233 1649 2142 3272 3734 2719 2291 3425 3973 1592 3666 2356 3353 3250 2987 3073 3404 1828 2445 2658 2943 2412 1591 2505 3161 3138 1757 2512 2719 1561 1726 1861 2355 2304 3400 3945 2392 2170 2770 3331 3114 2732 3998 2201 2591 2999 1998 3723 2058 3341 1515 3064 3725 2067 2981 1679 3774 1818 3906 3646 2675 3988 3392 2569 1644 2318 2453 3064 1707 3184 3939 3108 3124 2935 1911 3769 2871 2467 3957 2144 2738 2447 2420 2611 3757 2741 2641 2789 3640 2295 3915 2836 3706 3665 2034 2209 3425 3865 1908 2756 2187 3342 1920 2557 1639 1582 2454 2567 2367 3161 1946 2783 3512 2920 3726 3277 3727 3396 3010 3301 2113 2074 3329 3665 2936 1805 2545 2418 2323 1579 2593 3663 1917 3744 3185 3620 2453 3750 2520 2766 1860 3749 3958 3709 2834 2479 3702 2593 3817 2772 3931 1677 3887 1608 2654 2959 1715 2128 3128 3727 2393 2074 1626 3709 2049 2495 1726 1772 1787 2241 2016 3783 3817 2588 2453 2938 1594 2161 1680 3055 1593 2587 3325 2729 1977 3056 2067 2328 3169 3474 3571 1975 1893 3533 1605 3596 3514 2430 1913 2206 3097 3694 2112 3000 3920 1670 3167 2120 2154 3558 3017 2245 2185 3043 1972 2287 2565 3152 3530 2791 1536 3972 1640 1913 1742 2693 2949 3806 3113 2519 2656 3532 3354 2406 3279 1650 2888 3211 3898 2917 3755 3657 2378 3759 2015 2001 2360 3207 2431 3795 1685 3060 1690 3828 1733 2981 3929 3725 2596 1931 3972 2602 2114 3847 3891 2091 46 88 36 81 83 10 13 66 55 5 76 20 93 95 74 13 48 25 20 69 83 57 90 3 72 0 13 12 89 38 39 4 13 81 10 98 17 3 21 1 60 24 90 37 24 59 69 54 88 89 87 19 99 90 13 69 16 86 77 90 55 99 71 9 78 77 9 49 41 1 36 91 19 59 66 75 1 12 6 32 58 95 50 22 71 38 25 95 59 75 46 53 18 59 2 22 49 41 67 60
2722 2962 3433 2578 3179 2867 2090 3282 2196 1643 1945 2162 2118 1741 3743 3536 3617 1654 3436 1574 3586 3959 1736 3435 3899 2513 1598 2057 3228 3160 1876 3468 1965 2438 3812 2404 3137 3241 3876 2591 2175 2849 3722 2826 1825 3422 2286 1675 1643 2885 2199 1804 2284 2049 3115 3472 3043 2741 2704 2980 1611 3403 3876 2327 2664 3517 2956 1624 3695 2763 3763 1549 3006 1596 3009 3874 3090 3013 2547 2149 2656 2424 2595 3338 2627 2872 3527 2465 3610 3657 1703 3690 3071 3596 2292 3891 2026 2493 3623 3973 2705 3405 2594 2372 3975 3306 1884 1742 2970 3930 2184 2598 3934 2976 3735 1570 1893 2278 1972 1766 2354 1918 1840 2442 1982 2595 2175 3374 3814 2380 2481 3074 3503 2348 3814 3955 3624 2670 1837 2174 1568 2943 1722 2254 1932 3015 2841 2096 2717 3257 2098 2170 2290 1952 3516 2818 3855 2722 2057 3152 1801 2232 2195 1970 1725 2177 2981 1860 3944 3422 3526 1963 2210 2887 1877 3859 2007 3157 2912 3840 3854 2730 3759 2842 2115 2611 3515 3087 2450 3602 3002 2297 3539 3099 2045 3934 3496 2097 1559 1634 2395 3050 1651 2483 3665 2178 2558 2029 2952 1583 2534 2067 3260 2157 3302 1943 1780 2111 3016 2130 2689 2002 2912 2004 2655 3166 2785 2032 2376 3446 1878 1924 2116 1984 3699 1909 2090 3057 2023 1511 2141 1901 3198 3820 2334 3167 2555 1587 2409 1861 3275 2047 2165 3576 3446 3562 1594 3084 3927 1656 2078 1555 1921 2723 2308 1596 3413 1595 2835 2419 2079 3076 1858 2513 2752 1922 3363 3236 2205 2052 3575 2784 2246 1537 3191 3853 3753 2274 2052 3842 3459 2027 2787 3595 2711 2136 3574 1678 2491 3990 49 59 56 25 84 41 32 64 52 3 23 51 30 1 81 87 83 68 73 67 97 95 30 61 21 13 0 20 40 21 5 12 54 62 82 77 74 81 88 88 36 85 98 73 88 28 28 54 87 47 72 19 72 78 57 61 20 47 43 30 3 53 3 78 82 28 90 40 91 55 76 7 78 6 23 6 12 81 59 47 55 22 42 30 91 56 64 88 44 1 90 24 57 76 18 82 86 85 30 7
2728 3696 3071 3335 3909 2796 1638 1909 1949 2244 1722 2885 3630 3231 2537 2935 3990 3619 2073 2937 2165 1725 2273 2733 2639 1879 3787 2081 1568 1943 3699 2135 2432 3557 1852 1817 3594 3284 3262 3327 2684 3995 2988 3811 3390 2825 1885 2527 2367 2607 2868 2726 2699 2949 3347 3019 3280 2499 2132 2342 3650 1563 2410 3685 2709 3231 1552 1595 3715 2612 3407 2989 1533 3422 1647 3231 1762 1995 3671 3489 3074 1752 3300 2561 3086 1900 3173 2980 3232 3158 3872 1978 2119 3336 1737 3385 1643 2817 3164 3358 3450 2235 3907 3552 2633 1806 2707 1685 1860 3610 2632 3991 1918 2413 2125 3385 2019 2066 3559 3119 1501 3526 2029 2675 3760 2225 2874 3182 2909 2033 2929 1730 1936 3385 3427 3293 1628 1537 3071 3388 3721 3701 2723 3192 3773 3522 1789 2159 2183 3556 2935 1689 3832 3323 2688 2511 2154 3114 2935 1562 2497 1939 3330 3130 3393 3372 3541 3341 2397 3833 3495 2102 1614 2338 3762 3475 3344 2277 3749 3557 1572 2131 2839 2820 2388 2362 3012 2557 3962 2221 1611 1671 3803 3634 2856 2224 2562 3462 3994 2295 3135 3355 3448 3089 2036 1783 1697 2138 2697 3968 3274 3728 2547 3939 2694 2958 2057 3550 2066 1919 2361 3835 3520 2882 3721 3006 3932 3289 3482 1961 3052 3941 3393 2959 1747 1567 2084 3528 2581 2698 3393 2874 3039 2456 3031 1821 2927 3213 3083 2988 2354 2108 2024 2286 1926 3344 3944 3746 2847 3082 3234 1568 3653 1588 2622 1501 3329 3915 3192 2120 3830 2915 1837 1687 2652 3238 1987 3569 2671 1684 2061 3681 2084 3605 2476 2689 1545 3184 3829 3084 3194 2543 3386 2708 2181 3799 2658 3863 3984 2684 97 65 62 59 3 98 48 12 34 75 36 23 55 71 84 28 45 8 18 41 38 20 97 21 85 12 20 0 62 53 11 54 80 6 9 51 24 58 93 96 31 61 30 62 58 49 56 37 41 11 86 17 88 83 22 15 49 99 11 50 53 30 33 9 15 79 92 36 67 2 83 16 87 61 97 97 56 92 23 92 99 33 99 38 16 5 41 2 70 22 34 53 7 31 22 51 92 82 58 42
3941 2691 3071 1890 2427 2424 1742 3895 3540 3226 3558 1692 3821 1857 2831 2509 3493 1807 3538 3232 2707 2047 1826 3672 2451 1694 2877 2124 2237 2839 3656 2591 3816 1633 2722 1730 3642 3637 1564 3281 2648 2984 1868 3186 2208 2535 1582 3605 3923 2243 2411 3001 3141 3700 2473 2048 1836 2506 3273 2053 2413 3327 1659 2697 1889 3075 2317 3481 3727 3195 3533 3796 1866 2316 2306 3936 3640 3051 2935 3657 2529 1670 2461 2489 3496 1945 3153 1685 2388 2166 2146 3884 2295 3063 2404 2313 1861 1622 3875 3536 2066 3974 3565 1925 2361 1745 3021 3778 3328 1847 1892 2499 2556 3521 2047 2699 2424 3680 1960 2055 2843 3865 2676 2125 3466 2015 3832 1992 2843 2958 2934 3505 2395 2044 2434 2902 2399 2521 2720 3081 3347 2756 2298 3584 3170 2674 2967 1986 3605 3059 1980 2571 3253 3451 3421 3082 2635 1656 2032 1509 3412 1967 3733 2876 2044 1936 2775 2988 2437 1613 3375 1504 2711 3963 2624 3302 1989 2840 3304 3963 3592 3697 3243 2371 3160 3889 1629 3026 3079 3987 2858 3177 3585 2242 3243 3080 3495 3734 3841 2809 2651 2090 2851 1707 3585 3533 3668 3432 2610 3311 3931 3686 1975 3158 3941 2777 1552 3127 2314 2498 2262 2178 3134 3348 3562 2517 2613 3126 1731 2770 1797 2816 3482 3689 1960 2582 3369 3573 2997 3600 3783 1827 2240 2476 2843 1700 3091 1658 3180 3255 3554 2192 1720 3636 3132 3916 2629 3461 3449 2427 3567 3030 2183 1962 3528 2382 3040 2599 2252 1550 2765 2750 3496 2230 2278 1911 3024 2405 1545 2080 3242 1544 1785 2208 2877 2050 2471 2531 2278 1662 2312 3835 1516 2807 2573 2302 3945 2206 1531 2455 99 72 71 72 75 10 79 98 83 92 65 68 96 42 50 24 1 1 27 95 7 18 41 43 32 89 40 62 0 20 28 59 4 41 76 70 81 75 35 25 34 32 14 37 78 85 93 5 68 9 41 30 72 36 81 33 16 58 9 99 10 80 13 30 65 85 4 16 19 87 15 72 52 90 37 60 60 92 91 69 12 95 98 50 63 2 51 49 12 81 90 90 77 9 90 10 41 91 63 38
3231 3756 3738 3612 3612 2855 2876 2797 2256 2616 3321 3356 2206 1673 2713 2618 2397 2709 1910 1725 2214 3382 1996 1982 3253 2443 1971 3133 2210 3762 2949 3547 1769 2002 3367 2619 3693 1816 3701 1801 1500 3845 3600 1597 3464 2835 2326 3362 3397 1545 3045 2663 2387 3701 3285 3836 1544 2493 3918 3163 3252 2410 3556 2944 3473 3737 2363 2365 3261 2107 2421 2911 1939 3823 3997 1606 3256 1677 3037 2278 2145 2706 2873 2950 3360 2068 3972 2256 1653 2840 1702 3005 2830 1531 3366 2500 2110 2735 3505 2649 2365 2680 1937 2581 3174 3990 2096 2480 1636 3819 1628 2290 3298 3646 1667 2594 1668 1570 2329 3057 3929 3653 3605 1660 2091 3737 2613 3830 1886 1504 2891 2543 2290 3152 2797 3912 2901 2290 1644 2893 2394 1711 2996 3852 2422 3946 2732 1660 2320 3039 3246 2720 3270 2858 1881 3546 1682 2262 1518 3910 2743 1748 1798 1745 2974 2243 2071 3907 2695 2170 1942 2086 1808 3583 3723 3651 3332 3949 2195 2138 2320 3205 1736 2562 1793 3996 2483 3639 3269 3607 1835 1640 3258 2539 3454 3949 2276 1876 1878 3569 3077 1879 3800 1575 2093 3705 2807 2395 2623 2825 1570 2343 2876 3343 1730 2890 2581 3471 3396 2008 3462 3925 2851 3849 3746 3310 1598 3780 3423 1833 1624 2444 3730 2645 1758 2537 2878 3142 1990 3050 3515 3294 2343 1750 2936 2851 3852 3592 2180 1936 2838 2212 3161 2231 2855 3247 3978 2655 3911 2299 2807 3246 3607 2582 3815 2035 3416 1960 3814 2646 3132 3353 3704 3856 3550 3059 2323 3509 2546 3211 2993 3809 2450 3142 1736 1881 3674 2016 2732 2183 3768 3239 3280 1871 2914 2674 3710 2296 1601 2087 7 25 98 9 91 3 64 20 19 77 96 17 29 33 47 13 62 20 33 35 9 99 38 5 2 38 21 53 20 0 81 9 30 26 77 7 82 2 21 87 43 13 83 53 27 8 50 70 98 63 22 43 99 95 83 68 38 74 81 70 45 80 61 32 39 25 80 55 14 72 23 52 95 36 31 73 26 29 19 83 40 37 95 14 60 89 48 55 50 45 26 81 10 65 46 30 40 40 96 40
3439 2140 3397 3943 1615 3014 3574 3501 2292 3905 3713 3464 2838 3185 1835 1727 3804 3933 3350 2515 2897 1970 1573 3116 3872 3386 2894 3416 3524 2984 2850 2998 2916 2393 2791 2971 2129 1550 3203 3141 3200 1831 3956 2297 1839 3004 2709 3635 3468 2145 2679 3607 3578 2514 2520 2256 2999 3378 3603 2112 2798 1827 1841 1581 3692 2957 3025 3283 3490 3403 3554 2169 1932 3036 2584 2742 2792 1618 2799 3997 3899 2893 3457 2786 2271 3030 3951 3595 1570 3665 2059 3779 3828 2926 3754 2483 2580 3252 2476 2507 1880 2548 2228 3391 3056 2462 3697 1947 2675 1509 2724 1789 3714 3081 3520 1587 3199 2344 3284 2923 2837 2183 3703 2649 2929 3059 3493 2082 3762 3990 2592 1571 3072 2613 3628 1844 2251 2159 3262 1707 1847 2161 2858 2696 2471 3196 1939 3625 2468 3523 1688 3773 2843 1913 1649 3358 1765 3227 3118 3582 3698 1814 2306 1569 3587 3061 1882 2369 2247 1632 3433 2577 3545 1506 3378 2556 3532 3889 2801 3929 2203 1722 1649 2139 3822 2613 3954 3497 3839 3941 2476 2086 2809 2630 1919 2299 2967 2839 2228 3623 2777 2990 3915 3980 2486 3086 1731 2469 1550 3580 2572 1689 3449 1511 2921 3144 3607 3417 3416 3924 2208 3454 1873 2080 3758 3734 2518 3924 2291 3937 1718 3186 3337 3729 3362 2187 3720 3778 3854 2636 3137 3912 1843 1839 3948 2466 2254 3783 2658 2649 2284 1816 1512 3357 3898 2501 3973 3837 3612 1937 3048 1946 3827 2283 1521 2332 2972 2647 3550 3168 3326 2031 2512 2524 1906 3899 3103 3375 2017 1865 1969 1582 2101 2434 3548 1898 2799 1666 3299 3698 2083 3096 3161 3617 3822 1544 2000 3220 1776 1753 5 95 67 39 97 86 25 9 72 4 91 79 54 50 90 37 76 53 90 77 64 58 89 84 82 39 5 11 28 81 0 46 76 90 61 80 8 71 99 37 58 78 3 1 6 63 46 21 65 8 9 77 22 96 70 17 91 9 54 5 72 34 78 41 65 44 88 59 6 92 19 74 88 1 74 23 75 33 84 10 96 84 57 84 30 83 67 61 5 67 97 13 99 63 97 23 75 40 69 37
1520 2064 1924 2306 1674 1566 1569 3895 2757 2753 2610 2000 2584 3834 3363 2330 1826 2399 3307 3301 2988 3868 3222 2639 3483 2862 2501 1643 3723 3055 2978 3557 3276 3113 1655 2882 2124 2449 3861 2979 3931 3337 1906 2324 3917 2518 1898 2787 3235 2828 2903 2959 1912 1637 2450 1860 1964 1892 1811 2369 2823 3147 1608 3046 3360 1588 2689 2557 1531 2510 2001 1713 3147 3484 1503 3162 1731 1743 3192 1671 2394 2609 2901 3275 2184 3425 3332 3551 3957 2732 3222 3425 1925 3739 2653 2826 3599 3310 2788 2205 2815 2566 2715 2467 3151 1970 2717 2720 1727 2272 3099 2193 2473 1585 2730 3021 2530 3747 2992 2692 2041 2782 2564 2582 2326 3651 3378 3576 2851 3183 2379 3002 3236 3843 2336 2686 1707 2821 3887 2837 2354 3394 2995 2437 3701 2566 2186 3621 2252 3789 3345 2910 3921 1983 3395 3597 1663 2888 3180 2356 3985 3723 1867 2863 2881 1585 1736 3619 1558 3645 3665 3028 1699 2593 1806 1733 1874 2270 1537 2116 2597 2998 3257 2282 2884 3464 3918 3302 2866 1871 1907 3677 1644 3001 2546 2942 1781 3819 2145 2160 1857 1687 3887 1916 2061 2225 3203 3471 1653 3594 2139 3077 3442 2572 3469 3714 2993 1500 3712 1657 2509 3409 3537 1582 2558 1501 3718 2337 3188 3897 2744 2786 2482 2447 3428 2223 2964 3894 2529 3174 3038 2841 1967 2695 2469 2165 1767 3952 2818 1672 3233 2411 3595 2737 3595 2459 3958 3445 3369 2769 3479 3976 3414 1871 2196 2159 3276 3777 2994 3625 2090 1602 2627 1990 2374 3091 3507 2314 2340 3373 2656 2803 1679 2704 3354 2050 1861 2991 2411 3559 2695 1511 2098 2855 3010 3225 3194 1972 1599 1696 63 86 80 63 90 71 39 1 79 88 2 60 23 38 53 65 48 99 93 59 94 11 33 60 57 4 12 54 59 9 46 0 29 12 85 82 46 20 9 32 99 26 49 37 75 19 56 7 8 16 37 48 54 45 83 22 68 7 53 98 81 94 52 87 17 71 78 77 48 88 73 63 11 81 36 34 41 11 16 50 58 49 15 15 93 43 63 67 86 48 22 38 71 86 49 85 32 32 14 98
2272 1681 3918 3748 3910 1541 2370 2662 2363 3146 2880 1867 3259 2095 2068 2240 2545 1676 3023 3134 2591 3321 2811 2433 2504 3623 3350 2124 1607 1900 3996 3348 2926 1772 2010 2285 3221 3128 1973 2183 2000 3952 3804 2952 2798 3510 3741 3411 2174 1603 1832 1824 2102 1598 2806 1507 1666 2866 2123 3382 3913 3958 1929 2766 1620 3553 3872 2832 1927 3619 1952 1853 3913 1607 3813 1871 3389 1582 1948 3076 3071 2902 2968 3926 2178 2019 2906 2125 1635 3821 2941 3152 2188 3448 1628 3479 1569 1974 3153 1881 3194 2631 1716 1503 1641 2215 1863 3837 1808 2337 2179 3784 2887 2562 2401 2884 2728 3736 2442 1932 1759 2965 3491 2270 1742 3171 3432 2159 1623 2909 3384 1968 1990 2454 2524 1516 2610 1664 3864 1786 2671 3833 2304 3265 3779 2161 3032 1601 2407 1681 2892 3249 3092 3713 2230 1938 1916 1772 3222 3830 3665 3365 3817 1625 1899 1840 2475 2909 3507 3296 2575 1779 3912 2233 2335 2833 2792 3651 3900 3298 3561 2822 3775 3023 3947 2421 3718 1609 1919 3459 1818 3411 2605 2217 2495 1551 3958 2794 3800 2924 2878 3644 2047 1751 1970 2912 1672 1732 3216 2627 2455 1601 2989 2341 3534 2733 2293 3741 3022 2411 2636 3808 3828 3558 1836 2669 1819 1567 2841 2331 1585 3008 1712 3496 3116 3570 2561 1807 2278 1702 3324 1983 2554 2649 2183 2995 1804 2662 2654 1938 2006 2505 3721 1664 1607 2975 3447 1774 2774 1737 2115 3524 2988 2101 3442 3618 3937 2840 2324 3003 2588 3822 2520 1782 2366 2491 3610 3177 2157 3749 2520 1833 1953 1990 3528 1978 3647 2603 2060 2553 2722 1649 3517 2071 2878 2609 1977 2384 3154 3400 59 13 31 28 77 38 91 59 95 10 97 53 69 93 58 74 32 45 74 74 6 80 37 25 77 13 54 80 4 30 76 29 0 60 64 20 60 27 11 10 74 63 14 68 38 14 4 84 17 72 24 77 77 40 63 99 5 81 82 48 46 47 49 29 17 47 92 20 22 27 59 56 90 92 51 37 73 99 6 57 59 17 79 69 71 46 35 48 83 68 84 98 31 89 34 47 46 28 74 44
3959 3078 1874 1887 2329 3590 2018 1797 1537 2460 1706 3669 3123 3684 3653 2053 3727 3876 1612 3870 2867 3649 3667 3293 3616 1941 2846 2220 1533 2073 1850 3131 1679 2891 1860 2079 3765 2981 1690 3334 3956 1956 3109 3273 3303 2652 3439 1836 2682 1501 3562 2409 2906 2056 2785 3891 2485 3101 2977 3744 1557 1674 1755 3611 2918 2504 3978 2625 2071 2586 2995 2970 3682 1949 3300 2317 1620 2027 3103 2588 3920 2636 3087 2916 1868 1870 2646 1568 3403 3347 2957 1521 2128 2235 3000 2046 3010 2055 1591 1619 1568 3109 3756 1753 2351 1921 3511 3452 1935 3912 3627 1842 2115 1899 2616 2842 3614 2221 3273 3808 3149 2225 1887 2166 2855 3201 3026 1920 2244 2502 3806 1604 2547 1888 3987 3688 2567 3626 1845 2319 3579 2778 3279 3140 3182 3096 2761 3163 2496 2499 1694 3547 2798 2399 2414 2235 2348 2022 3557 2231 2848 3509 3360 3905 3988 2499 2982 2433 2308 2257 1575 3571 1565 1674 3613 3410 3503 2614 3677 3561 3805 1918 3904 2668 2457 3075 3297 3973 3438 1793 1642 1686 1927 3206 2623 2015 1515 2237 3457 3674 1639 3153 3818 1738 1628 2905 3755 3808 3254 1940 2359 2129 3004 1696 3959 3038 3790 3882 3651 3449 2056 2685 3775 3891 1939 2825 2845 2903 2745 1643 3649 2447 3924 2902 2936 2068 2941 3941 3458 2475 2853 2227 3430 3186 2441 3263 2832 1544 3855 3597 1755 3460 2184 3159 1768 3469 3022 2460 2907 3881 2611 3214 1556 1712 2823 2406 3406 3306 3643 3621 2405 1567 3406 3963 1565 3921 1542 2974 2778 1989 2410 2298 1836 2439 2783 3519 3237 3077 3345 2771 1668 2754 3639 2324 2056 2882 3208 2740 2036 1997 84 33 47 54 44 91 39 8 55 37 6 54 28 32 87 64 66 12 80 68 47 8 63 50 40 81 62 6 41 26 90 12 60 0 42 64 67 55 19 65 46 97 77 96 76 51 43 41 29 11 46 2 50 51 43 22 89 40 5 1 35 7 37 58 88 15 45 92 28 88 42 93 64 3 68 14 89 15 75 48 9 6 13 4 96 25 87 18 81 99 19 82 9 11 27 79 44 37 21 80
2174 1544 3862 1967 2806 1912 3269 3821 3721 2085 2947 2373 3942 3028 3458 1863 2622 3606 2890 2913 2423 2143 1750 2692 3398 3396 2196 3341 2189 2689 3445 3646 1548 1513 2909 3985 2892 1620 2062 3570 1949 2832 2146 2404 3280 3067 2000 3785 2224 1758 2854 3468 3153 2675 2646 3309 2953 2613 3954 1733 3065 1654 1615 3199 1839 1937 2759 3519 1527 3594 2573 3504 1507 1829 2204 2124 3674 2773 3812 1763 2234 2487 3157 3122 3961 3397 3178 3037 2193 1688 3945 2928 1795 2018 2901 3155 3647 2000 1947 3639 2842 1769 1695 1675 3896 3544 1677 1995 2071 3934 1538 2686 3420 2807 3975 2008 2056 2170 2100 3686 3675 2386 2013 3506 3420 2231 1624 2278 1722 3025 2517 1991 2966 3381 2325 3907 2560 2499 1770 3118 2040 3937 2804 2719 2283 3728 3326 2909 1579 3425 3589 1688 2027 2044 3284 2273 2021 2759 3783 3759 2598 3640 3194 3085 1757 2559 3046 2168 2141 3885 2412 3407 2628 2267 3091 2213 2302 1598 1654 2726 3917 3104 2616 3789 3346 1954 1638 2849 3809 1753 2493 2553 3810 2157 2126 1511 2828 2721 2993 2308 1729 2185 2092 3681 2339 3243 3313 2566 3278 1798 2839 2642 2531 3421 2681 1549 1943 2189 3444 1613 2760 3931 2385 3316 2855 1580 3488 1897 3102 2528 3819 2370 2218 3791 2702 2563 2231 3225 3149 2881 3977 3638 3542 2347 2219 2787 1561 1609 2691 3829 3773 3316 1689 3723 2086 3310 3189 2111 1785 3425 3454 1700 3628 2095 3190 3537 1599 3589 2679 3960 2632 3674 2027 1756 1963 3899 2206 3193 3923 2025 3209 1609 2234 2998 3809 3839 2083 2428 2142 3340 3324 2962 1747 3404 1662 2128 1830 1557 2090 2236 83 83 6 43 16 36 12 60 96 26 3 8 1 97 28 23 7 68 63 51 36 79 53 27 63 10 82 9 76 77 61 85 64 42 0 74 58 89 42 77 13 7 19 29 13 70 66 9 4 51 20 92 86 12 84 36 22 46 52 39 63 72 62 31 40 37 68 2 21 37 96 22 49 34 28 29 74 57 96 88 36 38 69 2 98 61 16 65 96 30 43 41 3 74 82 57 45 6 21 79
2774 1945 1804 3979 2145 3850 2619 2442 3230 3791 2711 3619 2973 1505 2484 3248 1771 3237 2579 3304 2389 2110 3608 2054 2127 2456 2339 2770 1625 2976 2277 3943 2439 1900 2892 2699 3847 3116 2317 1667 3572 3336 2810 3936 1518 2007 1664 2186 3193 2408 2828 2513 3885 2681 2258 3672 3194 3034 1770 3814 2606 2058 3031 2009 3543 3089 3562 1674 1780 2153 2292 2879 2647 1965 3247 3612 3513 1943 3008 3077 2449 1652 3374 1673 3363 2177 3180 2774 3589 1533 2140 2969 2547 3110 1637 2299 2037 3359 1983 1851 3875 2971 3416 2959 3638 2519 2065 3244 1547 3239 2623 1635 1710 3477 3949 3630 3680 2295 3990 2502 1625 1989 3979 1928 2205 1709 1704 1519 1770 2938 3904 2944 1748 3594 2921 1940 1520 2729 3927 1577 2195 2752 3743 1944 1866 2463 3697 2975 3944 1688 3486 3595 2308 2415 3095 2717 3514 3200 2940 2300 3285 2623 1638 2914 3307 2420 3321 2637 2791 3193 1565 1511 2182 3224 1767 2651 2420 3057 3533 3667 3664 3844 3183 2236 2886 2942 3976 1669 2491 3295 1666 3944 2330 3558 2175 3986 2443 2401 3628 2448 3280 2885 2863 2617 2181 2332 1902 3721 2488 2595 3641 3815 1997 3213 3371 2856 2975 1558 2794 3961 2677 3015 1724 3151 2330 1563 1696 3579 3619 3667 1982 1740 3757 3125 3898 3037 2386 1946 2516 1547 2606 3495 2011 2747 3775 3788 3964 3861 3476 3952 3859 3593 1683 3670 3250 3745 3969 2063 2719 3410 1735 3096 3442 3364 1727 3586 3930 2340 3114 2595 2350 3084 3798 1564 2223 3956 2621 2431 3578 3860 3100 2651 1533 3114 2508 2762 2803 3390 1519 1943 3855 1856 2436 3226 2110 1925 3254 2553 3891 2299 34 90 23 54 50 2 6 96 82 56 31 10 7 46 17 37 76 47 28 35 78 7 54 91 93 98 77 51 70 7 80 82 20 64 74 0 79 77 32 30 46 97 37 27 32 51 3 87 44 24 95 55 48 21 63 9 21 29 30 30 19 59 60 99 77 99 46 55 25 93 77 74 51 99 43 39 68 41 88 40 99 44 68 68 23 70 98 20 84 23 80 96 60 10 31 88 15 52 4 42
3657 2949 3955 2968 3355 2849 1989 2733 3789 2841 1976 2855 3817 2812 3439 3978 1522 3966 3710 3284 1712 3885 2566 3918 3259 2321 3900 3453 3308 2580 2307 2050 1559 2691 3649 3756 2297 2944 2122 2094 2381 3131 3779 1937 2082 1577 2272 2429 2907 1536 1536 1548 3521 2195 3744 3698 3570 1582 2470 2072 3603 3385 2180 3946 3803 1929 3568 3529 2006 2680 2569 1892 2311 3509 3662 2380 3208 2130 3449 3842 1673 1501 2856 1911 2487 2502 2001 3943 2660 3177 2195 3713 2452 3864 1658 2149 3636 3710 3361 2667 2995 3217 3989 2230 1635 3393 2409 1776 3132 3198 1529 2085 2525 2346 1530 2897 2357 3486 3599 3883 2828 1866 2999 3246 2132 1745 3157 3282 2768 3754 1677 3098 1517 3112 2267 1791 3123 1811 3235 2673 1833 1594 2330 3673 2642 2438 3364 1817 3662 3003 2963 1536 1541 3532 3682 1642 3584 3748 1516 3729 3302 3085 3746 3985 3213 3615 2169 1607 2154 3805 2399 2008 2402 1631 3462 3227 2855 2860 3438 2138 1642 1884 2946 2521 3956 2929 1557 3551 1750 2500 1874 2273 2157 3050 2810 2149 2853 2252 2754 2052 1660 2283 2146 3572 3373 1782 2932 2449 3117 1734 3374 1692 2539 2983 2180 1918 2002 2248 2519 1620 2209 2287 2864 2347 2576 1957 1812 2247 1810 2570 3079 1595 3023 3874 1816 3521 3319 2340 3340 3443 1985 3480 3845 2115 1524 1995 2993 1672 3093 2064 2312 3191 2923 1996 2563 2288 2321 2066 2217 1782 1963 2050 2383 3753 2035 2599 3106 3173 1678 3189 3585 2234 1933 3751 3526 3648 2072 3251 2468 2271 3403 2757 3361 3303 3475 2203 3015 2970 2859 2746 2161 2377 1979 3258 3640 1963 3549 3824 2445 1563 44 98 60 32 16 16 62 24 7 19 21 56 27 43 77 71 65 57 68 74 16 13 8 73 37 17 74 24 81 82 8 46 60 67 58 79 0 40 19 69 23 76 40 8 53 25 82 65 50 49 39 84 27 25 36 80 56 3 7 69 47 23 8 91 23 80 57 37 74 97 83 11 50 30 39 52 34 72 21 40 74 10 30 77 81 80 26 15 23 14 9 48 7 39 24 94 62 74 56 69
3096 2601 1691 3797 2447 2174 2809 2770 2959 1850 2613 2947 1685 3100 3592 1533 1556 1887 1607 2994 3625 3854 1862 2371 3910 2258 2569 3532 2080 3923 3318 2514 2140 2223 3852 2560 2864 2929 2204 2012 3590 1584 3400 3718 2550 1731 1591 3149 2404 2533 3583 2395 1703 3792 3185 1596 3908 2344 2478 1957 3594 1677 3850 2959 3524 3439 2651 3973 2156 3094 3828 3315 1601 1629 1501 2008 2778 2635 3174 3279 2442 2282 1661 3535 3033 2128 1731 3141 2355 2616 1796 1672 2903 1679 1615 2631 3498 3173 2829 3322 3462 3139 3865 3988 3815 2987 2024 3168 3902 2492 1760 3293 2656 2320 2807 2498 2251 1790 2751 3070 3065 3916 2458 3130 2659 2621 3140 3379 3068 3604 3522 1822 1502 1889 3908 3455 3126 3866 3757 1975 2583 3792 1981 3433 2066 2610 2453 1583 1814 2390 2577 2725 2583 2095 2583 2731 2130 2887 1808 1917 3627 2561 3908 2506 1638 1719 2880 3927 2085 2134 3536 2613 2747 3107 2832 3671 1738 3018 3123 2922 1731 1724 1954 3390 1829 1717 3330 2412 1643 3663 3458 3736 1627 1617 1690 3296 3035 2232 2768 2578 3744 1999 2978 2601 1784 3247 1757 3137 2462 2871 3720 2761 3248 3493 2154 2312 1839 2474 3419 3695 2038 3109 1741 2901 2030 3046 3325 3070 3650 2894 1951 2048 2802 3986 2070 1626 2499 2720 2468 2967 3910 3176 2850 2327 2377 2964 2961 2487 2081 2436 3341 3208 2439 2829 1975 2547 3834 1901 3902 3328 3996 2896 2082 3700 3386 1818 2414 2501 3544 1841 2741 2532 1909 1910 2381 1677 3659 3711 2132 1924 3953 2228 2128 3972 2313 1700 2342 3254 3461 2281 2519 2269 3675 3222 1508 3728 2856 2595 3991 2943 68 84 31 15 78 1 88 68 35 41 48 4 86 92 59 95 61 70 75 34 86 56 83 63 58 3 81 58 75 2 71 20 27 55 89 77 40 0 61 29 12 93 6 64 3 93 38 83 42 76 54 75 87 87 68 22 58 28 62 16 81 94 78 72 47 84 27 5 58 81 38 81 75 80 91 65 42 83 76 24 79 8 81 94 54 29 49 70 26 78 40 70 68 63 75 58 84 2 74 18
3703 1977 3716 2737 2828 3024 3503 2562 2935 1804 3354 3990 3817 2829 1783 1564 2643 1905 3331 3429 3503 1617 2887 3671 2183 2852 2109 1958 1612 2913 2936 2843 1723 3739 3157 2637 2786 2127 3269 3382 2866 2122 1693 1558 1722 2721 3082 2366 1902 3581 3911 3086 2751 3654 2570 2301 2623 2708 1524 2012 3306 2009 2143 2801 2635 2307 1726 3903 2615 2790 3257 2155 2297 2720 2554 3172 3189 3211 1929 1839 3905 2853 2545 2783 1784 3407 2776 3955 2885 3414 2663 2816 2547 3131 1626 1811 3758 1749 3600 3385 2961 2191 1881 1502 3631 2997 3304 2247 1977 2180 3637 3541 2464 1778 1650 1983 2230 2018 2544 1501 3635 2042 3410 3135 3219 2880 2194 3275 2619 2386 1908 2033 2227 3057 2565 1968 2663 2310 2394 1788 3551 2529 1736 3182 3229 2950 2364 3911 3460 1593 3318 1998 2510 1539 3410 3133 1525 3886 2387 3358 2471 3120 1641 3500 2478 2418 2119 3544 1602 3081 1999 2047 3429 2360 3077 1583 2657 2943 1972 1952 1840 1696 2411 2976 2308 2618 2310 3262 3227 2980 3652 3064 3213 2962 1839 2936 2366 2463 1659 2408 3724 2382 3855 2992 2539 2920 2040 1549 2598 2389 2580 3095 1700 1534 3883 3723 2381 1804 2299 1814 2842 3085 2222 1979 1998 2744 2789 3254 3755 2669 3725 2796 1769 2035 3796 2019 1639 2615 1685 1571 2693 1705 2835 2761 1956 1843 2963 3269 2465 2003 2896 2320 3948 3149 3709 2685 2534 2408 3975 1609 2537 3081 3712 3526 3782 3380 1957 1806 2393 2738 3997 3400 1777 2702 1816 2201 3106 3893 3532 3470 1812 2765 2305 2873 3520 2424 2879 2182 2735 3152 3966 3906 1777 3719 1538 2853 2177 2871 2956 3393 2 10 58 22 81 60 28 41 61 93 22 46 34 67 25 66 95 54 30 52 70 40 14 44 95 21 88 93 35 21 99 9 11 19 42 32 19 61 0 40 28 44 32 83 87 17 69 49 38 52 70 71 93 19 1 29 73 34 38 84 57 81 9 83 76 29 51 38 72 36 15 22 92 96 32 67 2 88 60 81 47 3 7 84 67 65 80 59 8 87 99 60 60 54 29 25 51 13 59 71
1910 2781 2835 2224 3817 2362 1813 3130 3954 2031 2959 1827 2643 2951 3530 1753 1884 2386 1861 2195 3332 3813 2341 2343 3987 3823 2480 1549 3715 1524 2464 2474 3831 3393 3006 3125 1869 3220 3315 1784 3034 3701 2120 3749 3749 1726 3801 3043 3057 3122 3177 2073 2597 1872 2554 2209 2353 3515 3227 3987 2578 3610 3164 2840 2340 1852 3562 3259 2193 1763 2562 3172 2190 3895 2814 1810 2493 1589 1940 3374 3342 2834 1647 3277 3808 1666 2718 3445 3783 2488 1596 3379 2384 2839 2183 3076 3139 2024 3032 2568 3828 3306 1909 1879 3888 1985 2227 3886 1865 3689 3420 2328 2653 3963 2488 1891 3807 3507 2986 3196 2006 3478 2343 2513 1892 3493 1932 1934 2466 3997 3204 1895 3317 2279 3096 3663 3991 3556 3116 2027 2719 3248 1744 3582 2396 3316 2695 2337 3721 3263 3984 2661 3573 2156 3235 3632 3216 2639 3132 2409 3014 3136 1822 3781 3188 1909 2220 2219 3853 2855 2372 3742 1822 2872 2993 1698 2454 3952 2516 1882 3587 2872 3469 3819 3126 2366 1760 1901 1820 1520 2981 3486 2020 3280 2865 3037 2206 2448 1813 3750 1593 2766 3361 2920 1517 3694 3395 3036 3798 2005 2296 3229 3380 3964 2433 3774 2138 2712 3693 3659 3279 2883 2450 2301 3852 2084 2600 3812 2113 2578 3261 3566 2557 2690 3694 2592 3249 3162 2627 3237 1986 2599 3155 2992 2919 2091 2101 1924 1609 2135 3742 3622 1702 2260 1934 3413 3573 3969 2387 3039 1822 3101 3254 1780 2869 1769 1611 1741 1990 3828 1746 2674 3529 3183 2400 3498 1738 2754 2550 1847 2869 2663 1509 3078 3960 3092 3874 2484 1562 2144 2508 3741 1804 1946 2532 1874 1771 3776 2594 1912 38 26 56 68 11 54 30 39 56 66 91 47 44 50 90 86 27 66 71 92 82 47 61 44 75 1 88 96 25 87 37 32 10 65 77 30 69 29 40 0 13 20 27 80 94 6 80 95 71 72 77 62 14 97 45 66 28 9 41 24 43 8 76 68 20 5 94 97 20 78 36 16 23 41 38 72 10 48 47 10 81 81 15 24 85 22 43 96 36 70 99 56 29 98 97 15 69 19 48 64
2776 3938 2908 2132 3549 1705 1784 2892 1776 3294 1982 2720 2525 3749 2950 3554 2772 3260 3027 3173 2950 2920 3578 2883 1599 2284 3565 1508 1906 2824 2763 2812 2473 2750 3578 1815 2369 3451 1845 2492 3618 2718 3891 3233 3168 1666 2561 1735 3543 3966 3577 2809 2932 3399 1551 1900 3002 3205 2150 2657 3597 3900 3201 3012 2888 2793 2588 2824 2505 2778 3517 2077 3430 2841 3432 2504 2941 3656 2005 2286 1597 1763 2017 1730 3682 3910 1900 2195 1900 2510 3327 3781 3729 3910 1863 3593 3805 3534 3061 3736 3155 3221 3979 3415 2319 2678 2624 2191 1652 3569 2522 2432 2097 3837 1588 3866 3995 2783 3097 2978 2020 3438 2712 3239 3138 2778 2675 2881 1560 3621 1679 2176 3769 3658 3232 2461 3841 2598 2538 3977 3378 2492 3524 2471 3281 1816 2212 1996 2245 1821 2026 1927 2522 2954 1935 3925 3513 3499 3639 2116 2975 3444 3701 3162 2915 3052 3354 2115 3635 2378 1593 1923 2824 2158 1827 2923 1932 2252 3154 3020 2268 1586 3121 3246 2897 3745 2542 2234 2204 2836 3828 3879 2273 2122 3695 3649 1732 1750 1516 2444 3642 3443 2340 3921 2283 2203 2925 2845 1576 1521 1926 2574 1936 3149 3778 1904 2854 2256 1619 3571 2165 2320 3126 2613 3126 1726 2104 2551 3668 1602 2292 1935 2121 2582 2591 2433 1574 2459 1550 1684 2249 2644 2174 3568 2266 2786 3616 2507 3134 3341 3761 1704 1571 1631 2780 2904 3745 3376 3402 2281 2723 1739 2371 3440 1608 1861 2645 1942 1798 1755 1721 3258 1951 3601 1800 2128 1683 3736 1656 2412 2935 1916 3162 1950 3537 3989 2520 2587 1688 2715 2793 2860 3440 3902 3729 3502 2325 3180 3317 3126 15 66 53 30 92 87 38 17 76 46 96 76 7 40 10 43 96 72 88 6 98 28 17 50 55 60 36 31 34 43 58 99 74 46 13 46 23 12 28 13 0 2 40 37 19 60 57 37 70 10 54 34 5 51 79 52 20 27 78 28 6 56 47 3 8 7 38 32 18 66 78 35 51 76 99 50 96 34 74 79 8 68 78 51 79 79 62 42 80 16 60 20 64 7 26 4 83 91 99 73
3089 3958 1914 3536 3935 3834 2647 2340 3609 2504 2585 2583 3658 3231 1796 2918 2898 3686 2509 2383 3951 3753 1823 1644 3410 2940 2632 1857 3527 1783 2710 3705 3025 3968 3629 3517 2538 3697 3386 2883 1627 3820 2334 1965 2255 3578 1707 2115 3654 3562 1936 2218 1937 1548 3501 3224 3428 3184 2831 3265 2858 2129 2905 3566 1897 1926 3594 3221 3720 3398 1594 2860 3733 1687 3016 2510 1527 3932 3605 2444 3067 3649 3740 3900 3260 2440 3744 1933 3937 3982 2145 2985 3193 2516 2190 3454 2864 3262 3785 1505 3994 3323 2327 1840 3527 3838 3393 2652 2510 1798 3885 3597 3236 1737 3680 3664 2792 2019 2002 1842 3726 3020 3674 3919 2249 1814 2622 2709 2521 2924 1920 2355 2584 3903 3378 2120 2349 3958 1869 1621 1971 3628 1988 3120 1750 3584 3175 1801 2715 2862 3621 2214 3526 3008 3773 3129 2051 3611 3405 3486 3899 3629 2886 2497 2627 2231 3211 2125 2243 2527 2806 3266 2889 3995 3680 2335 2285 3470 2349 2559 3418 3932 2484 3387 3885 2567 1617 3858 3800 1908 2688 3832 2889 1629 3648 2789 2630 2085 2257 2087 2774 2911 3295 3967 2172 2882 1881 2340 1509 2831 2668 2958 1540 2544 1934 3387 2346 2636 2864 2940 1821 3309 2099 2090 3402 1714 2533 2539 1537 2923 2383 3826 3592 2477 2691 3021 2205 3199 2538 2948 2562 3320 2566 2252 1999 3956 2426 1689 3037 2480 1737 1821 2094 1820 2256 2781 2132 2946 1991 2972 2954 2484 2100 3197 3980 3954 3396 3560 3879 3616 2237 2035 2929 2491 3324 3729 1638 2303 2321 3883 3041 1672 2767 2009 3477 2013 2414 3007 2048 3505 3174 3658 3715 2293 3073 3057 1528 3915 1941 3713 35 76 26 15 2 74 47 92 67 27 20 50 15 82 49 86 79 82 28 99 42 49 98 97 11 24 85 61 32 13 78 26 63 97 7 97 76 93 44 20 2 0 31 20 31 83 54 88 73 18 51 29 15 10 97 17 24 27 17 15 9 9 7 78 90 23 37 3 57 35 12 52 93 79 10 27 79 15 47 51 11 42 29 22 27 41 32 54 98 8 31 51 16 35 15 10 55 52 79 35
2360 1768 1828 1730 2911 3090 1870 2281 2148 3182 3630 1626 2839 2682 3087 1659 2887 3520 3293 1891 2863 3506 1540 3560 2224 3948 2036 2552 2572 1506 2198 1765 2882 3542 2298 2435 1712 2481 3485 1983 3253 3295 2548 3846 2240 3581 2365 1726 2433 2166 2293 2798 2935 2606 2617 2608 2757 2616 2809 2738 1705 2783 2351 1820 1623 3536 1690 2250 1521 2855 3638 2928 3046 2630 2582 3590 3716 3234 3714 3189 1550 2747 2313 2725 3311 2369 3670 2331 2627 1851 3799 2641 3106 2765 2423 2928 3065 2264 2296 2408 3093 1820 2294 3001 3828 2980 2216 2440 3642 1964 3578 3431 2272 2524 2026 1565 2835 2528 3075 1835 3417 2525 3192 3572 1832 2833 3522 3012 2990 3955 2963 3926 2379 3337 2603 3306 1815 3350 3567 3753 3952 1631 3056 3092 2364 3813 3323 2922 2182 3450 3199 3361 1510 3704 2827 3390 1785 3528 3386 3643 2521 3801 3477 1633 2743 1594 1544 3374 1820 3791 3334 3866 2867 3949 1903 3508 1776 2053 1637 2338 2079 1653 3336 1865 2623 1737 2816 3449 1855 3086 2053 2920 2730 2996 3739 2601 2160 2463 2436 1782 2511 2280 3871 2176 1788 3702 3270 2134 3457 2674 1521 3510 2964 2416 1764 3555 3829 2326 1849 3579 2434 3116 1668 1783 3478 3141 1752 3323 2918 2428 2962 3393 3419 1787 2330 1835 3016 2413 2667 2306 3819 1908 3213 2302 2796 3215 3206 2564 2725 1725 1975 3588 3267 3989 2370 3271 1944 3345 3698 1766 2837 1675 2552 3903 2710 3286 3797 2823 2698 3254 3493 2927 1662 3477 2147 3781 3340 2123 1640 2189 1650 3238 1615 2511 2855 3603 3577 3570 2679 3478 2295 3613 2303 3977 2609 2469 2817 3196 2609 1584 35 80 96 47 89 44 44 27 83 36 87 51 95 90 83 90 75 37 57 77 92 97 76 13 72 90 98 30 14 83 3 49 14 77 19 37 40 6 32 27 40 31 0 59 52 75 20 97 81 44 10 91 97 39 79 71 93 95 92 85 25 37 4 29 21 85 28 30 70 18 69 86 91 55 50 62 66 19 65 22 47 14 57 66 42 7 76 6 87 19 27 66 28 91 81 38 50 82 42 92
2935 3382 3517 1724 1580 3850 3451 2121 3423 2353 3002 1663 2316 3076 3172 2223 3998 2181 2098 1573 1555 2233 3640 3146 1626 1628 3421 3446 2388 2583 2039 2368 2321 3851 3220 1789 1803 1735 1880 2561 1944 3261 2623 3013 3529 2970 3189 3858 1835 1643 1969 1537 1698 3762 3999 2281 2834 3005 2545 3167 3791 2581 3986 2508 2933 3031 3775 3332 3198 1699 3136 1937 2923 2642 1540 2575 1955 3099 3979 2188 3018 3406 2720 2575 2345 3689 1841 1964 2857 2357 3476 2477 1906 2841 3006 1917 3007 2050 3932 2927 2446 2949 1863 3867 3906 3097 3302 3400 1694 3290 3609 3603 2187 2037 3168 3420 2418 2976 2303 2802 3802 3211 1647 2476 3279 2194 2496 2077 2494 1654 2776 2128 3663 2705 3985 2957 2166 1605 2951 1577 2807 2175 1707 1557 1928 2393 3671 2226 1748 2354 3470 3336 2289 1825 2949 2474 3079 2079 3441 2752 1665 2653 2391 3106 2965 3425 2576 1548 2985 2820 1701 3679 2079 1999 1665 1514 3187 3401 1655 1562 1867 2850 3786 1931 3920 2185 3779 2572 3030 3451 1890 3574 2483 3357 3178 2436 2283 2279 3166 3826 3742 3461 2646 2560 1530 2270 1838 2187 1956 3156 2603 2557 2633 3602 2423 3600 2158 1605 3119 3593 2480 3186 3291 3305 1503 2376 2614 1975 3895 1795 3940 3059 3704 2419 2691 3310 3607 2930 2099 1629 2673 2649 2341 1512 2729 2324 2552 1984 1709 2044 2101 1900 3338 1626 2885 2907 2096 2366 3444 1927 3930 3222 3224 2210 2430 3089 3766 2709 3163 2241 3417 2448 3172 3662 3069 2742 3496 2541 1514 2479 3986 1878 2870 2790 2173 3872 2528 2521 3240 3852 2734 2457 1503 2480 3357 3759 2000 3603 2834 2575 89 11 48 63 15 1 54 35 54 1 44 33 34 11 55 28 11 3 4 19 10 78 13 5 23 37 73 62 37 53 1 37 68 96 29 27 8 64 83 80 37 20 59 0 24 48 72 27 39 61 93 89 28 30 31 69 11 20 90 65 92 24 94 9 36 75 71 52 14 55 18 76 85 90 44 30 74 52 41 10 37 74 67 82 72 6 44 41 49 4 88 98 12 50 6 46 41 26 29 97
3987 2630 2110 3030 1806 3603 3098 1581 3478 2616 3019 3097 1667 3784 2587 1510 3884 3878 3910 2611 2822 3352 2062 1910 1779 2567 2953 2404 1902 2782 3327 2976 2821 2505 1861 2367 3604 2828 3107 1633 2516 3444 2704 1527 1999 2040 3990 3348 1609 2668 3253 3043 2486 3712 1718 3477 2885 1868 1847 2971 2835 2924 3666 3975 2398 2315 3268 1859 3083 2625 3747 2489 2992 1737 1819 2435 3523 2601 3379 3980 3985 2273 2964 3076 2616 3364 1705 3850 2278 3696 2967 1717 2494 3570 2475 3701 2031 3933 3038 3193 1533 2478 1644 2450 3378 1554 3452 1775 3014 2209 1863 3782 3988 1797 2116 3148 2466 3555 2956 1979 1879 2641 3298 2440 3018 1877 2833 3644 3367 2798 2921 2986 2170 3227 1572 1604 2584 3311 3466 3683 1538 2782 3854 3422 2249 3447 3884 1669 2739 2945 1658 1788 3245 3364 2901 2477 2149 3301 3891 2447 3251 3031 3064 2851 1933 1762 3253 3490 1523 2674 3857 1818 3773 3856 3392 2536 1598 2277 3411 3214 3301 2232 2759 2841 2782 2713 3239 3306 1799 2251 2171 3465 3044 2855 2838 3141 3636 1672 3475 3944 3399 3401 3705 2602 3739 3350 1620 1924 2682 1512 2648 2400 2062 2158 2749 3452 2475 3200 1517 2468 1806 1873 3056 2452 3745 1979 2269 3182 2179 3458 2144 3927 3875 2998 3771 1939 2278 3606 2910 1813 3131 2991 1670 3219 2544 1605 2493 1833 3390 2045 2970 2789 1804 2067 1952 2159 3635 3504 3196 2229 3638 2208 1628 2764 3476 3173 3033 2015 2144 3296 3521 3581 1634 2136 2454 3150 3972 2481 3502 2368 3003 3617 2324 2038 3892 1820 3157 3130 2593 2695 2169 1703 2207 3381 3025 2917 2389 2356 3199 3313 7 27 60 4 42 12 64 84 72 35 79 11 51 70 49 23 9 47 63 81 51 61 91 84 54 24 88 58 78 27 6 75 38 76 13 32 53 3 87 94 19 31 52 24 0 63 43 34 88 70 87 30 10 76 31 90 50 5 42 27 67 65 86 11 89 66 31 30 57 87 17 36 61 93 77 35 47 23 3 76 78 92 82 51 11 59 62 27 39 92 34 83 38 2 95 9 82 86 92 51
3341 2664 1556 3781 2210 2300 3264 3769 2000 1724 3259 3916 2071 1722 3559 2218 1575 2957 1968 2179 3926 3783 3719 2051 2711 3183 2809 1785 3075 3456 1666 3924 3367 3676 3755 3988 1965 2101 3810 2647 2008 3075 2656 1831 3990 3854 2939 3731 3871 3846 2450 2027 3663 2659 2421 2847 2515 1641 3704 2393 2364 1748 3518 3606 3652 2926 2646 1914 3328 3210 3943 2891 3285 2456 1515 2980 3390 2939 2863 3732 3502 1920 2363 2656 2556 3841 2753 2638 2818 3414 2269 2770 1986 1855 2487 3296 2914 1649 3528 3299 3019 2624 3954 2945 3643 2017 2972 1706 2483 1848 1683 1640 2525 1867 3899 2560 3533 2529 3019 3406 3210 3934 2120 3009 2048 3345 1779 2499 2397 2005 3347 3001 3218 2688 3530 3164 1595 2637 2557 2107 2350 2104 1592 2513 3242 3463 3533 3674 2798 3910 3911 3787 3175 2711 1695 3076 2451 3612 2182 3769 1986 2612 2660 3276 1740 3553 2935 3953 1797 3990 1607 3699 2351 1749 2501 3275 2599 3164 3258 3671 2853 2266 1566 3052 3370 1968 3853 3643 2524 1632 2011 2633 2467 1893 2103 2701 1583 1747 2847 2223 3831 1841 3306 1952 2477 2328 3464 1715 3156 1529 2522 2533 3456 3918 3385 3694 1683 2264 3849 2780 3766 3654 1888 2125 3909 2221 3498 3783 2404 2546 3246 3037 2566 3330 3853 3576 3281 3388 3730 3689 3463 1836 3203 1895 2499 2999 1766 3651 3767 3173 3611 3210 3026 2522 1972 2224 3158 3289 2857 1808 2315 2283 2799 2817 1814 3241 2229 3489 1512 3073 3023 3546 1501 3760 3204 1840 1620 3313 2976 3514 3384 3341 3737 3268 3089 1692 3356 2981 3039 2873 2965 3539 1554 2184 2561 3058 2209 1558 3600 3764 38 80 31 14 59 56 37 22 39 46 89 11 8 33 78 46 10 35 47 47 62 13 33 90 73 59 28 49 85 8 63 19 14 51 70 51 25 93 17 6 60 83 75 48 63 0 90 71 17 10 66 9 14 65 45 85 30 93 75 10 69 47 58 74 19 42 71 38 69 64 51 34 97 76 57 78 20 68 48 75 56 4 20 96 84 24 1 95 29 70 24 87 70 94 83 81 44 46 10 80
2289 2486 2637 2091 3104 2216 2571 3089 2448 1521 1784 3506 1619 3003 2225 3059 1705 3607 3228 3063 1903 3899 2166 2459 2968 3545 2807 3131 2687 2714 1779 3506 3554 2852 2071 3892 3225 2250 2747 1771 2167 2625 3310 1983 2150 3033 2249 2259 2600 1586 2937 1624 3074 3390 1760 2243 3516 2766 3908 2575 1999 3274 2512 2214 3395 2642 2424 2944 3520 2585 3383 2107 2210 1703 3148 2638 1971 1723 2835 3729 3791 2226 2482 3237 1601 3668 3333 2203 2628 2758 2444 2578 1938 2119 2714 2160 1531 1890 2622 2280 1530 3814 2577 2134 1775 2532 1997 2785 2517 2606 3318 3980 1989 1599 3142 1906 3419 3283 3411 2812 1707 3334 2824 1910 2130 2781 3256 2420 3465 3315 3673 2300 2356 3296 2122 3721 3552 2369 1695 1858 1594 3114 3512 2699 2640 3559 3657 3158 3449 3731 3344 2727 2594 3510 2712 2499 1909 1942 1970 3009 2220 2138 1787 2624 2412 3825 2642 1588 2800 2649 2866 3609 2678 3177 2200 1986 3533 3448 2650 1795 2926 2805 2632 3051 2127 3055 3989 1737 1835 2693 3502 3362 2983 2756 3810 2910 3193 2618 2591 2921 3515 3136 2731 2607 3498 1732 3710 3722 1597 3260 1974 1803 3389 3263 3390 3806 3024 3275 1952 3096 2588 2642 2566 3234 3762 3156 2947 2204 3271 2750 3546 3069 1696 1796 2260 3959 3059 3403 2457 3005 3153 2123 2927 2577 1835 3015 3701 1765 1598 3955 2179 3063 2449 2973 1502 2300 3459 3181 3692 1972 2896 1941 3533 3502 3673 3325 3822 2573 3008 2430 1928 3191 2842 1680 3810 3357 3573 2943 1736 3946 3566 2669 2185 3632 3264 3436 2223 3052 3810 1655 2847 3259 2900 3705 1994 2539 1902 2086 2247 2046 78 69 49 27 81 73 22 70 61 15 46 93 53 88 34 48 89 44 72 20 67 59 48 22 51 69 28 56 93 50 46 56 4 43 66 3 82 38 69 80 57 54 20 72 43 90 0 21 24 96 12 9 34 41 96 86 52 54 36 5 49 73 39 20 68 88 34 28 87 54 50 60 90 75 43 12 63 84 85 24 37 52 2 62 65 97 5 39 71 23 24 67 31 15 4 64 89 10 6 35
1659 3592 2436 3436 3802 3144 2422 1520 2473 2926 3973 1882 2517 1697 3592 3421 2835 2584 2635 2972 2280 1565 3413 3766 3493 3915 3673 1891 2397 1501 2792 3758 1916 1974 3527 2272 2605 2586 1902 3900 2621 2231 2239 2295 2115 2040 1607 2769 3120 2829 1758 2977 3281 2132 2500 2554 3543 2899 2439 2502 3572 3234 1619 1931 3481 2502 2569 3179 3382 1835 1734 3835 2876 2178 1931 3397 2020 2625 3297 1651 3402 2238 2176 1599 3725 2178 2555 3412 3389 1844 2794 2504 3674 2109 2633 2094 1801 1769 2678 2791 2203 1815 2610 2015 3374 3317 2214 3119 3790 1840 2688 2052 3911 3308 3866 3889 3614 3210 3055 1937 3349 3998 2891 1730 3629 2235 3678 1583 2758 2089 2859 3583 1855 2343 2015 2279 2493 2010 3670 3731 3670 3567 3394 3659 1633 3257 3338 2348 1516 3030 1594 3730 2653 2455 3243 2633 2244 2362 3322 2496 2798 2329 2536 3492 3419 3112 1589 2148 2156 2349 3321 2673 3076 2712 2657 1958 1529 2557 3311 2186 3693 2935 3681 1635 3848 2733 3026 3803 2307 2490 1509 1858 1585 3831 3899 1956 2506 2178 2107 1861 3477 1712 2935 3968 3993 3791 2212 2772 1504 3460 2289 3412 2043 3220 1719 3543 3440 3954 2701 1929 1747 2216 1868 1597 3906 2791 1928 3476 3763 3765 1649 2682 3947 3257 2394 3297 2267 1646 3009 2180 2563 2166 3765 3359 2791 3281 3548 3923 3098 3644 3504 3146 1798 1630 2404 2777 3664 3254 3692 3271 1572 1752 2763 1505 3646 2096 2091 2903 3676 3332 3097 2663 3232 2480 3586 1973 2446 2298 3264 3593 1657 2676 3634 2750 2716 3625 3493 1897 3860 3150 2168 1831 2134 3633 3604 3206 3442 2084 3389 2057 26 97 11 3 42 38 52 70 45 96 59 80 95 18 38 38 65 48 54 94 57 98 43 8 14 54 54 37 5 70 21 7 84 41 9 87 65 83 49 95 37 88 97 27 34 71 21 0 7 37 32 83 6 97 96 3 97 77 60 85 46 65 44 24 60 31 61 71 21 94 63 95 5 30 55 39 72 49 8 48 9 95 83 95 99 45 29 5 80 95 87 27 45 71 91 79 34 97 86 34
1956 2080 2628 3212 1931 2803 2096 1573 3820 1650 3966 2754 2836 3355 1861 3973 2276 3371 2430 2515 3571 2072 3051 2055 1543 1724 2016 2074 2870 2137 1815 1970 1915 1773 3389 3631 2852 2968 2040 3754 2984 2850 2609 2279 2802 3887 1715 2225 1563 3571 3426 3585 1931 1771 2695 3641 2501 1790 1592 3303 3248 3963 1841 3759 2458 2020 3664 2932 3164 3922 2302 3151 3829 2847 2199 1622 3890 3936 3859 3664 1568 3884 2507 3046 2397 3177 1921 1534 2860 2373 3259 2638 1680 3520 3555 3951 2757 2031 3197 2679 3458 2219 1728 1828 1831 3083 1951 3434 2351 2983 3439 3355 2148 2098 1502 3195 3019 3302 3658 3605 2226 3763 1763 1834 2553 1601 2950 3543 1696 3474 1735 2489 2137 2237 3803 1959 2173 1767 2637 2100 2436 2933 3597 3299 2675 1576 3018 2543 3694 3388 3688 2896 3256 2402 2495 3289 3607 3348 1972 2617 2624 2644 3870 2043 3521 2934 2947 2286 1715 3661 3553 2997 1948 2419 2278 1602 2080 1744 3045 3887 3356 1615 2030 3631 3086 1876 2883 2791 1878 3750 2910 3294 3441 3893 3813 2197 3983 1713 2700 2539 2085 2063 2186 3852 2373 2847 1962 2499 2017 3862 2441 3478 3543 2233 3055 2521 1943 1995 2973 2588 2658 2026 3913 3133 2217 2387 2314 2269 2081 1509 3127 2253 3225 2542 1763 3192 3152 2109 3047 2694 1763 2688 3272 1958 2201 2489 1704 3718 2020 3976 3266 1782 3964 1505 1582 2839 1976 2511 2258 2362 1634 3136 2886 1513 2880 2646 2114 3207 3350 3417 2062 1731 3151 2595 2574 1640 2409 3294 2455 3349 3628 2261 1679 2335 3765 2736 2704 3346 2216 1901 3954 1783 1892 2542 3692 3997 3561 3091 1966 3500 27 61 36 5 3 2 22 60 60 6 74 45 80 22 49 41 23 54 84 66 52 74 49 64 56 88 87 41 68 98 65 8 17 29 4 44 50 42 38 71 70 73 81 39 88 17 24 7 0 15 74 55 52 52 9 99 22 19 14 39 63 74 98 24 62 10 44 33 97 74 30 67 90 1 46 33 33 85 84 21 36 84 9 82 37 16 49 45 25 91 49 53 42 41 98 97 4 79 20 90
2180 2961 2683 1992 1778 1675 2740 3953 3915 2893 2894 3695 1547 2193 2545 3978 1556 2410 2395 2798 1668 2226 3205 3969 1811 3860 3185 3460 3287 3767 3502 3175 2696 2156 3383 1664 1782 1665 1656 2862 3339 1684 2931 2041 3763 2560 3389 3914 1914 2825 2467 3192 3625 2685 3520 3835 1784 2923 3766 3131 2718 2113 2502 3311 3214 2219 1741 1967 2706 3601 2539 3632 1508 2689 2795 3473 2439 2005 2665 2771 3313 3542 2331 3682 3704 3346 2008 2473 2598 1660 3109 3506 2137 2159 3100 3688 2317 2489 3003 2709 2083 1594 2002 3493 2214 2284 2422 3794 2618 3846 3944 2277 3994 2700 1690 2538 1946 3156 2068 3260 3632 2858 3461 2934 2091 3087 1884 2577 2010 1570 2215 3338 2030 3974 3405 3400 3552 2233 2219 3867 3748 2565 3553 3888 1771 2811 2923 2757 3145 1762 2935 2489 3314 3351 3415 2551 3225 2827 3750 1683 2119 2789 3364 2690 3539 3892 3170 2841 1629 1584 1887 3563 2444 1715 3993 3251 3166 2396 2265 2106 2044 2223 3367 2264 3208 1605 1828 2022 3625 3355 2572 1586 2666 2074 2906 2192 1900 1724 3043 2383 1632 2193 1905 2286 3504 1847 3213 3178 1690 2783 3014 1549 1704 3654 1648 3366 3803 1991 2327 3071 3732 3321 1905 3511 3529 1770 3968 3288 2553 2894 1692 2023 2103 3531 2440 1661 3791 3497 2248 2954 1951 3970 3627 3069 1805 2038 3556 1608 1796 3108 3499 2156 3539 3148 2882 3986 3651 2891 2236 2776 3369 2267 2357 3375 3776 3837 3023 3443 1739 2038 3406 1522 1662 1629 3148 2866 3694 2069 3819 3207 2188 3334 3046 3770 2406 3460 3594 2106 2858 2949 3911 3176 1959 1979 3150 1826 3189 3440 3114 2770 15 80 98 26 60 98 64 45 30 10 48 66 78 74 71 76 49 22 91 16 37 9 3 58 12 89 47 11 9 63 8 16 72 11 51 24 49 76 52 72 10 18 44 61 70 10 96 37 15 0 99 93 37 9 29 57 32 82 51 21 17 24 66 82 10 10 51 9 27 4 69 54 40 56 71 89 73 1 15 94 30 9 16 88 85 15 22 71 51 54 10 58 5 57 26 68 67 16 87 97
3700 3371 1663 3248 3559 3765 2971 3946 2447 3204 1731 1689 2075 2677 3700 3550 2564 3425 3401 2248 3190 3040 3496 3858 3250 3867 3345 1609 1601 2581 1969 3423 2795 2992 2380 3695 3440 2233 3083 3877 1555 3290 2670 2922 3131 3167 3160 2390 1775 3644 3919 3962 3509 3691 2639 3118 2155 3647 3278 1560 3845 1846 2806 3334 3203 1722 1789 2443 2725 2497 2285 1741 2083 3648 3064 2135 2335 1860 3453 2003 3475 2545 3612 3447 3801 2482 1606 2476 3815 2245 1768 1804 2491 3560 2805 2887 1709 2185 3196 1720 3689 1871 1677 3698 3872 3175 2057 1986 2693 3258 3497 1835 1636 2323 3559 3181 2510 3031 2888 2655 2770 2445 2657 2760 3279 2260 2483 2746 2745 3016 3524 3015 2363 2588 1884 2419 3223 1961 1855 2929 2113 2955 2783 2147 1779 3935 3358 3128 2815 3621 3718 2259 1895 1649 2927 1955 1830 2241 3161 1631 2912 2360 2484 3466 2886 2476 2866 1683 2476 3071 3800 3860 2705 2058 2944 2624 1705 2440 2004 2515 2051 3165 1529 2957 1521 1760 1870 3386 3793 2546 2935 3430 3972 3191 2389 2555 1845 1847 3088 2981 2503 1674 1868 2565 2929 2501 2084 2635 1701 2746 2521 3861 3413 1930 3772 2909 2877 3003 3718 2935 3729 2543 3325 1526 1857 2689 3657 2324 3660 1618 2555 2679 3958 1505 2229 2145 3686 3428 2929 3394 2698 2774 2089 1805 2859 3217 1514 2062 3526 2589 3950 1631 2743 3589 3344 3586 1718 3746 2396 3069 3282 2274 2969 2856 2162 2165 1782 1610 3401 1714 2978 3073 3741 2941 1666 3383 3494 2877 3646 3964 2623 2284 3133 3800 3529 3170 2025 2478 2872 2503 3433 1930 2938 3076 2785 1945 3749 2076 2822 2846 62 77 51 82 13 47 75 49 54 97 75 14 39 14 62 34 36 89 7 70 20 76 36 34 6 87 72 86 41 22 9 37 24 46 20 95 39 54 70 77 54 51 10 93 87 66 12 32 74 99 0 60 92 24 91 73 37 25 73 98 13 19 89 76 34 62 86 1 84 19 91 14 8 84 63 78 90 25 26 77 50 28 68 42 15 39 10 40 83 80 18 9 13 68 89 21 76 9 96 13
2177 2535 2041 2239 2980 2842 3497 1873 1545 3769 2601 2813 2217 2162 2038 2830 2546 2860 1986 1807 2463 1747 2816 1617 2258 3200 2790 2045 2875 1966 1593 3762 1777 3320 1910 2875 2818 2498 2762 3954 3942 3270 2252 3627 3085 2403 3674 1620 1898 3286 2271 1520 3497 1515 2263 2768 2659 1822 2808 1613 3393 3382 3585 1607 2320 3414 3493 2300 3061 3271 3958 2150 2472 2423 2611 3273 2357 2992 2419 3841 2981 2748 1618 3233 2186 3520 3767 1762 2412 3681 1738 2449 2922 2073 2221 3528 1939 2736 3799 2073 3538 3074 3445 3063 2873 3064 2039 1686 2581 1616 2443 2854 1773 2481 3289 2688 2056 3128 2547 1606 3367 3713 2574 2702 3731 2124 2857 1638 3543 3169 2256 1512 3725 2387 2486 3410 2368 3246 2709 3706 3098 1614 2949 1805 2429 2341 2574 1858 1634 1871 3939 2213 3577 2252 2628 3182 2478 2584 1577 2365 2322 3887 3488 2310 2118 3905 3780 2187 2286 2537 3420 3795 3047 2354 3381 3986 3414 2365 3210 1797 2250 3438 3631 2057 2736 3814 3320 1850 1618 2136 2272 3219 3979 2222 3295 1501 3060 2669 2552 2684 3441 1847 3269 2303 2280 3056 1857 1916 3413 1940 3998 3103 3963 3019 2288 2075 2390 2310 2634 1518 2473 3303 2951 2153 3934 3954 2370 2157 2121 3978 3655 2202 3259 3824 1653 2092 3608 2957 2199 2679 2782 2122 2179 1543 3163 2178 3127 3787 3686 1821 3352 3359 1980 2197 3917 3509 3922 2032 1945 1598 3095 1796 2078 3887 2249 1560 3343 2223 1825 2506 1883 1565 2042 2467 2663 1638 2907 1898 2030 2825 1928 2569 1893 1962 1633 1964 1825 3020 2146 3568 1863 2317 2076 2092 2203 2914 3152 3374 2987 3409 40 2 45 91 11 88 62 28 68 14 14 43 74 81 29 48 92 91 39 42 87 81 51 3 84 19 19 17 30 43 77 48 77 2 92 55 84 75 71 62 34 29 91 89 30 9 9 83 55 93 60 0 54 71 10 85 62 68 98 77 28 16 49 41 49 34 51 24 9 51 27 90 75 39 97 35 36 28 34 76 6 73 53 84 89 13 3 53 84 83 47 82 48 86 90 97 31 65 40 37
3530 3109 2174 2790 3202 3257 3639 3856 3967 3231 2042 3278 2380 3085 3741 1802 3567 3445 3990 1978 2616 1825 3593 1500 2905 3713 3298 3059 2017 1727 1892 3420 3624 1619 3734 1765 2209 1983 2896 1981 2618 2391 2510 2334 2081 3492 2335 3262 1764 1650 3763 2168 3147 3918 3125 2279 2104 1735 3788 2366 2108 3626 1993 1594 2180 2177 1653 1563 2799 3166 3429 3652 1691 2824 3517 3184 1702 3027 2033 2440 3716 1841 3056 2824 3983 2722 2378 3421 3727 1684 2205 3159 2538 3401 1642 1529 2402 3334 2044 2091 3579 3821 3778 3443 3669 3306 2509 2118 2426 2123 3778 3923 3225 3518 2991 2625 2212 2679 3692 3524 3272 2844 2224 3216 1829 1779 3874 2252 2689 1587 3748 2032 2608 2318 1940 2946 2566 3327 3155 2845 2613 2972 2901 3370 2752 3235 2381 2182 3371 2903 2995 2306 3124 3579 3327 3556 3201 3109 3181 3547 3812 2919 1743 2817 3949 1858 2828 1680 3041 3651 2933 3941 3824 2722 2665 3836 1740 1920 2069 1550 3874 1617 2240 3381 2517 3412 2296 1831 3925 3513 1502 1641 2298 1855 2363 3592 3983 3272 1522 3149 2726 2195 2284 1807 1815 2824 3546 1791 1538 2647 2573 3385 1642 2210 1953 1964 2221 3975 2763 2105 3343 2732 1755 3904 3455 3277 2834 3926 3438 3864 3838 2650 3896 1685 2140 2157 3670 2195 1566 3414 1761 3222 2059 3917 3441 3946 3408 1777 2808 2814 1596 3429 3613 3968 2326 3128 2231 3271 2285 2790 3827 2605 3344 2311 3842 2769 2738 2521 3080 2905 2606 3496 3319 3513 3475 2286 3957 2826 3131 3003 3170 2285 3024 3972 3079 2556 2558 2942 2355 3416 3750 2168 3584 1776 2914 3533 3900 1867 3502 2842 56 55 13 95 3 52 34 76 42 25 72 69 23 15 10 24 56 97 79 2 18 64 25 90 36 99 72 88 72 99 22 54 77 50 86 48 27 87 93 14 5 15 97 28 10 14 34 6 52 37 92 54 0 35 12 80 31 21 32 25 90 86 25 50 55 58 68 27 65 80 4 97 91 89 76 25 41 44 44 50 12 28 60 95 40 57 24 9 1 81 6 28 82 53 34 80 95 69 87 60
2184 1796 2389 2988 2307 3836 2157 2077 3414 2281 3280 2290 2916 3592 1926 1506 1580 3354 2198 2363 2241 2217 3771 3523 1942 2735 2331 2910 1818 3242 1858 1869 3167 2323 3045 1925 1816 1945 3149 1775 1709 2447 2766 2618 2860 1687 1909 1769 2343 2642 3429 3800 3508 3909 2287 3763 2237 3782 2035 3283 2016 3208 3953 1923 3001 2617 3797 3019 2323 2870 2463 1619 1844 3231 3901 2366 1904 3152 3024 3760 3341 1987 1562 1827 2881 3266 3524 2339 3088 1833 3124 3547 2737 1551 3715 2159 3866 2320 2891 3040 3296 2652 1780 3200 3363 1669 2665 3114 1949 3955 2037 2210 2074 3171 3374 2609 3396 2045 2229 3179 1759 3234 2929 1598 2090 3428 2738 3816 1899 2122 3740 3318 2390 3563 2410 3987 3826 2956 3699 1636 2121 1891 2546 3249 3182 2697 3808 3651 3131 3588 2675 2621 2592 1792 1615 2368 1838 3243 3121 1649 2037 3693 3876 2989 3128 3455 2879 2235 2573 2651 2495 2796 1912 3800 1646 3047 1789 1650 1671 3480 3979 3704 3631 3697 3517 3214 2387 3548 2137 3835 1517 3457 2621 2461 2872 3034 2829 3276 2485 2247 2598 2359 3590 2167 3791 2555 1511 2328 2492 1612 2516 2055 1620 2577 3809 2293 3793 3368 1536 2755 3608 1826 2600 1877 1681 2134 3592 3859 3769 3776 3042 3506 3337 2568 2925 3828 3110 3043 2236 1823 2510 3208 1605 3149 2023 3955 3594 3157 2552 3030 3142 3030 2334 1785 3313 2326 1914 3250 1861 2217 3223 1540 3692 2963 2404 2755 3953 2007 2174 2158 2884 1651 1784 2327 2230 3868 2105 3712 1531 3669 1510 3773 1747 2240 3058 1971 2858 3153 3007 2721 2377 2499 1870 3649 2115 1689 1695 1919 2793 2185 23 41 13 51 63 5 60 64 22 95 16 63 81 89 49 54 28 76 49 28 44 60 93 44 28 90 78 83 36 95 96 45 40 51 12 21 25 87 19 97 51 10 39 30 76 65 41 97 52 9 24 71 35 0 67 47 74 41 10 19 68 77 10 40 40 26 70 81 43 63 73 39 92 53 62 26 14 2 60 87 74 19 1 32 58 57 21 39 27 21 60 79 50 89 46 52 35 67 66 67
3169 3314 2558 1937 3849 2016 3722 3840 3138 2938 3971 3763 2123 3747 1589 2906 3132 1727 3000 3281 2386 1863 2959 1922 2660 3226 2422 1912 2449 3682 3888 2385 1634 3434 1557 3927 2853 2456 1925 3737 2985 2944 1719 3803 2865 3807 2878 2531 3714 3622 1674 1578 1579 1716 1978 3870 3083 1983 1894 1543 1615 3817 1581 3554 3841 1549 1727 3192 3093 3721 3085 3413 2220 3700 2536 2983 3356 3402 3622 3473 2565 3674 2336 2131 3145 1810 2306 2161 2312 3737 2609 3842 3537 3056 3869 2609 1569 1923 2646 1579 2541 2443 3857 2313 1949 3902 3890 2531 2010 2192 2824 3821 2845 2760 2780 2972 2215 2858 2951 3955 2224 1623 3695 1757 3639 2100 2832 2027 2296 2046 3927 2264 1742 1713 1665 3834 1854 2713 3146 2293 2310 1916 2652 2772 1853 3465 3140 1870 1977 1780 1685 2031 2445 1630 3800 2682 3787 3067 2869 3789 2972 3424 2208 3738 2822 3493 2111 3661 1802 3318 2903 2793 2789 2759 2785 3355 1859 3239 3158 3841 2758 2705 2583 1987 3915 3259 2374 2334 3073 2269 3030 3455 2805 2709 3874 3407 2777 3360 1917 2494 2041 3195 3872 3378 2699 3821 1994 2035 3612 2049 2179 2996 2836 3083 2719 2173 3904 3888 3514 1892 1662 3848 1700 3103 2391 2298 3771 1536 2456 1825 1783 1511 2242 3469 3975 3009 2477 2465 3535 2730 1831 3433 3043 3971 1804 1741 2971 2563 3110 2134 2032 3499 3177 3521 2843 1804 2094 2941 2815 3215 2100 2575 3728 3107 3931 2039 3786 1522 2846 2538 1571 1692 2290 2654 3818 1618 2907 1743 2722 2691 3045 3599 3105 1542 1645 2494 3401 2645 3025 2280 1870 2261 3482 3885 3821 2925 3185 2984 2283 2755 82 52 51 44 17 95 86 95 61 28 96 75 87 63 77 98 78 68 24 91 55 20 44 86 71 13 57 22 81 83 70 83 63 43 84 63 36 68 1 45 79 97 79 31 31 45 96 96 9 29 91 10 12 67 0 46 1 15 38 80 92 95 23 28 10 54 10 7 68 22 40 43 11 64 25 29 89 45 96 74 47 75 55 80 35 60 41 41 6 95 77 6 73 87 38 73 62 71 96 46
2817 2259 2056 2389 3056 3855 1850 3329 2639 2647 3784 1700 3383 1875 3631 3003 3580 1704 1855 2878 2243 2501 1726 2222 3150 3352 1693 2333 1852 3397 3725 3216 3310 1547 3362 3385 2558 3913 1677 2020 2367 3213 1682 3333 3027 1931 2580 2132 2768 3135 2908 1919 2910 2695 2849 3291 2799 3590 2568 1524 2821 3743 2543 3611 2251 2277 2012 3197 3133 3818 3815 3010 2762 3350 3121 2684 1873 2870 2119 2366 2531 2537 2297 2238 2325 2642 1562 2237 1502 3992 2227 2739 1947 2136 1592 2443 2730 3027 2162 3828 2396 3547 3923 3593 2630 3233 3081 2148 3923 2580 3364 1509 3394 3819 1520 2341 3019 3645 1720 3545 3606 1565 1951 2823 2598 3550 3767 1653 1800 3091 2230 2545 3961 2728 1710 1826 2233 3617 1797 3090 2907 3109 3466 3641 3851 3285 3142 2484 3779 3109 3184 2986 2428 2735 2055 2122 3022 3490 3831 1974 1546 2504 1815 2423 3150 3035 3192 2423 3926 2271 3862 2295 2495 2787 3674 3683 2439 1579 3713 1993 3755 2545 1557 2631 2034 2653 2566 1772 1897 2746 2849 3676 2377 3357 3542 1503 3370 1989 3222 1781 3471 3365 3012 2564 3658 3545 1522 2381 3000 3170 3086 3171 1798 1821 2902 3773 3376 2648 1845 2852 3939 2592 3840 3779 3345 3383 3838 3447 2778 2311 2649 1760 1511 3402 2620 1563 1730 2074 2380 2259 2770 2640 3527 2416 3312 2369 2988 3674 1509 2337 3474 1853 2245 1572 3642 3076 2043 3893 1781 1674 2770 1801 2449 1882 2673 2747 2783 3479 1655 2381 3244 3237 1651 2242 3477 2479 2174 3959 3841 3179 3329 3288 2731 2945 2331 2309 3438 1653 2423 2549 2939 3052 3177 3750 1958 3120 2199 3049 1989 2357 99 68 11 13 5 50 47 96 26 89 24 55 43 34 29 93 36 84 55 19 17 87 42 5 10 69 61 15 33 68 17 22 99 22 36 9 80 22 29 66 52 17 71 69 90 85 86 3 99 57 73 85 80 47 46 0 62 83 8 27 10 52 25 30 22 48 66 61 22 54 79 59 90 43 83 66 37 16 92 76 72 98 1 61 7 70 60 21 40 64 98 8 65 80 2 12 89 15 70 2
3896 1707 3503 3259 3072 3916 2962 2121 2196 2069 3444 1662 2667 2974 3836 2637 3511 2344 1668 3028 1679 3350 2377 3683 3930 2705 2292 2467 1860 3693 2692 3606 2786 3288 2576 3850 1547 1957 2784 3808 2117 3992 3997 1570 2522 3638 2598 3905 3370 2136 2742 3810 2921 3114 3163 2332 3562 1692 3594 2137 3093 1678 2583 3645 2025 2847 2376 3916 2370 3637 1547 1551 2608 3220 2503 2588 2694 2629 2645 3090 1637 1955 3669 3763 2510 2754 2495 3365 2207 3332 1645 2996 3316 2401 3084 3349 2564 2140 3325 3070 1794 3670 1580 2813 3240 3475 2951 2165 1817 2167 2586 2692 2314 2693 2853 3257 2285 3782 3800 1541 2413 3676 3966 1904 3990 3414 2661 1744 1593 2197 2461 2874 3101 2590 2280 2467 3542 3856 3219 1720 1712 2794 2892 2592 1772 3838 3676 3542 2226 3016 2559 2799 3965 2678 1526 2940 2013 2032 2290 2310 1553 2955 3057 1947 2634 3522 3066 2036 2046 1763 1911 3971 1884 2002 1731 2357 1586 3752 3435 3423 3526 2963 1590 2326 2230 2211 2523 3034 2742 2063 1697 1535 1677 2682 2976 3176 3533 1760 2729 2025 2238 2010 2373 2948 2710 2945 2999 3066 3235 3996 1741 1805 2130 3367 2142 2620 2621 1566 2789 2181 3555 3583 2965 3200 2767 2309 3257 3845 1560 2519 3924 1615 1715 2403 2849 1913 1563 2526 3265 2808 1657 1573 3534 2070 2615 2262 2681 2190 3663 2833 1585 3035 3237 1857 2597 3320 2096 3694 3990 1726 3745 2302 3034 2264 1516 3585 1726 2189 2120 3037 3320 3139 1717 3118 3127 2592 2354 3289 3659 2840 2970 3551 2225 2378 3889 3373 1590 2763 3894 3616 2214 3826 2464 3581 1815 3746 2709 3119 1954 3767 67 91 61 85 95 62 99 7 12 43 13 85 43 88 6 96 32 43 35 90 31 40 74 66 39 16 20 49 16 38 91 68 5 89 22 21 56 58 73 28 20 24 93 11 50 30 52 97 22 32 37 62 31 74 1 62 0 34 82 18 50 74 85 21 8 62 74 68 84 91 24 82 76 57 14 48 32 12 12 94 72 24 66 45 39 18 24 22 32 47 47 22 79 63 18 52 62 70 37 77
2915 2238 2204 3340 3585 2990 3922 3382 3350 3674 1557 2912 3523 3780 2333 3389 1862 2562 2991 2813 2762 3990 3606 2783 2607 1631 2282 1700 1889 2360 3441 3391 2648 3986 3455 1802 2068 3648 1642 2029 1505 2001 2173 2814 3443 1836 3858 1531 2890 1667 2418 3153 2072 2296 2425 3197 1843 1934 2195 2917 2746 2236 2546 3477 2764 3487 3650 2372 3035 3219 3710 3100 3233 1522 2741 1823 1701 2165 3187 1865 2126 1587 3443 3874 3106 3856 2708 2171 2298 1680 3965 2473 3320 3294 2893 1936 2869 2154 2823 3117 3152 3125 3001 1872 2912 1657 1788 3793 2418 1775 2607 2597 1778 2459 2100 3880 2359 3649 1762 1762 2830 1694 3632 3413 1740 2786 2470 2492 3837 3177 2806 3139 2651 1801 2938 2701 2320 3838 2859 1597 1530 3782 3978 2172 3030 2042 2062 3049 2948 2737 3609 2264 1638 2464 2986 3513 3662 2357 3710 3207 3163 2993 3823 3292 2090 1574 2689 2736 3304 3083 3805 2602 3955 2770 1678 3316 2654 3060 2989 3497 3315 2063 1911 3215 1537 3763 2712 2963 2702 3442 3861 1716 2930 1646 2549 3767 3742 3801 2096 2338 1607 3706 2502 2431 2944 1991 3685 3900 3434 1628 3962 3328 3459 2434 3695 3680 3172 3416 3697 3848 3458 3017 2374 3875 3443 2078 3078 1782 1662 2930 3587 3208 2500 2113 3361 3032 2952 3145 3864 3898 2534 3511 2404 1742 3474 3153 2055 1858 3914 2387 3644 2609 2825 2138 2233 3331 2942 2490 1873 2861 2941 1592 3443 2652 2248 3094 2711 3632 3030 1848 3594 1937 3927 3109 2414 1948 2740 2623 2044 2308 2665 1935 2506 2074 2712 2499 1844 2578 1542 2236 3951 2786 2445 1760 2524 2772 3097 1594 1810 2137 89 22 32 32 20 58 58 83 11 14 3 68 66 59 56 16 36 75 2 36 42 74 98 38 49 86 47 99 58 74 9 7 81 40 46 29 3 28 34 9 27 27 95 20 5 93 54 77 19 82 25 68 21 41 15 83 34 0 57 60 96 62 25 40 10 18 48 53 58 97 86 47 94 37 46 21 41 80 72 2 17 6 69 29 75 43 58 83 75 12 79 6 28 44 30 86 53 62 58 58
3814 2381 2595 1992 2062 2355 2979 3761 2867 3157 3667 2196 3818 3244 3944 3805 1755 3637 2688 2344 3657 3238 2089 2774 3542 3198 2870 2120 1726 3799 3983 3055 2162 3283 1726 3166 1816 2203 2608 2703 1541 2560 3297 2036 1504 3246 2383 2494 1986 3775 1572 2730 3372 3366 2624 2009 2852 3373 3068 2025 3139 2807 2261 3514 3185 3658 3203 3387 2740 3427 2385 2461 1748 3293 3380 2577 2062 2930 1791 3494 3655 3444 2271 2190 2922 2035 3488 1675 1863 3938 2282 1722 3806 2434 1706 2022 2873 1505 3372 2069 2873 3295 1982 2341 2776 1982 3780 2223 2756 3420 1540 1832 1794 1874 2537 2807 3063 2510 2169 3922 1673 2856 3688 2526 1801 3641 3681 2366 2020 3333 3832 3294 2744 3326 3944 3468 3590 1777 2865 3568 2573 2115 2673 3023 3686 2771 3031 3324 3072 3884 2529 2183 2712 3610 2451 3042 2887 3401 1841 3068 1771 3537 2722 2550 2612 1682 3315 1973 2561 2103 3426 2255 2137 2227 3633 2759 2001 1608 2009 3746 1607 2836 1642 2604 1665 3433 3094 1814 2032 3513 2453 3395 1500 3561 3649 1516 1835 1528 3412 3411 3656 2080 2156 2011 2435 2010 3032 2406 2725 3321 1769 2083 1792 3747 2761 2703 3649 3128 2691 1518 2872 2902 1853 3938 2691 3702 2032 1711 2641 3870 2579 3157 2056 2793 3247 3564 3186 1772 2035 3934 2324 2791 2041 3309 3372 3008 3329 2324 3295 2035 1841 1934 3491 1957 1905 3699 2397 3240 3528 2729 1755 1813 3670 3505 2358 2584 3538 3807 3366 2176 3255 2116 1617 2972 3761 2241 3713 3856 3231 3121 1630 2426 3074 3251 3254 2248 1792 3302 1982 2916 3142 3057 2306 2803 3797 3814 3611 2193 2539 1929 11 64 92 73 41 42 63 30 38 29 99 20 80 30 45 87 41 32 17 98 61 91 27 62 39 77 43 11 9 81 54 53 82 5 52 30 7 62 38 41 78 17 92 90 42 75 36 60 14 51 73 98 32 10 38 8 82 57 0 53 27 12 9 88 37 62 51 66 36 57 8 90 16 23 41 83 65 28 93 9 4 34 98 73 21 20 8 72 17 88 7 20 91 62 76 99 28 67 15 11
3904 3111 3817 2980 3233 3109 3682 2782 3523 2147 1590 2483 3083 1512 3514 1953 1986 3870 2595 1843 2468 2101 2539 3283 3617 2293 3054 3687 1814 1950 3458 2161 3463 3596 3569 2089 2047 1574 1927 1770 3780 3436 3736 2157 2233 3014 2396 3931 3891 2752 1626 2230 2330 1772 1777 2857 1589 2148 2792 3884 2746 3149 1910 2403 2015 2306 2468 1622 2190 3962 2192 3322 3641 2523 3906 3501 2414 2908 3735 2016 2851 3773 2267 2108 1967 1887 1862 3230 3006 1567 2318 3751 2304 2555 2930 2964 2379 1948 2303 3203 2908 1760 2389 3039 3012 2427 2430 3344 2066 3303 2803 3388 3705 3635 2565 2869 3731 3980 3541 2641 2945 1573 1985 2817 3897 1608 2696 3548 2693 2015 1590 1794 3892 1957 1920 2618 3185 2677 1727 1621 2117 3342 3569 2510 2442 2825 3297 2668 1507 3201 2328 2740 2882 1822 2421 1897 2230 1526 2908 1962 2332 1558 3179 3877 3643 1802 3397 1922 1551 2675 3119 1724 2003 3166 3265 1502 2509 3846 1779 3077 3030 3006 2722 2294 1831 1600 3050 1926 3851 3722 2739 3149 1947 2779 1678 2647 2846 3080 3387 1692 1787 2871 1975 1873 2546 2051 3008 2720 3715 2241 2090 2014 2668 3768 3186 2827 2154 2882 3887 2727 3396 2055 3417 2678 1864 1504 3204 3592 1726 3554 3985 3276 3635 3344 3859 3967 2816 3096 1749 3919 1803 1831 1985 3640 1980 2436 3137 1899 2406 2385 2673 1763 3497 2714 1625 3275 2300 3385 3631 3453 2516 3468 3754 1982 2960 3105 3325 2560 2984 3182 2358 1701 3389 2334 2923 1918 2755 2847 3979 3647 2771 2874 2566 2293 1851 3293 3360 3080 3529 3424 1919 2218 3317 2156 3627 3314 1638 1774 3222 3833 81 31 22 32 45 9 52 9 55 67 58 41 96 90 20 64 48 75 64 34 42 28 29 70 53 90 30 50 99 70 5 98 48 1 39 30 69 16 84 24 28 15 85 65 27 10 5 85 39 21 98 77 25 19 80 27 18 60 53 0 41 53 1 83 61 52 6 99 25 2 69 67 88 46 3 95 43 89 11 58 7 79 42 47 1 12 94 53 25 36 33 83 5 97 16 52 57 29 16 6
3370 2799 3993 1786 2892 3560 2529 3230 3500 1763 2814 1950 2075 1984 2720 2110 2327 3344 2134 1909 3058 3437 3134 2133 1527 3589 3750 1518 2919 3467 3879 3256 3918 1506 3584 2305 2958 1901 2755 3427 2249 2367 3208 3690 3668 2013 1689 2079 3267 3308 1850 2410 2352 3101 3317 3038 3169 3569 2292 3329 1900 2988 2662 3738 2455 1710 3605 1727 2110 2037 1995 3644 2774 2223 2198 1673 3034 1539 2146 3896 3592 2153 2291 1967 2695 3435 1775 3686 3439 3173 2082 3610 3384 3377 2681 2584 3838 2616 1991 2569 3013 1804 1946 3238 2426 3270 3480 2151 2042 3203 3478 2354 1968 2360 1755 3031 3134 2916 2534 2367 2660 3660 3110 3337 2125 3378 2873 3197 3809 1706 2407 3096 3883 3061 3971 3543 2654 2113 3130 2075 2873 2429 2308 2477 3815 2833 3450 3896 2531 3024 3884 2056 2496 3112 3584 2450 3475 2082 3849 1789 3513 2795 3543 3380 3543 3586 3554 2856 2546 1610 1632 2184 2067 2339 2990 3120 2441 3761 2136 3542 1917 3817 2391 2272 2988 3168 1586 2899 1645 2395 3693 2123 3868 1750 2424 3907 3779 3438 1959 3659 2700 1865 1808 3585 3770 1619 3102 3105 2766 3492 2034 3222 2122 3726 2405 3640 2122 1998 3738 3362 2651 3893 2358 1522 3929 3491 3328 3585 2149 1819 2985 3155 2348 2460 3009 3851 2294 3144 2815 2833 3599 3167 3385 3979 3652 1852 3075 2530 2192 3607 2877 1691 2557 2703 3815 3391 3221 2880 3695 2512 2283 2671 1797 1708 2345 2073 2712 2966 3015 2309 2636 3008 3165 3995 3692 1766 3413 3090 2234 2215 3356 2499 2916 3860 3365 3322 1875 2052 2054 3172 3330 1596 2197 2892 1608 2977 2812 1701 3955 1660 6 8 65 20 86 87 45 60 91 85 17 84 42 39 49 52 20 97 14 56 3 75 43 75 50 55 3 53 10 45 72 81 46 35 63 19 47 81 57 43 6 9 25 92 67 69 49 46 63 17 13 28 90 68 92 10 50 96 27 41 0 71 56 92 64 77 98 62 60 30 5 42 43 49 14 41 4 18 38 5 38 36 64 46 29 91 6 40 5 40 97 71 72 12 21 88 1 49 88 71
3070 3582 2542 2017 2755 1752 3685 1553 3178 2580 3943 1796 1552 2667 3020 2107 1735 2018 2842 3577 3912 3945 3091 3234 3628 3207 2735 2268 3560 3449 3737 1891 2303 2914 2802 3399 2639 1971 3336 3917 3101 3299 2033 3031 2629 2134 2638 3390 3126 2285 1623 3594 3949 2473 2237 3877 3974 3745 1650 2092 1820 2773 1528 3554 2397 1992 2993 3769 2899 3013 2890 3016 3838 1899 1591 1771 2367 1501 3503 3156 3990 1737 3072 2642 3030 1826 2716 2879 3418 2325 2234 2881 2681 3951 3541 3554 3775 2990 3171 1755 3466 2104 1886 1876 3989 3514 2037 2055 2763 3404 3192 3692 2777 2631 1772 3503 1755 2407 2351 2132 3548 3419 3669 3915 3103 3058 1975 2212 3524 2824 2872 1621 2944 2448 1690 1718 1768 1836 3699 1845 3136 3901 3359 2991 3897 3752 3521 1585 3813 1696 2663 3640 1765 2900 3740 3068 2937 2893 3169 2600 3740 2278 2026 3393 2351 3723 2369 2061 2830 3504 3418 3141 2164 2171 1688 3228 2671 3744 1524 1713 1582 2854 2844 2675 1516 2959 2926 1791 3343 1686 1624 2010 2420 2634 2060 2068 2052 2781 3894 2309 2788 3593 3996 2739 1854 2319 2513 2095 3819 2745 3851 3131 3163 2199 1533 3591 1774 2948 2623 1966 2895 3689 2143 3568 1899 3648 2746 1613 2546 2396 2612 1644 2311 2082 3927 3147 2886 3115 2905 1793 3719 1566 1736 2037 2688 3718 3483 3908 2701 2795 3182 3690 1888 1735 1548 3624 1885 3185 1500 2036 1765 3333 1644 1657 3938 3738 2216 3278 2504 2053 3521 3259 2942 2377 2215 1619 2272 3453 2353 2368 2746 3356 1831 3234 1813 3822 3647 2447 1904 3624 3049 2942 2768 1881 3473 2102 1797 3222 2773 1616 10 17 40 41 29 48 8 61 14 18 95 72 65 50 63 35 28 21 83 7 93 64 25 98 63 99 53 30 80 80 34 94 47 7 72 59 23 94 81 8 56 9 37 24 65 47 73 65 74 24 19 16 86 77 95 52 74 62 12 53 71 0 46 92 7 24 8 40 52 13 34 46 47 47 77 25 13 61 32 7 73 74 69 84 10 19 57 28 75 84 82 83 57 99 55 35 59 21 59 23
3651 2566 2469 3825 3429 2631 3160 3908 2120 3069 3591 2028 1703 1696 2478 3583 1544 3878 3354 1946 3412 3682 2728 2092 1633 1833 2408 3082 3126 3671 2305 1680 1727 2513 1816 3899 3731 2876 2511 2086 1558 3758 3661 3391 2716 3880 2356 3948 3907 3620 2478 2198 3107 3220 2208 3673 2165 2330 3417 3485 2488 3192 3277 1614 1611 3505 2676 3100 1607 3838 3248 2235 3228 1627 3642 3290 3515 2091 2069 2295 3432 1944 3958 3795 3998 3097 3507 1907 3825 3484 2452 2958 3810 2247 1980 1655 3775 1649 3983 3933 1782 2656 2096 1765 2146 2921 1980 2907 3527 3189 1937 1669 2057 3626 1912 3143 3264 2668 1722 1927 3507 2661 2886 2828 2814 3105 2809 2562 3249 3954 3964 2695 3375 2890 3767 1915 2686 2809 1843 2052 2655 2259 2516 1846 2439 3647 1966 1654 2858 3385 1669 1726 3707 2469 2765 1683 3621 3427 2451 2692 2428 3355 1675 1907 2110 1544 2904 2642 1602 2647 3846 2366 3211 1788 2528 1695 2122 2727 1660 3593 3257 3929 2848 1562 3712 2363 1528 2351 1739 3995 2037 2330 2497 2983 2069 2012 1527 1901 3532 2453 1650 3782 2956 3872 2179 1981 3615 2377 3451 3361 3690 3859 3833 1710 3140 1938 1711 2149 2668 2340 3586 3210 2389 3617 3823 1913 3447 2724 2330 3851 2136 2171 2573 3677 3597 3394 1601 3647 3953 1530 2137 2416 2326 2405 3218 1606 1570 2236 2287 1503 2566 3892 3638 2981 3180 3739 3205 3014 3491 2456 2858 2046 3270 2949 3307 2318 3525 1685 3207 2639 2421 1862 3929 1878 2036 1687 2181 2249 2327 2263 2969 2447 3168 3770 1773 2664 1923 2262 2661 1826 3097 2512 3967 2002 2445 1961 3954 3619 3211 2811 46 56 87 16 61 39 57 90 97 43 22 96 48 92 5 12 13 98 66 86 36 26 91 49 74 71 3 33 13 61 78 52 49 37 62 60 8 78 9 76 47 7 4 94 86 58 39 44 98 66 89 49 25 10 23 25 85 25 9 1 56 46 0 81 53 71 99 65 75 34 24 86 83 82 25 10 16 43 73 73 54 61 93 73 37 35 11 90 30 2 63 32 83 43 1 90 25 7 72 50
3991 3716 2464 3025 2188 1764 2692 2056 3838 2946 2865 1702 1584 2342 2043 2021 3061 3663 2933 3642 1854 3924 3203 3133 3069 1736 1828 2560 3234 2305 3522 1513 2759 3304 2284 3819 1992 1615 3105 3427 1652 1665 1836 1730 2185 2192 3783 3130 3512 3177 2487 2232 1594 3425 3994 3383 2352 2422 2735 3449 3093 3091 2467 3031 3562 1665 3612 3561 3412 3351 1644 3508 2281 2286 1863 2708 2288 1840 2801 2399 2307 1629 3391 2209 3582 1819 2643 3460 1531 1822 2883 3144 2881 2156 2167 2342 2320 3627 2981 3794 3439 3028 3775 2367 2511 2783 2809 2903 3781 1783 3485 3103 2723 3322 1811 1561 3632 1633 2567 3122 1558 3181 2677 2821 3647 3981 3611 2095 2001 2266 2191 2366 1603 3088 2225 3607 2113 3721 2062 2078 3130 1514 2022 3303 2223 1538 2451 1871 3729 3036 2849 1796 3357 3638 1501 2301 2151 2077 2636 1614 2434 3954 1770 1989 2917 3322 2243 3266 3438 2209 3908 2150 3937 2043 2130 2405 2695 3080 2527 2699 1702 2519 2281 2687 1845 2637 2800 3902 1864 1869 1999 2848 2295 3659 3301 1643 1742 2954 2797 3586 2861 2793 2729 2463 2136 1632 1929 3027 2004 2825 1642 2335 2135 2549 1855 3490 3105 3385 3129 1747 3711 2715 1809 1809 1535 3499 2232 1809 3384 2589 3597 2565 2093 2532 2508 3810 2777 2441 3293 2449 2820 3119 1500 3897 2457 2497 2372 3399 2098 3068 2803 2541 3279 2340 2668 2608 2833 2408 3366 3319 1661 2356 1894 3581 1531 3437 1786 1569 3994 3583 3361 2575 2049 1775 3949 3230 3654 3189 3602 1811 1616 2763 1724 2769 1678 1968 3671 3552 2714 3512 1975 1668 2046 2813 2042 3519 3604 3757 3086 3759 9 9 24 47 89 13 11 60 93 74 99 16 43 49 92 69 63 31 62 29 62 84 88 60 90 9 78 9 30 32 41 87 29 58 31 99 91 72 83 68 3 78 29 9 11 74 20 24 24 82 76 41 50 40 28 30 21 40 88 83 92 92 81 0 51 65 37 17 1 80 33 18 59 59 34 21 1 63 85 17 75 43 13 53 34 6 30 99 76 96 46 81 95 68 72 3 43 91 70 38
2117 1601 2388 3815 3279 3474 3036 2567 2238 2930 3562 2346 3883 3882 3779 2837 3808 3603 3172 1883 3656 1967 3014 3542 3048 3187 2190 2560 1707 3079 3638 1619 2393 2242 2754 2112 2485 2063 3473 3525 3325 2200 2621 2134 3048 2121 2534 3676 2699 3967 3068 2655 2593 1644 2191 2951 3221 3297 3191 1582 2686 2012 3476 3612 2539 2775 3625 3657 3434 2270 2878 2275 2525 2296 2213 1746 2738 2732 3315 2833 2698 1861 2244 3376 2131 1888 2159 2771 3296 1503 3763 2990 3517 2507 3401 2887 2841 3445 1729 3861 2620 3902 3830 3227 2909 3596 2859 3389 3431 3651 1864 2687 3275 3887 3468 3395 3089 2697 2031 1592 1797 3106 3094 2243 1832 3808 2187 3940 3912 3530 3979 2032 1893 3318 2178 1946 2585 3774 2785 2313 3293 3518 3681 2425 1638 1797 3648 3943 3087 3752 3397 2782 2407 3757 2219 2829 3511 2711 3268 3493 2549 2361 3958 2651 3773 2582 1648 3898 2847 2375 1502 3907 1830 3060 2673 3894 1561 3185 3668 3447 2810 2350 3132 2362 1531 3409 3233 2455 2263 2618 3251 3350 2626 2865 1547 2696 3240 3698 3669 2155 1788 1633 1837 1709 3442 3919 1596 2207 3452 3364 2352 2295 3982 2283 1916 1940 1858 2470 2519 1899 1963 2936 2655 2102 2046 1821 1529 3133 2291 2992 2731 3704 1899 3138 1976 2516 1987 3060 3320 3192 2219 2142 2532 1572 2306 2945 3367 3153 3121 3142 3916 3920 3957 2788 2840 2854 3560 2247 3988 3445 3749 1668 2919 3488 2187 3959 2846 3396 3430 3292 1890 2596 3449 1992 3511 3562 2823 1906 3539 1614 1888 2566 3718 3281 1898 2155 3141 2374 3538 2050 2945 3747 1834 3344 3295 3822 3591 3772 2912 1525 46 84 10 47 99 55 15 76 40 58 29 3 76 38 83 5 56 43 59 90 63 80 39 84 73 78 82 15 65 39 65 17 17 88 40 77 23 47 76 20 8 90 21 36 89 19 68 60 62 10 34 49 55 40 10 22 8 10 37 61 64 7 53 51 0 26 42 22 60 20 49 21 67 75 85 10 73 67 12 32 83 1 6 14 70 43 19 47 38 59 92 38 85 13 17 34 96 64 27 31
2906 2312 3027 1535 3512 2841 1588 2019 3776 2853 1629 2674 2984 3149 2549 3460 3346 1522 3667 3645 1839 3589 2551 2106 3643 2436 2927 3432 2335 1872 2270 2414 2158 3473 2363 2465 2438 2060 3600 3262 3623 2744 2423 3694 3271 3557 2984 3036 1593 1964 1926 1697 3941 2838 2605 1559 2711 3845 2774 3353 3494 2202 3749 2649 2104 2408 2512 2685 3987 3303 3236 2594 2093 2037 2714 3638 3251 2926 2775 3894 1638 2369 2827 3197 3974 3467 3792 2304 1733 3923 3967 2776 2304 2810 1918 3771 1505 2051 3125 2181 2363 3312 3902 2168 2349 2927 2676 3310 3008 3541 1866 3829 2704 3469 2919 2415 1760 2159 3095 3248 1842 3794 2124 1790 3829 3109 2644 2965 1545 2194 3124 1827 3531 1803 2497 3061 3337 2281 3787 2879 3799 2404 2850 3503 3788 2170 3263 1634 2191 1580 2330 3779 3627 1560 2711 1680 3596 2094 3318 3124 3120 3671 2124 2207 2321 1994 3685 3641 2498 1853 2353 1653 3222 3772 1683 1564 2330 1860 3990 3998 2127 2442 2981 3090 3902 3891 3474 2555 2501 2925 3833 3054 3848 3674 3975 2178 3159 3850 3764 2388 2811 2170 1995 2287 2391 1815 3448 3342 1838 1707 2420 2042 3340 3662 2881 3311 2171 3216 2445 3205 2363 1526 2744 3706 2528 2199 2983 3182 1799 1586 3724 3244 2970 3337 2423 2792 3991 3648 2390 3250 1824 2846 3505 3804 1812 1786 3636 3224 2569 3789 2908 3498 2399 2178 2513 3114 2734 3164 3576 3138 1842 1569 1787 1924 2180 1535 3557 1600 2571 1563 2013 1893 2189 1607 1837 3817 2242 3008 3978 2552 3384 3791 1634 2374 2475 3229 3694 3657 3098 1942 2713 3067 2698 2465 3492 3764 2816 2652 3519 3644 43 84 61 87 28 62 54 16 2 37 80 34 23 58 86 35 63 28 51 45 28 74 54 26 67 77 28 79 85 25 44 71 47 15 37 99 80 84 29 5 7 23 85 75 66 42 88 31 10 10 62 34 58 26 54 48 62 18 62 52 77 24 71 65 26 0 22 88 96 6 55 55 54 98 16 70 14 6 30 35 78 31 87 13 31 59 76 71 4 29 3 19 17 52 62 86 99 66 13 88
1853 1985 3098 1815 2355 3802 1886 3880 2541 2388 2444 1904 3092 1957 2128 2932 3297 3130 1717 1888 2378 3287 2841 2862 3331 2882 1861 2751 3314 3351 1939 3608 1866 3590 3718 2467 1758 2078 2027 3457 3678 3121 1587 3608 2778 3636 2732 1868 3273 2855 2698 2626 1929 3742 2715 2054 1941 3955 2367 1634 1575 2243 1879 3850 2302 3990 2541 1656 3495 3882 1597 3762 2443 1660 3138 2042 2979 3188 3137 2511 1981 3324 3993 3756 2640 2802 3795 2083 1729 1698 2305 2786 3800 1840 1882 3302 2283 1974 3285 3002 3988 3079 1599 3052 1557 2916 1589 2511 3305 3026 3437 3943 3998 3918 1510 2347 2093 3354 2268 3855 1784 3970 1768 2084 2712 3528 2117 1525 2488 1550 3133 3521 1621 1949 3999 1605 1663 1646 3255 3150 1721 3272 2724 3391 3022 3984 2491 1774 3177 3512 3354 2289 2522 1623 3119 1847 2785 1689 2665 2073 2575 2801 2759 3662 1759 2794 3453 1627 2617 2885 3780 2563 3048 2043 2582 3682 2977 2408 1960 3417 1933 2579 2116 2817 1716 3210 1966 3746 3960 3642 2943 3668 3162 2077 3522 3723 2381 2470 3855 3472 1673 2399 3829 1890 2487 3925 3236 2947 2835 3619 1901 1659 2384 3678 1630 2174 1507 3707 3912 1688 3607 2570 1958 1719 3240 2497 1506 3146 1525 2993 2116 2195 3973 2959 1673 2314 2315 2849 2964 1877 2350 3666 2280 1821 3353 2145 1556 2054 3559 1656 2253 1540 2041 3442 2194 2530 3576 2101 2541 1959 2104 2925 1813 3732 1539 2616 3675 2437 1887 3491 2755 3886 2879 2621 3649 2601 2770 2257 3530 3420 2128 3683 2189 3068 2652 2807 2758 3787 1768 2340 1925 1913 2915 2734 1867 2521 2174 3320 2552 2808 30 4 99 36 43 60 64 85 78 6 21 14 51 8 15 98 86 27 41 82 99 10 14 60 81 9 90 92 4 80 88 78 92 45 68 46 57 27 51 94 38 37 28 71 31 71 34 61 44 51 86 51 68 70 10 66 74 48 51 6 98 8 99 37 42 22 0 99 50 67 23 80 93 93 52 89 9 82 94 18 87 56 71 53 72 78 59 10 71 7 7 83 25 34 67 12 10 46 64 32
1762 2455 3160 1779 2098 2716 3357 3730 2662 1833 3150 1839 1652 2783 3516 3827 2036 2536 2369 3096 3566 3675 1872 1589 3911 2685 2230 3563 3275 1749 2954 2982 3992 2770 3092 3464 1719 2441 2168 2922 2963 2443 1883 1800 1999 1570 1915 2228 2196 3967 3900 2813 2210 2087 3620 3626 3447 2935 3382 2675 3997 1968 2237 3046 2741 2614 2191 3841 1672 3022 2436 1668 3758 2425 1976 3250 3702 3914 3681 1726 3783 2883 2570 2184 3358 1754 3500 2765 2213 3594 3579 3516 1516 2006 3874 2820 1625 3585 3868 3955 2479 3540 2436 2174 3833 2899 1922 2953 1647 3993 3297 3879 3500 3630 2653 2003 2275 2183 1501 3474 3932 3858 2698 1591 2362 2575 1609 3701 3830 3554 1632 2245 2097 2954 2627 2061 2770 3579 3893 3246 2866 2171 3404 2692 3410 2119 2685 3730 2081 1848 3896 1514 2053 2219 2317 3368 3843 2014 1501 1898 3725 2553 1901 3654 3426 2067 2332 1864 2771 2953 3268 1726 3645 2694 3543 2960 2639 1986 1834 2706 3501 3201 2664 1572 3794 3975 2688 2672 3296 3049 3532 3226 2294 3334 2353 2950 3002 2623 2442 2595 2034 3756 3761 3143 3560 3937 3243 2737 3959 2029 2203 3408 3089 3393 2239 3841 1741 2235 2862 2469 1768 3989 2648 3341 2158 3340 3845 3589 2103 3942 2950 3168 3481 2230 2141 1879 2527 2629 3858 1946 3200 1771 2598 1824 1782 2327 3012 3535 3395 2727 2726 2445 2690 3041 3062 2846 2254 3583 3438 1956 3707 1756 2684 1686 3705 2909 2726 3369 3507 3746 3845 2147 2122 2004 1550 3451 3269 3662 2512 3762 3356 2319 2373 3126 2171 3279 3925 2645 2319 3332 3061 2138 2728 3060 1946 2260 2525 1834 2139 3989 25 75 77 64 53 77 14 11 94 89 71 89 29 99 56 40 35 48 79 8 72 12 43 74 88 49 40 36 16 55 59 77 20 92 2 55 37 5 38 97 32 3 30 52 30 38 28 71 33 9 1 24 27 81 7 61 68 53 66 99 62 40 65 17 22 88 99 0 8 87 46 77 45 99 15 61 48 33 88 39 60 15 34 97 82 16 50 3 51 9 22 46 90 50 49 58 16 68 86 36
3175 3862 3450 2331 3138 3756 3653 1857 2407 2047 2374 1941 2425 2283 3420 3605 2400 2833 3592 2122 2515 3528 3555 1668 3186 3084 2840 2590 1702 2653 2220 2275 2510 3354 3803 3156 1680 1813 2208 3220 2981 2729 2543 3020 3352 3856 3061 3161 3328 3056 3344 2153 2896 2711 2404 1829 1815 3820 3462 2363 3924 3043 1836 1588 3981 3695 1848 2572 3511 2325 2948 2518 2777 2726 1909 3095 2614 2383 2901 2570 3467 3717 3908 1700 2364 3127 3702 3218 2831 3889 2309 3938 2153 2461 2805 3368 3676 2914 1743 3758 2200 2707 1893 2480 3204 3299 1668 2537 2694 2462 2867 1549 1610 3654 3638 2340 2549 1900 3408 2102 1608 3829 3695 3017 1564 1733 2294 3450 3923 1561 2556 2418 1728 1799 3649 3116 3273 1844 2242 2854 3310 2444 1871 2200 2524 1612 2037 3165 3147 3525 1506 3751 2098 3874 1658 1511 2727 1613 2263 3520 2315 2440 1745 3023 2500 3727 3983 3626 3319 1536 3512 3227 2286 2272 2361 3402 2352 1592 3783 3707 3471 3009 3094 3900 3143 2333 3320 1664 2955 2603 1520 3612 2831 3532 3854 3485 2241 1830 2387 1529 1939 2978 3060 2218 1849 2786 1522 3224 3104 1537 3395 3770 2838 3461 1848 2860 2230 2413 2008 3860 2087 1520 2447 2662 2052 2770 1564 2534 3809 2848 2696 1605 2151 2221 2171 1534 1817 3277 1827 2913 1642 3209 1751 2539 1545 1582 2751 3900 1621 1538 2394 1759 1747 1766 1897 3296 3792 2931 2333 3661 2925 2737 1696 3927 1966 3997 2843 3932 1514 2971 3447 2348 3357 2808 3575 2190 3260 2328 1892 1738 2135 3324 3850 2864 1502 2657 2245 1663 2773 3393 2146 2470 3497 1679 1783 2476 3258 2912 1570 3300 34 5 92 92 62 76 56 20 10 3 97 90 89 22 10 15 44 90 80 29 24 36 94 27 87 41 91 67 19 14 6 48 22 28 21 25 74 58 72 20 18 57 70 14 57 69 87 21 97 27 84 9 65 43 68 22 84 58 36 25 60 52 75 1 60 96 50 8 0 32 12 80 16 62 79 92 69 44 13 40 29 44 87 37 66 64 45 84 14 49 7 38 23 16 8 56 27 84 15 63
1618 1838 3150 1903 2121 3478 3475 2647 3090 1603 1741 2167 3227 2087 3675 3506 3207 3566 2898 3407 3857 2812 3214 3591 1829 3922 2171 1832 1661 3803 3943 3075 2071 2113 2813 3255 1620 2918 1606 1744 2921 3130 3149 3908 2179 3397 2991 2966 2889 3335 3184 2270 3580 3765 1819 1735 2924 3278 1695 3556 3618 1633 1608 1943 3062 3350 2421 3606 1919 2018 2158 1615 2779 3852 2909 3722 3239 3793 3367 3435 1531 2969 2291 1744 2157 2150 3005 3254 2366 2675 3289 3310 2043 3545 1573 3538 3579 2243 2165 3721 3986 2834 3085 2938 3215 1533 1528 2003 3783 2031 3734 3193 3805 3947 2981 3107 2567 1866 2459 2331 3008 2973 1566 3944 3626 3373 3635 3124 2201 2037 3492 1765 3184 1571 2464 2049 2170 3730 3386 2888 1640 2936 3209 3688 3319 3650 2175 1674 2028 3493 2649 1665 3713 1561 1728 1998 2209 2073 2162 2388 2256 1780 2864 3485 3712 1731 2244 2786 3147 2566 2023 3066 2184 3828 3755 1989 2487 2685 2122 1998 2505 3904 1918 2701 2650 3719 1641 2168 1679 1577 2021 2847 3095 3860 2360 2117 3170 2501 3116 1588 2931 1672 3596 3436 3919 3220 2772 1643 2000 3536 1914 3044 2036 2093 3682 2869 1850 3662 2592 3371 2731 1576 1631 2680 3268 2897 2244 1711 3623 2988 3276 3023 2776 3179 3098 1748 3102 2910 2565 3916 3239 2107 1551 2403 2525 1678 2650 1618 3632 2195 2511 3651 2570 2759 1992 2034 2306 1779 2617 2814 3947 2630 2549 3560 3205 3542 3306 1767 2860 1634 1572 3166 3936 2592 3210 3537 3853 1962 3589 3884 2541 3577 3422 3968 3940 3095 2679 2337 3874 1562 2999 1517 2914 3244 3931 3642 1643 1865 3456 2994 98 99 42 12 92 92 83 28 95 6 29 49 35 54 41 91 92 71 74 56 49 68 52 5 21 1 55 2 87 72 92 88 27 88 37 93 97 81 36 78 66 35 18 55 87 64 54 94 74 4 19 51 80 63 22 54 91 97 57 2 30 13 34 80 20 6 67 87 32 0 36 13 40 48 25 81 63 30 25 37 70 24 7 28 81 16 53 98 10 46 59 56 59 87 91 50 65 71 97 81
3286 1906 2174 2618 3838 3511 2627 1599 3848 3311 2712 2912 2757 2518 3022 3673 2762 1769 3273 3832 3788 2107 2505 2912 1800 2150 2151 3582 1712 3096 2454 2555 3431 2121 1596 3817 2260 2033 2333 1508 1833 2971 3391 3288 3270 2772 3597 3374 3253 1817 3926 2132 1702 2228 2350 1578 1514 3914 3440 1729 1780 2125 1774 2004 2159 3610 2171 3841 2704 2824 2789 2392 2160 2610 3314 2273 3993 3799 3031 3333 2785 2725 2529 1908 2020 3975 1631 1968 3605 1845 3217 1868 1958 2900 3435 3516 3152 2705 2660 1625 1659 3307 3336 2843 2722 3420 3443 3920 3102 2075 2417 1678 3164 2513 3402 3062 2995 2760 2961 2077 3146 3295 3682 3449 1645 1512 3309 2740 3807 2068 3912 2943 3292 3750 3877 3540 2854 2618 1503 2211 3553 2972 3788 3214 2702 3926 1874 2124 2564 1658 3228 2595 3996 3929 3571 3041 2899 3987 3183 2344 1809 1854 1560 1625 2444 1717 2950 2869 3992 3542 2660 3439 1645 2416 1565 2132 2312 2219 3710 3185 2017 3923 3796 3480 2547 2747 3097 2027 2527 1602 2184 2795 2418 3383 3789 1925 3438 2534 3589 2730 3695 3005 2092 2092 2042 3641 2452 2405 3490 3990 1709 2009 3473 1568 3465 2888 2321 1721 3779 2411 3214 2423 1844 2654 2398 2045 1983 2240 3441 3244 2332 3081 2562 3795 3600 3646 1756 2034 3976 3321 3151 1684 2674 3957 2222 3180 1708 2793 2095 3405 2472 2643 2691 3263 3688 2135 3046 3304 3464 2115 3029 3769 3141 2572 2405 3271 2227 2922 1552 3202 3353 3286 2594 2444 1873 3635 2122 1571 1777 2459 2862 1717 3383 3931 3955 2262 2368 1809 2860 2914 3032 2487 2001 3610 2341 3363 2219 3942 3014 2458 6 80 73 28 57 81 21 72 28 66 25 54 60 75 65 91 5 27 63 69 58 59 3 42 42 36 76 83 15 23 19 73 59 42 96 77 83 38 15 36 78 12 69 18 17 51 50 63 30 69 91 27 4 73 40 79 24 86 8 69 5 34 24 33 49 55 23 46 12 36 0 82 9 23 3 53 60 17 19 54 93 34 19 86 8 44 20 34 57 79 79 9 91 38 99 26 65 16 47 5
3552 2520 1711 2384 1712 3322 3912 3418 1596 3047 1765 3951 2581 2454 2381 2459 2875 1796 2246 3475 2178 3972 2766 2460 3586 3482 2272 2255 3421 3976 2243 2002 2952 2830 3119 3001 1898 2521 1844 3713 2267 2702 1874 2624 3018 1710 3864 2175 1517 3392 2917 1657 1776 3604 2605 3068 3529 1876 3224 1580 1850 3644 1647 2029 3108 3923 3783 1819 1976 3844 3878 3079 2893 2338 3246 2415 1712 2731 3991 3252 3281 2341 2920 1985 3001 3626 2780 1627 1812 3010 1851 1539 3212 2316 3745 1682 2877 2216 3563 3277 2107 1761 3120 2531 3194 3229 3881 3634 2161 2581 3305 2818 3564 3624 1946 2131 3183 2478 2167 3987 2234 2938 3850 2842 2320 2417 3325 1764 2424 2967 3498 2158 1591 3604 2539 1790 3776 2082 3906 3288 2766 1680 1546 1741 3509 3477 3406 1573 1618 2596 3107 3880 1743 2577 3035 2762 2473 3541 3120 2538 3788 3869 1876 2144 1928 3062 3148 3509 3898 3736 3001 3748 3014 2129 3182 2928 3519 3313 2242 3271 3906 2530 3056 3441 3380 1944 3234 3368 1940 2325 3376 2791 2064 1871 2606 2470 2445 2238 3439 3339 2628 3732 3513 2598 3844 1696 3867 3760 1711 2541 2652 3343 1993 1763 2765 2990 3293 3907 3412 3180 1534 3999 1668 1626 2715 2177 1906 3254 3091 3984 1531 3811 3507 3963 3863 2290 2516 3655 2766 2739 1575 1631 2799 3906 3267 1725 3242 3230 2807 3325 3894 2943 2078 2545 3754 2560 2833 3071 2793 3900 2886 2300 3927 3588 3643 2179 2558 2117 2285 2289 3905 3338 3934 2075 1546 2247 2388 2752 1701 2168 1989 2420 2852 2528 2028 2768 1840 1793 1504 1678 2739 2337 2720 1753 3138 3677 3916 1626 3297 3045 1 77 46 24 92 65 76 83 22 76 37 18 53 82 53 55 92 39 97 66 39 62 72 59 84 91 7 16 72 52 74 63 56 93 22 74 11 81 22 16 35 52 86 76 36 34 60 95 67 54 14 90 97 39 43 59 82 47 90 67 42 46 86 18 21 55 80 77 80 13 82 0 37 56 90 11 39 41 83 60 47 66 2 84 90 74 53 3 28 80 47 70 48 86 33 47 24 56 40 82
1917 3630 2530 3196 3212 2307 2232 3683 3117 1952 2642 3349 1742 3542 2792 2896 1524 2584 3230 2347 1769 2723 1664 2657 3306 3787 2238 1700 3112 1659 3493 3689 1639 3121 3387 2571 3521 2100 2774 3768 3200 2301 2811 1947 1555 3251 1945 3597 1631 1882 3330 1573 3411 1875 3970 2402 1587 2066 3869 2228 1576 3928 1995 3614 2719 3660 1829 2172 3784 2440 3214 3131 2508 3341 3050 3036 1880 3423 1715 2775 3513 3822 1898 2832 2516 2176 1901 1705 3560 2551 1696 3454 1603 2595 2195 2014 3575 2373 3801 2189 3645 2101 3034 2841 3377 3576 3455 3598 2168 3368 3655 2703 1984 1733 2412 3648 3933 2724 2551 3973 2411 1603 1753 2902 2496 3607 3288 1883 2864 2864 1740 3896 3803 1754 3983 3991 2665 3324 3388 3337 2059 3808 2933 3106 2546 3007 3753 3788 1922 2684 2102 2559 2047 1614 1754 1647 2968 3289 1795 2118 2172 1622 3865 2937 3850 1806 2779 3317 2151 3390 1656 1744 2500 2056 3083 2723 3152 2590 1505 3795 1580 1504 3332 3845 1845 3300 1590 3984 3782 2016 2731 3120 1830 1933 3576 3017 3290 2642 3983 3303 2456 2461 2853 2285 2690 1840 3648 2650 1992 1747 3016 1828 2871 2117 3969 2221 3472 1809 3240 3103 1776 1761 2310 3569 2143 2372 3932 1530 1635 2749 1705 2118 1548 3616 1937 2234 2653 2137 1996 1770 2222 2011 2611 1801 2449 3723 2144 1750 3739 2739 1579 3942 2950 2197 3023 1615 3855 3082 2078 3620 2323 1530 1874 3319 3606 2450 2243 1709 3237 2796 1589 2385 2891 3297 2478 3555 3302 3716 2051 3567 2498 1507 2350 2787 3747 1573 1719 2320 1807 3657 2809 2116 3993 3373 1748 3786 3527 2307 2495 1781 45 62 79 14 97 96 86 96 50 86 4 81 51 88 30 20 51 21 3 9 36 69 72 82 21 19 78 87 52 95 88 11 90 64 49 51 50 75 92 23 51 93 91 85 61 97 90 5 90 40 8 75 91 92 11 90 76 94 16 88 43 47 83 59 67 54 93 45 16 40 9 37 0 15 20 46 61 45 61 64 29 80 96 31 99 64 46 43 21 39 60 80 28 39 61 65 90 33 63 94
3200 1520 2954 1529 2623 2078 1589 3765 2032 2180 2506 3267 2716 3391 3451 3452 1857 3838 2232 2744 2744 3058 2626 3664 3173 2854 3217 3518 2088 3492 2942 3321 1508 2467 3824 2820 3901 1904 2777 1621 1759 2842 2611 3912 1660 1587 1809 3696 3698 2849 3903 3487 3618 2016 1782 2716 3012 3294 2008 2547 3405 3296 3437 3062 1871 2526 2969 1510 2992 2319 3572 3424 1698 2594 2090 2873 1901 3441 2676 1935 3088 2143 2710 2126 3210 3184 1624 3145 1847 3909 3315 2104 3947 3485 2466 2392 3070 3475 1742 1798 2719 3005 1676 2205 2322 2580 2961 1692 2606 2188 3940 3811 2537 2983 2050 2404 3372 2844 1794 3562 3760 3824 3195 2804 2072 3117 2314 3912 2708 3200 1645 2565 1591 3033 3575 3442 1978 1683 3557 1990 3651 2935 3413 3138 2692 2674 2561 2593 3667 3019 3102 3536 2514 3818 3568 1519 2627 2530 3622 1669 2878 2610 2193 3569 2479 3391 3126 2955 2236 1771 3398 1698 2738 3763 2451 2220 3078 3189 3831 3448 1856 2528 1540 3622 2066 2288 1896 2842 2676 2954 2145 2186 2693 1503 1795 2201 2168 3428 2989 3997 2677 2322 1681 3566 3933 3959 3425 3131 3818 1897 3530 1568 3007 2437 2932 2052 2807 1890 2062 3037 3149 2862 3632 2096 1768 3745 1914 3802 3262 1539 3976 2688 3392 3032 3776 1535 1592 1566 3637 1828 1658 3033 1537 2312 2591 3023 2311 1883 1990 2368 1669 3425 1673 1554 2613 3892 3528 3429 3870 2442 3333 2129 2335 3734 2756 3990 2925 1916 1608 3526 2635 2984 2527 2334 2354 3249 1902 2834 3604 3560 3110 2424 3549 2707 3370 3864 3591 3249 1949 1572 3915 2030 2252 2745 2348 2702 3904 1722 2314 3350 12 80 89 76 4 11 5 73 48 92 45 2 73 54 79 76 91 85 7 32 90 18 40 93 70 59 6 61 90 36 1 81 92 3 34 99 30 80 96 41 76 79 55 90 93 76 75 30 1 56 84 39 89 53 64 43 57 37 23 46 49 47 82 59 75 98 93 99 62 48 23 56 15 0 78 38 97 77 98 52 48 7 36 72 81 55 33 23 89 30 64 51 26 24 29 7 68 88 53 90
2488 3555 3790 2599 2418 3781 1982 3053 2974 1893 3169 2547 2277 2241 3206 3110 3458 3904 1772 3499 2619 2299 3758 3299 3582 2773 3232 3745 3985 2927 1631 1665 2534 1983 3318 3753 3070 3961 1722 2226 2382 3120 3351 2726 3451 2536 2170 3371 3908 3014 2700 2482 1970 2658 3472 2506 2633 2899 3263 1652 1967 3937 3017 3036 2647 3281 2602 2443 1628 3111 2840 2007 2118 3273 1711 2626 2137 2514 2983 3522 2244 2018 1789 1863 2783 2621 2096 2392 2074 3853 2819 3300 3372 3335 2992 2243 3749 2604 1562 2864 1946 2379 3876 2265 2650 1925 2479 1615 2873 2352 2100 2493 3390 3088 2070 2729 3833 3144 1703 3176 2044 3557 3694 2115 1856 2392 2554 1864 2074 2831 3957 3896 2461 3392 3010 1710 2389 3058 2533 2369 3304 1641 3518 2837 3435 1531 2972 2452 3391 1507 3617 1511 3913 3445 2781 3069 2222 2691 1682 2657 3108 2038 2287 3924 3249 1655 3300 2426 3729 1762 2053 3613 2245 1907 3661 3028 3234 3600 2839 3930 2787 2856 1722 1586 2864 2402 3392 1853 2999 1622 2931 3178 2101 2116 1687 3479 2233 2347 1663 3976 2822 3310 2414 2423 3720 1776 3497 3409 2457 3700 1502 1793 2803 2583 1822 3357 3388 2584 2501 2706 1764 2050 1626 1645 1764 3186 2188 2038 3425 2649 3524 3588 2556 2176 3428 3490 1570 2322 3992 3772 2941 3878 3513 2358 1506 1564 2420 1848 2770 2411 2171 3670 1641 3652 3520 2616 1977 2618 3282 3623 2022 2109 3486 2301 3201 2212 2361 3392 2626 2782 2051 3885 3905 2239 2080 2681 2651 3472 3568 1759 2708 3031 3693 2042 2882 1787 1513 3019 1651 1729 2618 2642 1721 2880 3738 3222 2083 3283 2073 2811 64 65 40 29 36 80 25 79 48 79 53 40 75 62 97 11 33 31 21 16 68 15 62 41 98 66 23 97 37 31 74 36 51 68 28 43 39 91 32 38 99 10 50 44 77 57 43 55 46 71 63 97 76 62 25 83 14 46 41 3 14 77 25 34 85 16 52 15 79 25 3 90 20 78 0 68 64 27 21 43 17 83 87 39 97 79 33 42 39 28 10 83 45 89 26 7 78 97 84 73
3733 3448 3339 3824 2890 3753 3532 2482 3247 2673 3159 3308 3229 2656 1643 2864 3338 3453 2501 1912 1886 3464 3660 3229 2428 2853 3160 3116 3009 2597 3418 2209 3567 2908 3946 1674 3245 2019 2038 1907 3776 1576 2709 2244 3643 3357 1601 1717 2254 3072 2090 3384 2952 1510 3312 2495 3551 1692 2455 3989 3708 3360 1954 3004 2740 3824 3659 2748 1706 2550 3994 3060 3763 2120 1927 1733 3594 2075 1839 2141 1586 3850 2676 3598 1867 1758 2453 3358 2471 1539 3661 2477 2652 1824 3120 2404 2326 2934 2570 3521 3588 1796 3924 3039 3100 2709 3873 3887 1969 3044 3692 3851 1863 1813 2381 1772 3234 1938 3049 2886 3126 3470 3883 3842 2234 3138 2780 3117 2319 2265 2461 3289 1844 3708 3613 1669 2302 3574 2799 2682 2101 2556 2524 2700 3862 2744 3161 2758 3521 2382 3151 1754 2120 3365 2797 3872 3725 1851 2304 3593 2247 3422 3445 3468 2911 2212 1552 3518 3495 2258 2557 2220 1708 3498 2092 3375 2838 2855 3257 2755 3295 2192 3236 3224 3414 3862 3145 2591 3973 2664 1646 2178 2966 3004 3610 2182 2504 2871 3898 2347 1503 2268 3865 2508 3206 3713 3804 2922 2833 2066 2708 2780 3591 1617 1822 1656 2268 2584 3806 3019 3622 2494 2127 2685 3780 3356 2561 2299 3487 1555 2149 2894 2098 2799 1695 2804 2529 3195 2664 2737 3599 3160 3363 2852 2562 2447 3588 3291 2189 3584 2516 2851 2347 3280 2453 2921 3965 2775 3830 2531 1884 2695 3210 3868 2930 3301 1735 3207 3626 3857 3107 1738 3923 2042 1777 2768 2781 3671 2057 3292 1813 2248 2234 3680 3443 3016 2785 2690 2004 2330 2268 3067 1764 3914 3711 3578 3771 2446 2788 2813 14 51 52 18 94 68 31 54 82 76 61 91 99 6 83 37 70 91 43 38 25 36 17 78 34 75 6 97 60 73 23 34 37 14 29 39 52 65 67 72 50 27 62 30 35 78 12 39 33 89 78 35 25 26 29 66 48 21 83 95 41 25 10 21 10 70 89 61 92 81 53 11 46 38 68 0 61 56 92 63 16 24 73 60 90 65 19 60 11 47 54 59 68 20 92 78 72 24 49 13
3775 2478 2295 3631 3776 1883 1702 3959 3866 3081 3200 3764 1596 1892 3632 1917 3795 1616 3871 2283 3109 1745 2914 2693 3080 2934 1664 3412 3199 2343 3773 2572 3623 2159 3447 2862 3442 3155 2810 2310 3034 3450 2681 3749 1861 1629 3702 3078 2460 3887 3017 1756 3026 2480 3171 3684 3304 3036 2452 1790 2704 3253 1622 3918 2744 3961 2523 3159 3282 3840 2368 3482 2719 1619 3139 3781 2911 2286 1922 1576 3347 3250 3457 2578 2086 1813 2117 1968 3604 2234 1765 3161 3167 1813 3421 2332 2872 2285 2163 2669 3562 1623 2737 2908 2312 2386 3162 2688 3052 2295 1683 3261 1819 2516 3535 3253 2955 1667 2381 2525 2987 2123 1940 3590 3567 3028 2496 2737 3579 1526 3700 2841 1872 2558 3690 3866 2537 3333 2539 3354 1783 2709 3906 2476 2180 3771 3907 1550 1739 2966 3567 2067 2187 2132 1966 1552 2262 2171 3888 3419 2271 1656 3434 3826 3247 2853 3047 2751 2138 1930 3075 3752 2444 1683 3102 2443 3826 3515 3020 3841 1534 2050 3912 1758 2928 3889 2191 3397 2100 1927 2583 2552 2428 2147 2261 2514 1815 3262 1915 3791 2035 2926 3453 3946 3433 1691 2687 1787 2159 3278 2609 3290 1678 2124 2250 2422 3412 3358 3954 3081 2040 2708 3686 2209 2262 1615 3066 3371 1993 3763 3904 2467 3850 3195 2880 3491 2346 3074 2519 3966 2563 3277 2449 3976 3552 2812 2606 3238 1890 1638 2184 1931 1781 3940 2489 3782 2910 3445 3987 1697 2718 3804 2461 3277 2471 2506 2743 3181 3934 3707 3509 1927 2921 3414 2965 3336 3193 1551 3023 3194 1770 3148 1925 2855 2090 3866 3502 2135 1601 1761 1758 3505 3143 1777 3271 3531 2316 2248 2894 3690 80 73 22 31 80 12 52 32 12 88 54 21 88 12 95 8 63 85 72 76 9 12 9 58 33 1 12 56 60 26 75 41 73 89 74 68 34 42 2 10 96 79 66 74 47 20 63 72 33 73 90 36 41 14 89 37 32 41 65 43 4 13 16 1 73 14 9 48 69 63 60 39 61 97 64 61 0 60 39 46 21 96 6 50 72 82 24 60 11 33 38 14 36 93 21 73 25 2 49 32
2943 1607 3488 2098 1864 1944 2341 3809 2761 1559 3550 3941 2902 3977 2821 2524 2554 3859 2381 2478 2341 1749 3748 2346 2167 1505 1711 2010 1504 2384 3049 3687 2441 2960 3568 3245 3724 3199 3223 2871 1921 3653 2035 1910 3064 1964 2420 2716 3033 3113 2587 2393 2517 1707 2323 1943 2723 3296 2763 2795 3864 1586 3042 3876 2939 3869 3634 1929 2902 2415 2401 3930 2594 1666 3359 2880 2142 3649 3615 1957 2666 2728 3210 3172 2225 1702 2004 2252 2200 3092 3365 3148 3296 2631 3042 3909 2013 1666 2467 3364 1756 2442 2206 3624 3909 2105 3486 3620 3048 2978 2797 2186 2177 2128 2491 2466 1979 2567 1521 2704 2423 1760 2657 3351 1767 2117 3674 1978 3856 2762 2798 1767 3786 3904 2396 2835 2481 3043 3877 2043 3660 2144 3760 2018 3204 2358 2554 2754 3330 3486 1664 2104 3489 2133 2296 1732 2997 3195 1667 2556 2711 1806 3439 1819 3683 2974 2328 3043 2134 3837 2420 2389 3680 2625 1555 2097 2490 2303 2630 1827 2770 2734 3704 2145 1890 3567 2852 1538 2668 1735 3668 2645 3713 1647 3500 3103 2877 3534 2747 1881 2355 3151 2132 2082 2597 1501 3372 3619 1654 2989 1814 2813 2146 2510 3405 3700 2731 2044 3193 2324 3150 3016 3124 3720 2772 2963 2512 3010 3764 1650 2467 2585 3380 3150 3900 3997 1708 3003 1760 2942 3301 3640 3749 2355 1814 2753 1543 2500 3827 2003 2276 1660 3653 1540 2127 2317 2908 3555 3820 2321 2706 3480 3817 3883 1583 3345 3559 3754 2435 2238 2528 3102 2324 2042 1632 1872 1995 3806 3175 3813 2663 2421 2422 3097 2047 3718 1704 3302 2088 2908 2631 1683 3280 3386 1502 3611 3215 2300 3148 3398 40 76 41 71 5 25 99 54 57 92 55 78 72 36 78 91 12 76 90 87 10 51 86 33 14 12 81 92 92 29 33 11 99 15 57 41 72 83 88 48 34 15 19 52 23 68 84 49 85 1 25 28 44 2 45 16 12 80 28 89 18 61 43 63 67 6 82 33 44 30 17 41 45 77 27 56 60 0 63 60 48 73 64 47 82 18 70 15 45 84 15 84 89 26 8 85 85 49 85 65
2903 2666 3138 1995 3569 2150 2640 3889 2504 3151 2642 1620 1875 2568 3807 2486 2143 3910 1821 3706 1849 3650 2005 3156 3417 2997 3095 3175 1776 1691 1906 1550 2016 1913 2825 2981 3073 1545 2890 2881 2777 1693 3397 2119 2778 3915 1652 2813 2662 3209 3036 3999 2390 3399 2027 3225 2444 2127 2523 2189 2982 2342 2855 2079 1883 1564 3350 3764 2899 3127 2550 2189 1840 2554 3868 3679 2655 1579 2222 1628 1927 2499 3572 3041 1643 2138 3533 2555 2212 2351 1525 2842 2829 3674 2862 2135 1594 2124 2461 3231 1859 2529 1936 2950 2293 3831 1665 3245 3891 3043 3060 2754 2031 1957 1703 2007 3019 1829 2795 2538 1728 3945 2277 3068 2491 1501 3686 2727 2885 1796 2599 2177 3415 2958 3060 3297 2402 2669 3850 2153 3405 2602 2365 1674 1749 2464 2743 1554 3200 3948 3235 3511 3081 1732 2691 2976 3497 3776 3150 2391 3291 1894 1791 2832 3600 2944 3013 2283 2756 3933 3326 3679 3429 3571 1870 3747 1768 1578 3756 3640 3747 1891 3499 1841 3744 3463 1963 2442 3348 2863 2323 3788 2610 2057 3681 3334 3027 2393 3756 1771 2194 3953 3889 2615 3087 1927 1543 2054 2245 3627 3766 3393 1829 3878 1978 3575 2814 2443 2705 2947 1885 2058 1943 1607 2452 3796 1910 1639 3456 3343 3369 2077 2917 2462 3640 2240 2493 3496 1676 1758 2429 3495 2472 3483 2214 3485 3358 3263 2327 3518 2486 1858 3269 3312 3962 2549 1901 3899 3068 2028 3852 2927 2199 3331 3375 1577 2530 2436 2029 3191 2731 2302 2263 3528 2289 2201 2665 2705 3487 2797 2156 3628 2902 1698 3244 3249 3928 3129 3884 1989 3706 1902 3184 2057 2069 2111 1573 2492 1816 2637 57 6 76 99 50 45 74 17 25 73 35 35 11 73 86 99 74 41 3 2 11 81 33 54 47 6 59 23 91 19 84 16 6 75 96 88 21 76 60 47 74 47 65 41 3 48 85 8 84 15 26 34 44 60 96 92 12 72 93 11 38 32 73 85 12 30 94 88 13 25 19 83 61 98 21 92 39 63 0 36 4 19 86 32 25 79 67 98 54 19 54 92 5 25 27 15 87 47 70 60
3276 3253 2971 2176 2544 1628 3166 3201 3566 1822 3634 1961 2792 1554 1846 2640 2188 1699 3219 3205 2763 3352 2035 2299 2193 1903 2019 3702 3112 3988 2951 3073 3564 3757 3280 3758 3771 2121 3520 2828 2479 3131 3200 1934 2694 1873 3138 2990 3761 3451 2895 1960 1731 2766 3750 3594 2083 1591 3003 2549 3206 1863 2464 2423 1546 2001 3627 2652 3944 2909 2395 2351 2126 1742 2322 2701 3765 2672 2425 3748 2534 2860 3394 1931 2273 1746 2627 1615 2445 2838 2962 3456 2963 2509 3831 3745 2542 2155 3157 1686 3461 1754 2277 3642 2136 2748 2397 3848 2042 2450 2524 3695 3470 1866 3707 1998 1599 2879 2383 1896 2723 2070 2627 3984 1543 2604 3826 3465 3267 2980 1963 2088 3341 1641 2263 3701 3330 2385 2255 1658 3745 2916 3433 3226 3269 3424 3203 2151 3400 1804 2268 3001 3057 3066 3529 3073 3963 2195 2201 2599 3962 1772 1638 2888 2440 3946 1688 3501 3680 3791 3124 2723 3515 3291 3741 3631 3534 1624 2055 3644 3633 2962 2507 2123 2793 2172 3468 2721 2577 2952 3128 1874 2718 1702 1792 2727 2225 3504 1652 1847 3755 3573 3990 3856 2457 1649 3539 1851 3033 3412 3489 1984 3576 3652 1632 2248 3752 2700 3202 1733 2077 1915 3908 2994 1823 2030 2075 3337 3690 2525 3619 3606 3361 2938 3372 2418 1529 3395 3870 2176 1774 2991 3522 2170 3290 3460 3850 2179 2765 2038 2713 2612 1604 1565 2636 3432 3023 3432 3954 2048 2005 2994 3277 2169 2097 2292 3451 2705 3687 3659 2574 3050 3065 2665 3239 3808 2308 3430 1697 2988 1893 2632 3970 2092 1660 2302 3860 3088 2783 3669 2622 2042 3029 3736 1612 2701 2461 2959 2298 2048 94 23 79 14 7 67 20 51 45 44 67 21 6 39 8 62 74 79 82 92 93 56 55 14 35 32 47 92 69 83 10 50 57 48 88 40 40 24 81 10 79 51 22 10 76 75 24 48 21 94 77 76 50 87 74 76 94 2 9 58 5 7 73 17 32 35 18 39 40 37 54 60 64 52 43 63 46 60 36 0 4 27 1 61 14 6 43 54 77 61 71 95 15 44 93 97 64 30 1 91
2945 3560 3640 3743 3637 3115 3093 2817 3215 1754 1626 2472 2685 3562 3531 2983 3254 1734 2539 2556 2339 3380 3862 3117 2519 2014 3222 2012 2642 2604 3221 3602 3666 1575 2578 2694 2122 2749 3818 3135 2210 3914 3132 3988 3431 2278 2511 3304 1519 2113 2090 1810 2959 2459 3359 2176 2661 1702 1750 2001 3546 3813 3115 2862 3072 2601 2240 1903 3161 2043 1660 3655 3499 3987 2955 3608 3410 3133 2621 3952 3851 3601 3579 1732 3306 3362 2482 2882 3722 1575 2888 1820 2969 1651 2104 2640 2996 3964 2148 2505 2672 1715 2298 2749 1697 3489 2058 2571 1800 1945 2572 1655 1819 3368 2761 2517 3134 3579 1924 2955 1659 3937 2328 2141 3996 1828 2091 2831 2122 1713 1967 3520 2342 3771 3943 2238 2286 2524 2888 3212 2847 1506 1601 2657 1524 2124 3608 3034 2530 1977 3512 3719 2681 2695 2851 1680 2169 1567 3946 2205 2196 1889 3728 3837 2602 2883 1948 3655 3824 3505 3218 2213 3652 2117 2627 1990 3846 3075 3034 3544 3926 2614 3046 3570 2117 2225 3609 3415 2009 2626 3206 3423 3979 3425 2125 3717 1750 1591 2609 3884 3186 3432 2240 1748 2304 1944 3636 2414 3310 2556 3496 1534 2277 2413 2220 3029 3510 2594 2447 3481 3148 1652 3370 2791 3174 3399 3479 3455 2799 2740 3453 3909 3402 1891 3768 2522 3607 2518 3762 1684 3915 2977 2475 3666 3731 2855 2829 3019 2978 1860 3207 2886 3876 3053 1963 2872 2676 3917 2572 2653 2239 3452 2566 1727 1647 3560 3289 3848 1843 1544 3927 3328 3125 2805 2402 3505 2605 3325 2374 2020 3873 2147 3801 3765 2737 3961 1722 3022 2639 2257 3644 1933 3258 2880 2289 1801 2182 3230 2039 3081 52 30 26 37 71 75 66 49 87 92 81 16 98 28 61 56 41 25 96 47 20 83 97 27 68 58 55 99 12 40 96 58 59 9 36 99 74 79 47 81 8 11 47 37 78 56 37 9 36 30 50 6 12 74 47 72 72 17 4 7 38 73 54 75 83 78 87 60 29 70 93 47 29 48 17 16 21 48 4 4 0 65 90 2 5 97 68 54 92 7 60 30 69 17 23 31 43 31 63 38
3364 1896 1826 2439 3393 3809 3751 3012 3885 3602 2466 3747 3396 2941 3906 1834 3079 1553 2557 3350 3139 3263 2669 2553 3984 3680 2996 2849 3806 1514 2528 3898 2916 1744 2576 1962 3785 2241 3990 3965 2662 3869 3864 3174 3812 1875 2529 3877 3093 3584 2298 2592 2925 2357 2389 2997 2632 3433 2902 1602 3152 2308 3121 1567 2447 2516 3097 2465 2576 3401 1824 3368 1732 3940 2174 3096 1537 3988 3935 2326 3027 1591 3008 3282 1762 2771 1600 1611 3241 3536 1934 3906 3379 3991 2811 3682 2689 2609 2453 3143 3783 3735 3477 2196 2937 3391 2614 2960 2944 2795 3605 1950 1908 3314 3319 3807 3445 3200 3937 3073 2699 3970 3658 3059 1697 2045 3000 2306 3663 2955 2312 3659 1604 1942 2197 2718 3321 1625 2152 2966 3971 3709 3607 3990 1867 2641 2311 1507 3169 2760 3270 3538 3474 3118 2437 2897 1833 2409 1836 3884 3668 1939 3785 3490 3002 1880 3844 2781 2687 1906 3778 2734 2337 1936 2000 2156 2858 2510 3853 2168 3027 1743 2597 3803 2431 2553 1740 2197 3651 3344 2824 3924 1510 1629 3096 2962 3254 3774 2213 2477 2138 2395 3757 2455 2741 2277 2317 1690 3529 2925 1869 2298 2013 2002 3668 1514 2504 3598 2950 2003 2169 2546 3098 3050 3716 1591 2495 3761 2816 3833 1950 2988 2724 2696 2411 3419 1959 2779 1851 2690 2845 2975 1504 3348 2607 3535 2550 3371 2107 1788 1663 2905 1715 1638 3446 1693 3406 3405 3957 3059 3543 2138 2132 2700 3899 3305 3374 3596 2724 1827 2288 2480 3637 3492 2137 2393 1790 1954 3137 3233 2909 3743 3706 1641 2019 1960 2130 1578 1585 2802 3088 1935 1971 1883 2061 2271 2850 2275 3591 3365 61 75 55 30 36 40 77 61 79 73 72 80 70 24 9 72 44 96 56 51 90 41 48 10 56 95 22 33 95 37 84 49 17 6 38 44 10 8 3 81 68 42 14 74 92 4 52 95 84 9 28 73 28 19 75 98 24 6 34 79 36 74 61 43 1 31 56 15 44 24 34 66 80 7 83 24 96 73 19 27 65 0 23 41 64 60 25 85 53 65 15 2 81 48 81 6 68 95 75 32
1985 3201 2732 1836 1767 3370 3205 2343 1921 2155 2358 3216 1706 1610 3416 3944 2781 3413 3474 2603 2160 1527 3354 3283 1951 1889 3984 3920 2128 3477 1594 3081 1626 3167 2755 2798 2221 3655 2117 1623 2601 2409 2369 3485 3296 1729 1918 1841 2163 2164 1877 3973 2382 2679 3297 1641 2993 2593 3430 2030 1989 3256 2453 1970 3783 3842 2348 3406 2913 1957 2193 1847 3966 1603 3922 3638 2584 2121 2652 2571 2947 3419 3303 3844 2906 1581 2032 2809 3794 2723 2843 3074 2200 1601 2892 1987 1862 3617 2268 2648 1548 1801 3873 2382 1615 3539 2844 1689 2384 2471 3089 2843 1668 2216 2882 2837 1554 2397 1740 3604 3141 2391 2515 2402 1542 2404 2432 2904 2442 2830 1870 3354 3326 1544 2179 2067 2887 2817 3450 3136 2680 3661 2935 3058 2283 1999 3915 2026 1977 1963 3090 3889 3292 2203 3239 1642 3540 3233 2672 2445 3099 3436 2618 2396 2458 2898 1812 3212 1993 3090 2374 2971 2500 2002 3414 1818 2954 3593 3999 2924 2399 3749 2610 1900 2215 1743 1602 1590 3008 1775 3936 1667 2443 3491 2404 1923 3997 3621 1797 3892 1629 2998 3133 2198 1629 3225 2006 1690 3827 3388 3224 3110 1715 2916 3276 1982 2595 1673 2502 3523 2215 2930 1893 1988 3765 2014 3779 3505 1727 3679 2278 2636 1551 3107 2548 2341 3711 2484 2923 3222 2353 2321 2049 3298 2166 3585 2407 3778 2328 3869 3371 1948 3747 2502 1686 3266 3880 3855 2903 3003 3434 2878 2668 2898 3863 3441 2907 2982 1992 2652 3207 2952 3437 2205 2386 1721 3098 3704 2132 2708 3131 1851 2882 2981 3487 1926 2658 2828 3500 2814 2646 3096 1591 2830 3045 2742 3051 2525 3455 2381 57 79 71 77 13 88 62 96 96 94 29 60 82 68 74 52 98 55 51 13 33 71 94 97 57 50 42 99 98 95 57 15 79 13 69 68 30 81 7 15 78 29 57 67 82 20 2 83 9 16 68 53 60 1 55 1 66 69 98 42 64 69 93 13 6 87 71 34 87 7 19 2 96 36 87 73 6 64 86 1 90 23 0 17 16 41 1 65 16 26 15 54 71 86 60 25 68 70 43 46
3455 2887 1709 3851 2051 1817 2129 2626 3116 3778 3950 1704 2940 3465 3245 3929 2660 2248 1625 1778 3766 3241 1944 3042 2408 3742 1717 3121 3689 3384 3004 2524 3746 3803 3551 2446 3478 1826 2899 2421 3711 1924 1778 2438 2683 3824 3531 3205 3010 3946 2186 3423 3312 3716 3990 3229 2449 3370 3973 2386 2675 2616 1891 2032 1945 2319 3121 2724 3768 2848 1576 2967 1951 2630 1510 3616 3586 2826 1816 3690 3260 3026 2450 3447 1948 1907 2962 3922 1582 3467 3727 3480 3641 2340 1543 3153 1690 2419 3603 1893 3889 1811 2738 2771 3210 3828 3293 2350 2016 2501 3301 1750 1997 3990 2931 3542 3445 3236 3563 3670 3061 3834 3431 2754 2627 1655 2525 2322 3491 3624 2031 2636 1596 3423 3189 3391 3544 3457 2333 1691 1945 3329 2953 2836 2053 1995 3955 2097 3154 2059 2821 3037 2282 2242 1977 3810 3081 3380 3766 3953 1954 2832 2451 3250 1967 2364 1511 3180 2596 3031 1688 3187 3617 2255 3975 3238 1909 2177 2705 1858 1816 2870 3563 3299 2058 2342 3477 2092 2398 1875 2976 1922 3223 1793 3716 1550 3503 3088 1618 2136 2826 3932 1580 1763 2868 3074 2264 1747 3373 2087 3376 2266 1831 3732 2544 2588 3850 1521 3983 2072 2329 1805 2362 3088 1546 3019 3717 1636 1597 2956 3994 1866 3938 2028 2425 3768 2996 3347 3450 3092 3671 3485 2036 2408 2777 3615 3370 3751 1615 3231 3836 3750 3305 2944 2965 2743 3608 3920 3987 2073 3447 2099 3979 3211 1552 3123 3180 2722 3898 1549 2852 2143 1710 1717 2139 1719 2175 3506 2350 3486 3839 3606 2183 3288 2424 1869 3099 1811 2733 2042 3477 3345 3455 3474 2290 2033 1638 3053 1896 3920 76 72 97 82 58 70 65 92 11 60 8 35 80 30 86 59 94 5 46 74 90 54 72 81 49 22 30 38 50 14 84 15 69 4 2 68 77 94 84 24 51 22 66 82 51 96 62 95 82 88 42 84 95 32 80 61 45 29 73 47 46 84 73 53 14 13 53 97 37 28 86 84 31 72 39 60 50 47 32 61 2 41 17 0 37 10 95 78 73 20 65 68 76 8 29 49 19 90 39 80
2815 3592 3353 3478 2227 1625 1565 2482 3584 1746 1589 3016 2308 2834 3129 2496 3166 1824 3706 2368 3867 2501 1605 2238 3439 3071 3998 1787 2198 3600 3197 3710 1890 3098 3978 2272 2063 3367 3748 2844 2619 2367 1998 2007 1878 3442 2955 2017 3629 2151 3472 1720 2128 2926 3865 1860 1553 3774 3832 2906 3626 3488 3099 3718 3205 2137 2727 2042 2997 3827 3269 2367 2851 2868 1729 3413 3430 3807 3155 1744 2126 2996 2326 2567 1620 2593 3150 3542 3326 1932 1932 3731 3184 3779 2265 3258 2865 3428 2938 2092 3915 2022 2416 2356 1599 3826 2515 2847 1652 3991 2300 3622 3174 1988 2181 3717 3182 3040 2342 3018 2654 2130 3612 2469 3606 2050 3638 3569 1732 1977 3005 3714 1740 1913 2465 2743 3144 2650 3222 2306 3784 2310 1603 1859 1736 2763 2238 1973 3411 3212 1919 3977 1527 2815 2624 3762 1983 2463 2423 1963 2036 3415 1789 3476 2066 1640 3852 2059 3021 3229 2363 2546 2480 1790 3330 2549 2466 3320 2938 1791 1856 3593 2432 3587 3513 3928 3582 2653 3561 3469 3962 2320 2527 2405 2253 1744 1618 2509 2031 1569 2059 2224 2628 3655 3310 2145 3032 3430 2472 1794 3887 2068 2904 3952 3083 3947 3174 3155 2052 1616 3104 3437 3212 2130 3290 3916 2265 2092 2694 2766 3170 2827 2678 2866 3858 3679 2870 3635 2933 1977 2942 3525 3782 2132 1627 2070 3290 3362 1807 2791 3433 2202 1985 2557 3193 2182 2113 1580 3609 2141 3434 2796 3043 2480 3497 3945 2416 3305 1848 1729 1544 3158 2313 3581 2805 1747 3040 2670 3464 3690 3345 1988 1621 2244 3449 2834 2500 1644 1510 2357 3766 3462 2714 1915 2049 3729 2503 3249 3526 3928 11 91 66 67 1 17 20 61 43 84 6 54 34 10 86 56 57 14 2 79 77 3 23 78 95 71 91 16 63 60 30 93 71 96 98 23 81 54 67 85 79 27 42 72 11 84 65 99 37 85 15 89 40 58 35 7 39 75 21 1 29 10 37 34 70 31 72 82 66 81 8 90 99 81 97 90 72 82 25 14 5 64 16 37 0 99 40 89 4 62 73 39 64 81 28 83 63 77 98 14
3379 3275 2307 2379 1714 3753 3983 2605 3107 3962 1848 3194 2139 3187 2386 3558 1636 1666 1500 1790 3113 1609 2943 2886 3145 3662 3406 2938 3386 3502 2039 2015 3101 3448 2392 2187 1585 1632 2288 3428 3787 2474 3194 2758 2659 1951 2884 1517 2464 1708 2332 1767 2232 2208 2773 2731 2624 1681 1810 2816 2205 3341 1835 2080 3887 3751 2656 3221 2895 2291 2418 1519 2380 2434 1805 3057 3735 3426 2390 3190 2294 2813 2158 2675 2811 3258 2844 2313 2132 3789 2402 3692 3288 3209 3010 3370 3178 2923 1647 2663 1931 1559 3336 1627 3037 3044 3984 1673 2321 1591 2400 1708 2811 1684 2561 2144 2508 3213 1892 3858 3305 2413 2164 3466 2112 1675 3974 2967 2278 3314 1771 1852 1969 3317 2861 3148 1735 2360 2962 2174 3917 2739 3087 3483 2157 3246 2486 2030 3926 3036 1609 1671 2067 2975 2526 3638 3300 3476 3289 2794 3802 2488 1941 3515 3065 3143 3236 3082 2719 3322 2975 1816 1680 3870 2062 3049 3080 2381 1587 3891 1816 1573 2587 3654 3565 2546 2604 2622 2594 2203 2121 3269 2320 1859 3648 1708 3521 3347 3450 2587 1825 3070 1692 3591 3762 2819 2471 2447 3082 3261 3921 2087 3353 3501 2548 2782 1741 2620 1575 2998 3403 2717 1796 2856 1570 2396 3338 2778 2454 3265 2966 1752 3657 3911 2933 3100 2797 3965 2345 1787 3981 1880 1719 1728 3100 1613 3190 1528 3351 1626 3040 3832 1798 2472 3028 3417 2454 3901 3237 1785 2616 2430 2001 3676 2534 3058 2014 1893 2571 3131 3050 1913 1511 3470 3665 2342 3148 2651 2370 2673 1733 3830 2927 3752 2250 3213 2293 1767 2766 3873 3972 3281 2704 1782 1503 1997 1802 2373 1872 2754 55 10 35 87 23 74 63 20 39 68 12 52 66 7 49 24 76 78 13 92 18 56 47 91 99 38 56 5 2 89 83 43 46 25 61 70 80 29 65 22 79 41 7 6 59 24 97 45 16 15 39 13 57 57 60 70 18 43 20 12 91 19 35 6 43 59 78 16 64 16 44 74 64 55 79 65 82 18 79 6 97 60 41 10 99 0 8 5 66 36 73 88 39 18 47 35 57 62 99 3
2808 3393 3432 3074 3475 2172 3536 1608 2320 3784 2792 2914 2980 3260 3186 3765 2931 2290 3384 3454 1502 3544 2706 2733 1749 2000 2705 2146 3236 1804 2367 2238 3407 2877 1630 3833 1769 1718 3418 3146 3058 2145 1708 3021 2269 3662 3935 3698 3674 1919 1613 1804 1644 2351 2482 2630 2055 1668 2780 3522 3287 2535 1917 1812 3333 1931 2418 3000 3908 2223 2004 1728 2114 2643 3138 1542 2725 2711 3854 2096 2036 2710 3491 3634 2204 3045 2122 1573 3372 2285 1567 2827 1994 2974 3448 3302 2039 3089 1764 2100 1658 3697 3715 3789 2453 1708 1548 3866 2359 2629 3285 3031 2548 3461 2514 2256 3034 2073 3459 3895 3126 3410 1558 3576 2087 3685 3790 2294 2913 3516 2973 3656 1628 2866 3567 2362 3319 2724 3573 3970 3611 2618 1802 3831 2196 2357 2934 3934 3784 1762 2426 2963 2574 3006 1536 2294 1825 3404 2560 2004 3352 1711 2196 2431 1932 1514 2048 2520 2104 1533 2388 2025 3354 3173 2389 1665 3804 2914 2497 3762 2717 2195 2409 1793 3112 2229 3064 3837 2067 3219 2811 1940 3871 3979 1843 2030 2025 2632 1574 2596 3584 2521 1717 2846 2384 2649 3687 1901 2626 2834 1567 3432 3780 3451 3585 3671 1547 1736 1502 2181 3764 2110 3883 3157 2900 2953 2901 3992 3871 2756 1917 1718 3556 3321 3099 2167 2555 3886 2513 2486 3575 1838 3387 1836 2897 2035 3214 3210 1873 2837 2194 2991 2248 3519 2348 2130 1741 3410 2251 3152 1758 2607 2509 2095 2329 2755 1962 3852 3206 2354 2019 3008 1699 2880 2214 1944 2912 2763 2194 3937 1973 2583 2361 2491 3645 3923 1866 2638 3032 1691 1510 3577 3324 3878 3969 1796 2683 1702 3541 2759 39 43 45 20 80 17 51 39 9 56 92 47 30 71 38 79 6 62 94 15 37 41 78 1 36 25 64 41 51 48 67 63 35 87 16 98 26 49 80 43 62 32 76 44 62 1 5 29 49 22 10 3 24 21 41 60 24 58 8 94 6 57 11 30 19 76 59 50 45 53 20 53 46 33 33 19 24 70 67 43 68 25 1 95 40 8 0 44 31 68 77 4 74 59 74 88 67 63 91 91
2266 3637 3818 2577 2800 3516 1594 2309 3313 1755 3176 2190 3061 1514 3903 2021 2979 3534 2559 2338 3730 2295 2656 3425 3825 3358 3356 1878 1600 1688 2075 3173 3767 2285 3121 2229 3538 2899 1633 1656 3928 2455 2712 2503 3176 3635 2801 3363 1786 2639 2758 2382 2858 3164 3941 1811 3078 2727 2098 2506 2992 1557 2875 2363 1757 1602 2556 2997 3273 1986 2751 1586 2525 1697 3471 1796 2863 2699 3037 2761 1695 3425 3956 2057 3607 2864 3033 2730 2907 3086 2352 2945 1980 2646 3090 1894 2519 3862 2863 2950 1815 1716 3731 3374 2835 2774 2357 3325 2137 2781 3970 2439 3871 2695 3246 2868 3681 3446 2877 3751 3571 2092 2242 3808 3101 3146 2874 3301 1609 1934 3803 1808 1992 3912 2946 3204 1759 3500 2831 1875 3723 2940 3349 1834 3096 1881 1908 2069 3354 1543 1759 3983 1685 3085 3231 3178 2391 1930 2042 2722 2037 2911 2351 3792 2777 2840 3068 2402 3746 3052 3406 2020 2848 2771 2385 2464 2684 3799 3724 1575 1923 3046 1783 2732 3239 2924 2805 3005 3906 1719 2364 2589 2114 2220 3489 2118 3691 3900 3802 1812 2516 1609 1564 2353 3090 3854 2624 1978 2846 2740 3059 3420 2449 1504 2457 2699 3655 3009 2051 2324 3715 3322 2362 3768 1643 2155 1935 3241 2816 3658 2072 1509 2740 2372 3278 2251 2152 3373 3883 2562 3325 2315 1536 3646 3648 3409 3063 3016 3831 2505 3361 1887 3256 1919 1677 1932 3227 2917 3893 3708 2138 1532 3224 1714 3761 2336 2654 2806 3190 2177 2400 3347 3686 2295 2865 3129 1631 2625 1961 2612 1735 3648 3971 2882 3260 2297 3998 2925 2045 2752 1617 3674 3018 1650 3086 2437 3346 3113 3576 2506 25 13 15 34 43 34 65 67 49 32 81 67 32 16 45 61 28 82 6 82 63 18 64 81 69 95 88 2 49 55 61 67 48 18 65 20 15 70 59 96 42 54 6 41 27 95 39 5 45 71 40 53 9 39 41 21 22 83 72 53 40 28 90 99 47 71 10 3 84 98 34 3 43 23 42 60 60 15 98 54 54 85 65 78 89 5 44 0 8 13 92 56 32 90 65 40 86 99 45 6
1722 3228 3640 1540 2187 2422 1622 1522 2695 1520 1616 3094 3655 2666 3163 2135 2813 2265 2932 3555 2002 3896 3896 3645 1814 1870 1667 3796 2723 1668 2969 2875 2025 3196 3287 2414 1804 3451 1878 3508 2716 3907 3136 1997 2682 2271 3454 2028 2662 2668 3349 3454 2158 2299 2217 3954 1532 2826 3463 1759 2607 3376 2524 2642 2286 3695 2380 1617 1509 2852 2793 3734 2021 3447 2949 3063 1763 2398 2456 3972 1785 3610 3855 3663 2468 1642 1626 3230 3072 3484 2189 2892 2630 2918 1510 2326 3561 3095 2714 3329 3723 3725 3493 2084 3752 3789 3534 1708 2416 1664 3084 1562 2503 3868 3187 3281 2245 2097 1651 3003 3181 3395 3244 3701 1820 3203 2863 2344 3430 1584 3230 2072 2191 2176 1744 2114 3837 1647 1744 2476 2528 3331 1929 2082 3184 3167 3344 2112 1947 2695 2110 3397 3338 3110 3694 2840 2753 1792 3762 1604 3207 2862 2244 3234 1880 1587 2840 1695 3216 3615 3758 2058 3991 3779 1534 3216 2139 3887 3813 3662 2783 1573 3954 1527 3540 3042 3903 1715 2225 3480 2420 1889 3071 3569 2481 1534 3239 3293 2259 2781 1808 1577 3323 1713 1888 3877 3790 1852 2072 1530 3495 1521 3017 1522 2010 2825 2100 1758 2413 2260 2990 1829 2371 3438 2131 3633 1714 3993 3551 1874 2778 3226 2006 2327 1808 2870 2590 1696 2617 2499 2012 3021 3524 1827 3692 2606 3990 3246 3107 1568 3228 2943 2574 1604 1827 2209 1967 2134 2125 2661 3182 3326 3380 2699 1865 2461 2420 2156 1654 3251 2064 1904 1976 1660 3570 2400 2558 3311 2781 3475 3892 1509 2604 2700 1962 3154 1766 2512 2926 3309 2433 3678 3823 3111 3682 3913 3172 3769 3560 2261 54 38 59 52 18 87 21 72 81 35 26 94 36 99 85 10 82 13 46 75 14 13 64 15 56 59 44 70 12 50 5 86 83 81 96 84 23 26 8 36 80 98 87 49 39 29 71 80 25 51 83 84 1 27 6 40 32 75 17 25 5 75 30 76 38 4 71 51 14 10 57 28 21 89 39 11 11 45 54 77 92 53 16 73 4 66 31 8 0 48 38 95 8 43 74 71 56 50 7 36
2813 2485 2681 2246 3355 3449 1786 2197 2791 3564 2079 3602 3258 3619 1750 3112 1537 3025 2524 3957 2441 2212 3248 3483 3634 2437 1947 1746 2023 2863 1756 3356 1500 2722 3768 3089 2571 3366 3914 1587 3891 2710 3785 3326 3972 1943 3503 2880 1557 1553 2703 3552 2464 2359 2563 2220 1643 3310 3790 2963 2285 1924 3505 1561 1916 2838 2683 3081 3690 1718 1887 2388 2283 1609 2594 1856 3693 3129 3340 1567 2382 2082 3963 2445 1507 3396 2323 1565 3482 3399 1762 3564 1815 2769 3607 2918 2328 3829 3603 2780 1983 3072 2716 3356 1844 2048 2593 2979 2540 2516 3489 3584 3142 3227 2632 3507 3526 3853 2575 2418 3173 3229 2883 3767 3532 2491 2005 3952 1835 2088 2002 3936 2239 3869 2620 2261 1695 1875 3167 3054 2493 3093 2260 3449 2951 3707 2486 2956 2161 3049 2797 3941 2741 2880 3019 2210 2861 1704 3126 1830 3832 1661 3347 1951 3119 3867 2466 2299 2082 2329 3568 2485 3950 3665 2896 2290 3947 3571 3061 2419 2390 1693 2599 2012 1548 1764 2356 3074 3455 3798 3518 3402 3405 1688 1872 3352 2532 1635 3685 3699 2235 3743 1814 1951 2119 2541 3158 2634 3182 3935 2256 3197 1697 3440 2591 2618 1905 3777 2074 1971 1822 2720 2636 2507 3587 2209 3418 3528 1987 2081 1830 3098 1660 1821 1597 3734 3855 3530 3782 2454 1752 1903 3733 3105 3212 2901 3125 3168 3893 3933 2135 2283 3216 3884 1875 2237 3888 3391 3873 3948 1760 2233 2837 2200 1505 2086 2561 3111 2169 3437 2333 3618 3515 3076 2598 1936 3711 3278 2145 1809 2541 1539 2702 3023 3599 2690 3938 3611 2466 2682 2449 3587 3320 2087 2281 2159 3336 3649 3309 2468 67 84 50 10 34 19 97 18 41 4 92 50 2 25 56 74 63 10 24 19 15 55 72 35 63 75 1 22 81 45 67 48 68 99 30 23 14 78 87 70 16 8 19 4 92 70 23 95 91 54 80 83 81 21 95 64 47 12 88 36 40 84 2 96 59 29 7 9 49 46 79 80 39 30 28 47 33 84 19 61 7 65 26 20 62 36 68 13 48 0 38 26 14 91 34 72 56 66 93 61
3954 3782 3051 2574 1684 3618 1553 2725 1568 2377 1574 3797 2071 3681 2478 1592 2977 2387 3043 2454 3959 2112 2794 2921 3441 2918 2665 2560 3230 2469 3561 3676 1761 2724 2133 3372 2303 3499 2370 2039 3216 1652 1974 2028 3323 2996 3326 3918 3764 1694 3585 3635 1869 2305 2608 3690 3394 3379 3964 3708 3290 1518 2598 3143 1505 2202 2265 3488 2609 2449 2981 2318 2284 2399 2648 3395 3533 1820 2232 1557 2538 1616 2227 2940 2215 1511 3666 3498 2488 3413 2687 3056 2798 2513 2750 3218 3822 3712 2104 2110 3685 2570 2583 2807 3921 2540 3363 3772 3577 1723 2086 2529 3231 1836 3527 3177 1814 3956 2397 2147 1807 2798 3042 1588 2124 1739 1651 3980 2091 3311 2415 2920 3101 1828 1734 2813 2402 1810 3021 2905 3752 3482 1546 2462 2437 3886 2210 2070 3395 2715 3468 3068 2038 2379 2606 3158 2656 2812 2316 2634 2313 2893 2301 1690 2732 3072 1588 3720 2215 3016 3351 2262 1619 1617 3613 2697 3724 2258 1846 3872 2534 3999 2598 2507 3445 2575 2675 2177 3818 2263 2847 3362 2591 1622 1576 3849 3771 3371 3558 1971 1730 2907 3963 1956 1760 3927 1720 2270 2548 1589 2620 3483 1900 1966 2750 1864 2511 2689 2613 3492 2283 1983 3825 2245 3236 1968 1643 2341 3221 2446 2953 2982 2796 2085 3763 3055 2411 2066 2893 3061 1535 3788 3109 2383 2386 2545 3787 3680 1741 3603 3332 1893 2598 1960 1707 2953 3979 2282 2150 3091 2940 3916 2648 1750 3225 2816 3608 2042 2850 2496 2244 1690 1807 1734 1774 1769 3168 1548 3204 1556 3860 1784 1962 2483 2881 2659 3784 2921 3176 3566 3922 3096 2647 1651 2279 3680 3833 2095 3705 3240 58 70 4 64 64 45 40 63 8 73 76 68 38 97 50 7 82 39 74 83 92 11 88 29 60 46 90 34 90 26 97 22 84 19 43 80 9 40 99 99 60 31 27 88 34 24 24 87 49 10 18 47 6 60 77 98 47 79 7 33 97 82 63 46 92 3 7 22 7 59 79 47 60 64 10 54 38 15 54 71 60 15 15 65 73 73 77 92 38 38 0 73 45 69 66 74 81 59 35 41
1589 2891 3738 3940 1595 3691 2701 2712 2549 2108 3270 3761 1673 3341 2622 1763 1500 1825 2990 1850 3678 1592 3777 2300 3434 2725 3965 2596 1908 3470 3139 3129 1940 2578 2955 2059 1624 3285 2117 3830 3595 2472 2892 2130 3945 2542 2908 2883 1656 1596 2667 3199 2193 2137 2275 3348 1696 3293 2726 2240 1926 1663 2077 2254 3016 3878 3997 2056 1853 3357 1939 3978 1723 3777 3582 2686 1786 3002 2626 3323 1860 3590 3684 3852 2024 1756 3214 1770 3524 3894 1993 3057 1723 3192 1734 2253 1533 3377 3526 3946 1733 2651 3040 3126 1568 2106 3077 1558 3225 3626 3003 3493 1858 3847 2395 2069 1933 1711 2518 2307 1798 3646 3900 3881 2510 1518 3413 3842 1990 2550 3493 1774 3906 2605 3311 1948 3982 3767 3077 3822 2639 2619 1978 2170 3134 3250 2808 2967 3164 2917 2948 3131 3946 2921 2150 3230 2103 1665 3477 2206 3596 2883 3573 2049 1759 1544 3447 2222 2470 2954 2106 1878 2974 2831 3636 3097 3301 2697 3791 2191 3631 3467 2454 3115 3150 1907 3961 3965 3791 2708 3368 1561 1814 2263 3945 3155 2557 3156 1659 2610 3558 2658 1567 3822 3923 2711 3719 3008 1664 2838 2150 1640 1828 3524 3852 2345 1609 3041 3254 2685 1523 3088 2394 2078 3602 2986 2501 1922 3964 1836 3821 2653 1951 1544 1605 1806 2018 2480 2517 3787 3348 3030 3635 1563 3341 1808 3372 3607 1677 2158 1854 2388 2921 3060 2345 2865 2692 2305 2156 2929 3789 3502 1842 3392 2709 2111 1738 1820 1501 1708 3476 3954 3969 1716 1629 3339 3899 2891 2711 3326 3479 2894 2789 1541 3939 2628 3347 3443 3238 2170 3882 2678 3751 2786 2361 3377 2610 1658 1930 2125 35 90 12 39 26 54 15 71 7 23 11 53 67 14 15 60 9 2 49 97 26 70 44 50 77 53 24 53 90 81 13 38 98 82 41 96 48 70 60 56 20 51 66 98 83 87 67 27 53 58 9 82 28 79 6 8 22 6 20 83 71 83 32 81 38 19 83 46 38 56 9 70 80 51 83 59 14 84 92 95 30 2 54 68 39 88 4 56 95 26 73 0 4 56 22 28 41 11 75 16
2928 3557 1787 2785 3208 1504 2713 1963 1867 1892 2499 2962 2407 2453 3577 2687 1767 3646 1674 3356 2231 3879 1932 2292 1550 3915 2551 2570 2862 2467 3153 3608 2858 3564 2627 2476 3426 2219 1625 2896 3610 1607 2544 1908 1815 2408 3038 1520 2840 1636 3715 2024 2716 3225 2763 1599 1549 3364 2703 3439 3322 2014 1592 3486 3256 2140 2860 2218 3126 2418 1724 1700 2039 3130 2064 3275 1884 3819 2841 3543 2689 1534 1953 3403 2156 2789 3009 2816 2904 2970 2519 2356 1836 3296 2259 2742 2093 3384 3644 3814 1526 3905 2036 2252 2351 1836 2910 2970 3549 2992 3056 2486 1997 3050 1760 3233 3703 1816 3908 3563 3960 2255 2542 3690 3265 1660 3336 1501 3918 1751 3050 2959 1564 2971 2613 2411 3772 1899 3237 3428 2684 2737 2846 2973 3665 1671 3841 2500 2138 2682 2034 3338 3812 3204 2629 3647 2214 1609 2462 1957 3145 3952 3493 2026 2110 1615 3239 1763 3327 3953 2071 1623 1723 1635 3378 3698 3630 2498 3734 3970 3561 3361 2340 2649 3369 3039 2443 3012 3634 3532 2232 2827 3663 1661 3593 2533 2001 3636 3239 2106 2308 2688 2718 2030 2315 3527 2462 3265 2412 2479 3124 2424 3725 3594 2391 1879 3302 1609 3031 3281 3898 2105 1763 1921 2924 3190 2969 3176 3685 3177 1819 3858 2003 2077 3434 1587 2613 2266 2030 3430 2570 3940 3153 1628 3371 1637 1936 2488 2315 3756 3619 2939 1893 2242 3448 2503 3811 2943 2811 2548 2784 2806 1775 3946 3541 3623 3908 1678 3795 2759 2303 2633 3525 3315 3177 2406 3730 3376 3107 3807 3048 1794 3442 3143 2177 2466 1745 2971 1762 2099 1745 2895 2108 3375 1600 2533 1883 2464 3121 3803 91 91 62 3 36 64 2 83 36 51 14 71 72 57 82 84 79 85 29 76 25 26 22 29 44 18 57 7 77 10 99 71 31 9 3 60 7 68 60 29 64 16 28 12 38 70 31 45 42 5 13 48 82 50 73 65 79 28 91 5 72 57 83 95 85 17 25 90 23 59 91 48 28 26 45 68 36 89 5 15 69 81 71 76 64 39 74 32 8 14 45 4 0 42 80 66 58 78 21 85
2617 1757 2649 2412 3382 2236 3297 2519 3347 1956 2673 2813 2578 1552 2271 1737 3407 2013 2351 1609 3516 2400 2629 2185 3021 3440 3522 2171 3324 3266 2432 2128 3394 3999 2445 2801 1772 3759 1939 3709 3713 1916 2673 3304 3286 2188 2978 2202 3147 2302 1843 1709 2047 1875 3473 3540 3980 2871 2917 2101 3943 3844 1886 3591 1514 2107 3106 3692 3166 3601 2476 2367 2709 1807 2890 3507 2712 2351 3967 2382 3349 1542 2619 2108 2092 2116 3725 2611 2788 2591 3280 3341 3346 3277 2023 3666 3879 2058 3431 3371 3109 1597 3144 2445 1589 1631 1929 3478 3138 3262 2105 1521 2224 3716 2001 2857 1525 2159 3745 1774 2187 3124 2448 3099 3220 2614 2878 2120 3134 2334 2705 1702 2446 3270 3480 3722 2570 2078 2184 3038 3862 2505 3318 1819 3659 1794 3521 2931 2493 3573 1738 2773 1819 2079 1914 1717 2046 2460 2171 1500 2586 1612 1734 1638 1964 2129 3272 3073 3408 2360 3430 3534 3966 1934 3060 2961 2265 1626 2789 3791 3361 1879 2933 2804 2560 3894 3004 3033 2652 2545 3379 1862 3344 1572 3928 1685 3577 2868 1597 3969 2481 2971 1574 2550 2751 1988 2913 2978 3050 2695 2510 2646 3721 3877 3922 3704 2827 3361 3294 1996 3539 3507 3860 2600 3150 3157 1624 3189 3307 3017 3967 2669 2229 3107 2261 2004 2706 2336 1944 2405 1850 3959 3695 2116 3840 3669 3855 3845 2928 2748 2942 2455 2917 1582 3937 3213 3162 2312 1627 2807 2733 3695 2978 3681 3891 2717 3416 3742 1889 1871 3036 3737 2962 1816 2699 1524 3892 3831 2277 2929 2989 3625 2988 2579 2858 1885 2485 2709 1695 3853 3921 2761 2404 3912 2650 2463 1777 3118 3409 3143 50 75 4 64 37 89 75 62 40 77 89 99 61 23 39 43 29 64 29 10 69 4 74 39 44 59 76 31 9 65 63 86 89 11 74 10 39 63 54 98 7 35 91 50 2 94 15 71 41 57 68 86 53 89 87 80 63 44 62 97 12 99 43 68 13 52 34 50 16 87 38 86 39 24 89 20 93 26 25 44 17 48 86 8 81 18 59 90 43 91 69 56 42 0 38 25 46 20 4 86
1516 1947 2232 1856 3498 3724 1941 2426 3535 2667 3243 1529 2193 3267 2377 3288 1720 1952 3477 2226 2010 2668 2677 2826 1923 3693 2920 2430 2011 3633 3932 3506 2501 3557 2863 1790 2152 3580 2546 2701 3471 2803 2272 2850 2521 3578 1558 2615 3884 2798 2400 2536 1534 2637 3684 3043 3605 3736 2958 2135 3942 2312 2846 2972 1584 3337 3855 3883 2996 3609 2839 2218 3938 2483 3127 1796 1633 2682 3824 2722 3232 2952 2723 2307 3654 1747 2008 3540 2680 2190 2683 3352 3975 2790 2275 2821 2380 3644 3069 1819 2547 3230 3556 2659 2936 3750 2269 2699 2976 3792 2011 3235 3629 3333 1583 1822 2888 3422 2031 3104 2647 2974 2701 2976 2649 1985 2246 1900 2974 1888 2748 2361 2020 2897 3172 3471 3771 2383 3425 3607 2314 3316 2152 3002 3635 3789 1887 3172 3975 1925 3058 3439 2087 3057 2375 2572 3208 2986 3467 3689 3306 3190 3330 2446 3033 3972 2149 3994 2547 3487 3874 3777 3367 3447 2589 3750 2426 3202 3611 2300 2047 2910 2736 1905 2626 3949 3404 2587 3923 1839 1973 1637 3311 2488 3698 3283 3460 1705 2032 2364 1981 1886 1642 3647 3686 3933 1552 3835 2830 2393 3490 1541 3578 2697 3538 2631 3983 2198 2527 2576 1843 1649 1633 1584 3982 2294 3515 2497 1916 3336 3375 3922 2514 3199 2158 3969 2859 2870 2812 1831 2775 3667 3280 2795 3513 1536 1884 3080 3656 1772 1609 1879 1693 3912 3961 3548 3722 1865 1669 2967 1775 2541 1924 3246 2488 1672 1581 3177 3928 1511 1534 3214 2602 1659 1672 3986 1598 3582 2677 3993 2056 1508 2880 2568 1586 1625 2152 1951 2389 2774 3268 1835 2542 2618 2097 3090 1593 3245 3592 3063 49 97 30 31 57 78 24 48 3 76 81 59 90 8 95 38 42 5 56 16 78 95 59 87 84 2 18 22 90 46 97 49 34 27 82 31 24 75 29 97 26 15 81 6 95 83 4 91 98 26 89 90 34 46 38 2 18 30 76 16 21 55 1 72 17 62 67 49 8 91 99 33 61 29 26 92 21 8 27 93 23 81 60 29 28 47 74 65 74 34 66 22 80 38 0 85 59 48 31 78
2858 2868 3387 1708 2971 2982 3816 2155 3515 3445 1575 2477 3286 2683 3981 1866 2390 3511 3676 2005 2938 1566 3902 2783 3059 2097 1791 3764 2829 2955 3726 1924 2006 2072 1954 3874 2315 1760 1574 3750 2839 2533 3650 2727 2817 3915 2277 2221 2352 2026 3211 3695 3249 1588 2429 3495 2112 3191 1845 1887 2739 3489 2326 1915 3838 2839 3458 1761 2472 2357 1857 3499 1717 2369 3437 2829 3841 2162 3785 1926 1903 3365 2303 3457 1553 2592 3746 2755 2411 2467 2910 2279 1647 1968 2345 1799 2391 3196 2475 2577 2072 3079 3145 2555 3709 3352 3288 2770 1903 1943 1984 3498 2465 1539 1618 1858 2615 2655 2104 3544 3261 2640 2422 3832 3509 1500 3022 3891 3975 1786 2599 3904 2455 2356 1933 2601 2149 3662 3101 2179 3628 2407 3710 2545 1860 2951 1630 2328 2326 3075 2907 2448 2703 3080 3126 1843 1794 3786 3529 1634 3768 2808 2393 2289 1780 1692 2119 2864 2706 2870 3528 3258 3338 1877 3782 2684 2340 2272 1595 3960 2563 2462 2604 1530 2277 2688 2598 2346 1931 3282 2985 2784 2062 3659 2104 3504 3192 3725 3132 2431 3244 3505 2896 1962 3458 2857 3542 3574 3733 3470 3491 3467 3662 1770 2407 3072 2297 1933 2055 1545 2121 1976 3366 2477 1910 3373 2839 2248 3874 1574 1937 3187 1964 2006 2537 2840 3533 2862 1679 3402 1747 2247 3583 2118 2613 2987 1917 2311 3083 2700 3940 2337 1751 1703 3051 1504 2636 2484 2735 2139 2762 2553 3983 3105 3250 1788 3783 2894 2981 2770 2995 3641 2212 2358 3070 3006 2069 2166 1710 3476 2731 2387 1838 1957 1933 2777 3899 1725 3103 3314 3625 1868 2045 1591 3343 2513 3853 2982 2076 2466 8 38 15 50 20 13 1 74 38 8 40 6 59 36 88 88 71 5 81 27 30 12 90 90 35 22 82 51 10 30 23 85 47 79 57 88 94 58 25 15 4 10 38 46 9 81 64 79 97 68 21 97 80 52 73 12 52 86 99 52 88 35 90 3 34 86 12 58 56 50 26 47 65 7 7 78 73 85 15 97 31 6 25 49 83 35 88 40 71 72 74 28 66 25 85 0 95 52 56 52
3431 3370 3969 3001 3104 2336 1655 3420 3189 3767 2680 1596 2215 1921 2302 2994 2283 3678 3909 2582 3546 1623 3213 1893 3114 2761 3355 2796 3152 2968 3053 2335 2184 2195 1582 1535 2789 2432 3772 3623 1681 1832 2394 2959 2651 1978 2868 1518 2118 3069 3276 3165 2686 2931 1783 1871 3121 2139 2459 1779 3741 3776 3546 1697 3984 2113 3894 3544 3198 3363 2200 2848 2374 3088 2647 3193 3494 3147 1860 1965 3668 2023 3029 3629 2485 2441 1606 2916 3435 3913 2470 2724 2408 1831 3905 1887 1566 2718 1558 3784 2820 2412 3645 1611 3606 3659 2251 3898 1684 1582 3749 3707 3837 2934 1597 1600 2343 1533 3867 2855 2386 3001 3229 2732 3511 2560 3496 3252 2595 2700 2154 3298 3961 3543 2241 2398 1593 2555 2196 2166 2068 2276 3999 2422 1606 3396 3332 2382 3959 3972 2639 1724 2111 2043 3585 3875 2375 1614 2974 2213 2288 1699 3823 3064 3547 2909 3388 3001 1916 1980 2521 2988 2465 2116 3557 2382 2863 2154 3591 3596 2557 2878 3618 3619 1520 2522 3538 1615 3062 3294 3409 3356 1953 1790 3997 2507 2281 3083 3507 1796 2967 2517 3272 2922 3058 2743 2338 3224 3205 3035 1617 1802 2810 3929 1547 2028 2869 2218 3730 3860 3156 2533 2006 3742 2946 2734 2984 2112 3490 1708 2061 1976 3244 2588 1844 3231 3226 2459 2137 1635 1736 2847 1557 3755 2702 2234 2618 3114 2710 1537 2187 3617 3023 3375 3169 1716 2180 1509 2349 3631 2808 1633 2247 3025 2201 3487 3687 3499 3125 3126 2425 1908 2939 2019 1923 1719 3137 2468 2777 2338 2456 3471 3513 2102 3768 2780 3499 2851 3361 2487 2662 3722 2517 2362 1837 3981 3732 2211 3805 3034 73 41 42 75 69 88 61 40 90 41 37 40 29 70 6 62 85 80 46 67 49 12 95 60 76 49 86 92 41 40 75 32 46 44 45 15 62 84 51 69 83 55 50 41 82 44 89 34 4 67 76 31 95 35 62 89 62 53 28 57 1 59 25 43 96 99 10 16 27 65 65 24 90 68 78 72 25 85 87 64 43 68 68 19 63 57 67 86 56 56 81 41 58 46 59 95 0 64 95 30
3353 3877 2712 3144 1972 3760 3618 1684 1910 2107 1611 2392 3464 2812 1721 2925 1588 2579 3029 3363 3933 1533 2114 2025 3673 2126 3727 3578 1581 2282 1779 3302 3976 3190 3229 1857 3104 2275 2803 1875 2684 3790 2469 3393 2611 3513 3774 3094 3147 2476 3150 3504 2028 2273 2337 2267 3391 2980 3957 3193 3420 2207 1548 3599 2131 1714 2999 1669 2234 2091 3666 1589 1681 2234 3606 3831 3563 1577 2445 3136 3541 3862 2694 2882 2786 2017 2277 2178 2693 2931 3044 2897 1696 2193 2786 1679 3150 3259 1581 3390 2085 1938 2507 3293 2884 1704 2344 1705 1887 3075 3989 3697 2384 3518 1512 1565 3651 2792 1724 2918 2056 2175 3579 2139 2216 3464 3376 1640 1741 3335 2922 3866 2967 1880 1874 1668 1898 2297 2145 2828 3104 2176 1759 2283 2087 3090 1957 1549 2509 3389 3490 1732 2402 3683 3013 1589 3181 1744 3709 2896 3043 2828 2972 3244 2303 3867 2617 3796 2363 3669 2659 1707 2782 3536 2882 3318 2006 2293 2371 2665 3628 2314 3574 2365 1618 3434 3501 1946 2615 1806 2925 3145 2307 3315 1739 3399 2268 1738 1617 3111 2537 2464 3374 3440 2832 3901 3179 3587 2742 3198 3304 3146 1882 3128 2164 2573 2085 2569 3648 3197 1586 1851 3075 2654 3694 1508 2255 2989 2661 3927 2050 2159 1886 3216 2447 2667 2678 3106 3397 2623 2523 3648 3884 3084 2849 3470 2449 1535 2476 3150 2201 3053 3611 2767 2185 2967 2825 2855 2739 2706 2183 3662 3937 1830 3262 2878 3612 2086 1588 1611 3359 2683 3062 2062 2163 3285 3011 3167 2745 2617 2328 2537 3475 3886 2138 3275 1819 2676 1945 1847 2073 2331 2747 3175 3040 2331 3626 3332 1975 2801 89 14 84 58 71 64 51 49 47 55 69 80 96 13 20 94 86 97 42 65 45 25 45 67 78 41 85 82 91 40 40 32 28 37 6 52 74 2 13 19 91 52 82 26 86 46 10 97 79 16 9 65 69 67 71 15 70 62 67 29 49 21 7 91 64 66 46 68 84 71 16 56 33 88 97 24 2 49 47 30 31 95 70 90 77 62 63 99 50 66 59 11 78 20 48 52 64 0 67 3
3945 1716 2633 3064 2362 3041 2662 1576 1512 3268 2903 3957 3900 1840 2176 3881 1722 2437 3701 2602 3440 1536 1808 2852 2798 3283 3790 2473 3671 3473 2276 2662 1558 1709 3680 2211 1971 1778 1883 3250 3564 3837 2309 2093 1897 2321 2968 1574 2253 1651 2024 3648 3243 3956 1522 1515 3147 2414 1972 3069 3315 2211 3669 2064 1913 3982 1832 3589 3515 3196 3771 3286 1950 2347 2101 2511 2622 2525 2182 3821 2734 3488 1808 1673 2116 1676 2943 3015 3210 1846 1669 3993 3608 2300 3639 2325 1728 3379 1913 2584 3636 2756 2331 3438 1509 2199 1580 2427 1701 2717 3358 3802 2379 2831 1563 3456 1947 2737 3699 1855 3396 1820 1839 2058 3174 1820 2278 3241 2158 3885 2528 2497 2683 3988 3601 3582 2437 3632 2351 2722 2447 2334 3115 3233 2755 2763 2436 2712 2370 2986 2874 2007 2424 2764 3230 2600 1918 2612 2907 2769 3838 3112 3821 1893 3173 3681 3449 2075 3061 1917 1648 2725 2882 2944 3132 2671 3373 2887 3852 3019 3319 2859 1531 2211 2709 2273 2550 3184 3647 1511 2363 3400 2301 1795 2455 2755 1627 1525 2636 1685 2124 3778 2169 2047 2916 3143 2181 2050 2043 3534 1766 3797 1773 3046 3100 3036 3936 3518 2096 2256 3379 3040 3259 2487 2376 2877 3563 2738 1730 1588 3346 2250 3012 2665 2474 2253 3044 3155 2961 3761 2111 2267 3361 3532 2766 2335 1604 2074 2331 3920 3262 3552 3285 3825 2071 3424 2390 3014 3998 2138 2893 2119 3288 3732 3505 3145 2560 3888 2186 1912 3861 2979 2743 1691 1621 2814 2850 1649 3922 1980 3997 3168 3235 1754 2829 2918 3507 2797 2429 3063 3196 3230 3274 1759 2675 2003 2921 2762 1577 2066 84 29 15 22 12 43 50 99 51 30 38 9 4 31 60 10 74 63 91 53 91 6 14 46 32 67 30 58 63 96 69 14 74 21 21 4 56 74 59 48 99 79 42 29 92 10 6 86 20 87 96 40 87 66 96 70 37 58 15 16 88 59 72 70 27 13 64 86 15 97 47 40 63 53 84 49 49 85 70 1 63 75 43 39 98 99 91 45 7 93 35 75 21 4 31 56 95 67 0 99
2822 3650 3271 3291 1847 1562 3926 3933 3420 3847 2239 3851 3284 2066 2818 2297 3202 2462 3323 3855 2518 1949 3626 2738 3452 2809 2224 3933 2663 3488 1559 1705 2730 3412 2609 3246 2242 3285 1853 2555 2680 2262 2130 3418 2089 3973 3041 3421 3330 1546 3358 1744 3043 3269 3715 3940 2375 3703 3215 2771 2696 1523 1571 3846 3960 3637 2429 3749 1954 2276 3317 1658 3173 3337 2978 1979 3964 3761 2888 1998 3755 2933 3226 3833 2241 2678 3733 2496 2568 2649 2512 3490 3807 2392 2720 3047 3299 2723 1939 2236 2045 3648 1997 1686 1602 2564 2266 3840 2244 3133 2605 1886 3006 2231 2434 1635 3905 1514 2144 2240 3490 1883 3321 3585 3016 3171 1638 1974 3707 2131 2304 2073 2838 1911 1803 1550 3582 3079 3704 3205 1890 1760 2688 2224 1917 2645 2808 3224 2588 2649 3670 2489 1909 2921 3581 3620 3436 1819 2451 3905 1905 3746 1715 3317 3504 2044 2562 2975 2418 3573 2960 3699 1900 2893 2142 3772 3042 2205 1741 2018 2892 1976 2847 1727 1666 1866 2320 2414 3579 2843 3206 3701 2394 1739 1537 2959 3039 3629 1795 2917 1555 1618 3562 3952 3430 3642 3277 2038 3469 2118 3885 2672 2495 3430 2281 3387 2404 3212 3817 1514 2525 1516 3543 2983 2462 3337 3409 3993 2407 2824 2755 1928 3217 2674 3476 2244 1734 2796 1720 1787 3907 3795 1671 3995 3062 1509 3445 3383 1623 2556 2251 2854 2982 2991 1991 3242 2992 2061 2147 2199 3559 3472 3192 3580 2773 2775 1652 1615 3813 1618 1825 3148 2833 1838 3459 1957 3419 3661 2666 2348 2000 1903 2883 2186 2743 2139 1679 1511 2470 3655 3350 1555 3636 1506 3647 3107 3814 1755 3169 2108 20 32 47 66 1 17 35 85 27 92 17 23 12 16 25 34 60 11 73 8 52 33 34 77 6 60 7 42 38 40 37 98 44 80 79 42 69 18 71 64 73 35 92 97 51 80 35 34 90 97 13 37 60 67 46 2 77 58 11 6 71 23 50 38 31 88 32 36 63 81 5 82 94 90 73 13 32 65 60 91 38 32 46 80 14 3 91 6 36 61 41 16 85 86 78 52 30 3 99 0
EOF
