NAME: family_A_random_n300_s0
TYPE: TSP
COMMENT: family_A_random generated explicit tsp
DIMENSION: 300
EDGE_WEIGHT_TYPE: EXPLICIT
EDGE_WEIGHT_FORMAT: FULL_MATRIX
EDGE_WEIGHT_SECTION
0 3751 5482 3619 4646 4043 1540 2663 3231 4551 4337 6509 6487 5328 9046 7330 5742 3065 3876 7046 5829 5753 3515 658 6659 6526 5990 3145 4718 8283 4390 882 5277 8455 2254 7603 3075 1750 3430 2572 3577 4381 1633 3739 1246 6861 3612 6148 5681 3748 4777 3590 5506 7906 7647 6019 3070 6813 8628 3940 7359 6416 8509 4186 6324 5258 5391 5025 4329 7533 3516 5273 3810 2759 4511 5299 3782 6212 2954 4640 3518 3524 2794 6216 6389 4554 2617 6282 5857 5142 3026 5477 1415 2144 7389 6434 4508 667 3541 8145 2822 5585 3464 4504 5878 7826 3447 3215 3885 4265 5265 1282 7894 4505 9283 8782 5376 3736 5984 2124 5430 6091 5085 2115 9188 2683 6430 2906 6493 4967 9149 7165 5965 2678 8473 9201 2830 6448 7628 1074 5878 6676 8485 5124 3606 5840 3700 5426 2496 4425 4429 6778 9261 6125 4216 7838 4372 6688 1396 4064 5296 4638 5592 6621 3181 5493 5936 5928 3937 2856 5305 8470 5465 7420 7608 9106 4875 2565 4049 6546 6950 7169 3649 6770 5897 3079 3185 8726 3559 7187 4951 6030 2597 2352 5939 9529 2635 5353 3804 5667 5809 4875 2228 2545 8800 6790 4038 4636 5511 3138 6134 7508 4294 4594 5117 8799 3491 1993 4244 6292 3731 5431 3955 4666 9075 6451 6101 3263 1401 7341 4937 5124 5323 8575 5918 2405 4888 6354 6386 1907 3584 2430 2957 3479 6029 9547 4334 5251 8300 3939 3416 2591 2999 7862 4359 5571 2099 2608 6193 3235 5820 5870 8790 5876 5506 7128 4454 7259 5409 5249 4477 3214 6481 7968 4162 3303 6783 6839 3740 4042 3625 5104 1680 4411 1232 4427 6862 2974 8838 5314 5085 8307 6803 2236 7497 8178 6606 4316 8440 5380
3751 0 4995 5383 579 1630 5998 5818 4158 4123 4992 5147 3484 5857 4083 1243 2184 6138 2376 2988 3205 3588 5421 3221 2703 5111 6545 7064 6239 6676 665 4289 9718 4079 4794 6042 4945 8023 3158 4324 6426 3211 3326 6960 8009 6098 3013 2404 3322 9284 3995 4532 2528 3896 4114 7455 4600 5113 6316 4087 5576 4590 7907 1340 3927 4288 3910 5054 4240 8330 7533 5522 7624 4230 9454 8196 7522 3928 3968 4270 6182 2127 7742 6837 4924 4063 5954 3267 4067 9368 543 5352 7148 2288 4800 6150 3730 8772 3925 7861 5801 3619 5731 5882 3078 6034 4521 1752 4240 6365 8365 3074 5664 5625 870 1933 6271 3854 7488 6196 3725 2151 6677 3405 7536 4131 4530 7580 2937 1984 3979 2869 7633 8830 2514 4838 6669 8430 4881 4647 9429 5194 3611 2622 5796 4983 3476 2328 1944 5162 3989 3879 5727 3707 3485 2082 4901 6609 3179 3477 1800 4988 3638 2632 5658 6723 5113 6215 2583 4758 2618 4938 6124 3298 6733 4129 8167 5463 7224 8515 4293 3689 4993 7499 4520 8567 5202 4818 5553 5998 5278 5077 6304 5659 2708 9140 5393 3829 6125 5302 3124 6340 4352 2331 6090 9019 6812 8726 5036 5584 3454 2731 2455 8805 8096 2745 5974 5921 4492 5834 9803 8949 5401 2315 4308 8514 3622 5832 3879 3519 7915 3600 3287 5294 5465 4318 7735 4842 2586 1376 4501 8703 6248 4416 5777 2010 3931 8506 4043 7080 2726 7057 3594 5060 2657 3524 6422 5945 4304 6757 2873 5616 3759 4995 7364 7360 2909 3083 4957 4478 2531 5962 8436 4888 3780 7315 3119 7849 6320 2123 3619 4376 7668 2153 4918 3201 3721 3654 3650 5576 3078 5199 9366 4262 5963 7261 1712 3932 1975 5958
5482 4995 0 6824 4273 1454 4726 7077 4434 6993 3042 6334 6153 7009 4012 8871 5835 7141 3387 4544 6697 3994 5769 2988 3655 6798 4408 4930 5893 4411 8512 5571 3869 4583 2112 3093 5583 2115 5582 7632 5747 3533 4137 3570 4093 6084 9471 2251 1365 5045 2854 4409 4079 4465 7191 8149 1681 4284 5674 6214 5735 6452 6211 2085 1559 2771 3347 3450 5451 2846 5464 5151 5494 8287 3462 7671 7821 4342 6419 7007 6346 1259 3439 8105 5883 4556 6575 4568 7938 6914 2085 1893 5680 3166 4908 6905 4517 6765 7811 9671 6455 7831 4719 5662 3163 6138 7558 6623 8903 3693 5598 5333 1344 3965 6906 5929 4039 3216 2242 2162 7114 6016 3722 3708 5734 6181 5489 5216 1708 1737 5076 1914 4452 6800 2533 1483 4746 9109 9702 3119 4638 4640 6315 3707 4403 5160 6216 4473 3910 6135 1687 5095 2676 653 2661 1858 7279 5784 7358 5557 5123 2165 5738 4442 5506 6074 3939 4392 5197 5546 4180 4442 6261 2413 4724 5978 4163 6546 2061 6507 7754 5862 8400 5603 6503 5715 3701 6656 5177 8323 5303 1212 5141 6991 5927 1138 6432 2712 6028 4837 8122 3194 2259 5126 5386 2919 984 766 9117 5105 3940 5735 4301 5003 2755 8596 3490 4307 9590 6305 5341 7236 3513 6430 6934 8448 4439 4381 6509 9025 3625 5927 2476 5047 3025 8563 3348 6572 2061 5950 4430 3210 6313 3814 3769 4390 1638 2355 5706 6890 5919 5338 3737 7338 3078 6648 6200 794 4743 6605 2012 3403 3043 5088 6910 8084 4741 5929 5944 7416 6311 4490 5213 2711 6497 1970 6619 5297 5408 5779 4966 8358 3879 2988 4339 8744 2987 4839 4969 6346 2328 6187 7606 7037 7914 6517 8618 5030 4810 5113
3619 5383 6824 0 4560 7252 4104 4330 3723 3017 6222 5785 3117 7998 6157 2188 3584 2210 3515 8462 8616 9368 4299 2583 4883 4180 1533 5028 1587 7334 5493 4088 5055 1591 2976 3961 7909 2756 3773 7119 7834 5237 3481 2672 3084 6018 4167 1911 4929 1432 5770 7873 5122 5523 6867 6440 2391 5165 3054 4833 6597 6652 7124 3752 3722 4727 4326 3375 8060 4495 5678 4915 6339 3917 1193 6820 1916 7864 6503 4300 5239 2146 3516 4849 3685 5433 6328 3489 7872 5656 5137 4277 3560 3944 6629 6481 1238 3924 1334 9141 4021 3252 4654 8040 5604 8733 4639 6263 6246 4661 5723 3634 4647 1349 5001 8544 3246 6165 2890 9300 4249 6121 1911 5603 8251 4484 2205 7386 2222 6220 2883 5772 7371 4087 6003 5742 6292 3084 3626 1874 6004 4725 6148 6968 4735 2462 5993 4587 6898 4887 5403 7896 3397 5970 3591 6203 5421 3700 6571 3701 1417 7219 7675 5417 1758 5268 6118 3401 8363 4570 5238 4499 3529 7077 2764 4725 4154 3893 3573 5656 2006 9269 5076 5865 1882 5713 5333 5900 3626 3961 9845 1302 1661 6058 5369 3766 7489 3864 6924 8323 7878 2318 4714 6251 4817 3133 7360 1405 4889 4056 4150 3492 4665 7020 5020 5478 6272 6281 5565 5414 5305 5025 6587 8377 5233 5104 5750 1285 8085 3286 5288 3154 5626 7412 3367 5224 4029 7922 4724 3318 3735 5624 4214 5297 3836 4704 4476 2223 5747 3702 8567 4514 3073 7643 8945 2244 3820 2525 2177 3138 5255 5244 7761 3799 2673 3570 6550 6306 6330 6495 5726 7668 6159 4899 8627 2421 6018 3436 4106 2808 4875 4985 7329 5686 5492 9012 3054 6981 4867 6553 6491 6466 5933 6232 1779 3368 2530 8868 7324 3688
4646 579 4273 4560 0 4916 2720 4560 4028 5178 4334 4175 2339 1871 7359 3709 7988 3605 6622 1382 9364 5627 4040 3824 6687 649 3173 3913 6917 5122 7993 4483 8254 3860 5833 5008 7714 5150 3512 8584 3902 5048 4125 4695 5879 1806 3257 5585 3104 6309 8220 1138 4763 7695 3613 6218 8912 7633 9558 4212 3850 5163 4512 7431 3345 2046 5254 2644 4847 6029 3285 6389 2729 4987 4892 4801 2954 2001 6697 5663 4589 2526 6058 5589 4463 4468 5118 2962 4136 5053 7911 7193 5876 7851 6180 3849 7509 4161 4252 3338 5589 3406 7529 5175 4919 4629 3501 3058 5101 5859 6843 9017 5782 4039 2386 3714 5239 2787 3320 2388 3822 5286 8589 2612 2751 5724 4661 3514 7152 2701 6520 2970 5419 3799 4659 1354 4779 5442 7591 5511 4154 9690 4863 5690 4705 6204 8499 2084 3592 410 7073 1780 5742 5217 6709 4821 6261 6726 6758 4181 5532 3021 5822 5253 1780 7640 4384 3290 6380 4736 3935 1411 5000 5379 2614 5292 7703 7953 3691 7260 6045 4934 5108 3783 4612 4403 2925 5386 6596 7029 4627 4914 6057 7759 5654 2643 6102 6319 2875 2383 8898 8192 2038 1268 4680 6744 6093 4226 5404 6008 1731 3163 5956 7869 5148 5492 4839 6332 6332 6004 6131 5435 3563 5201 4758 5329 7045 3228 2619 6350 5055 4487 5065 8124 4058 6526 8313 4232 7471 4680 5155 4531 6516 7131 5298 4159 6961 2454 6563 2437 4994 8409 6461 6917 9851 3802 8620 5269 4608 6923 2215 8556 3232 3220 5098 4419 2257 3774 3327 9643 5313 3417 6665 4947 3908 3000 7615 5913 4704 7544 5854 2301 3308 3729 8117 3260 6675 2932 4394 4563 6255 7741 3314 6998 4543 2155 2701 7788 7219 1889
4043 1630 1454 7252 4916 0 9603 5448 7505 1720 2727 4755 4509 2876 5415 4847 5215 5103 2055 6175 5754 4758 5009 2822 2794 8975 5227 5020 4802 3963 6108 7015 5206 1185 7712 6707 5767 4686 4943 5057 3830 5356 3313 6870 4202 4144 4507 7640 2488 7934 1662 5771 6414 5341 6136 5032 5002 2439 2882 5613 6992 5705 7037 2786 5895 5461 4842 2809 2835 1534 4777 3927 3042 9295 6139 6241 5763 6885 4762 6103 3814 5121 3485 3536 5653 2316 5783 6230 5191 7143 1643 2267 5406 4271 7465 5919 9040 3276 6005 9345 9128 6683 6883 5398 1675 4661 4158 4711 5246 7620 5447 2781 5841 3091 5837 3930 5376 3887 5198 5076 3934 3537 2121 6879 8173 9759 4087 2684 4838 2835 6260 3433 5187 5665 3099 7920 3357 4044 3920 8712 5162 3682 3290 3549 2032 1749 5345 4850 9073 6622 6398 5242 4931 4668 4310 2574 3124 6573 4165 3999 3504 5887 6453 8016 5861 2745 4030 3529 1740 3368 2340 5305 2413 365 2717 5408 3258 2560 6518 7227 6621 2409 1131 7524 6536 5203 4123 4955 7820 3636 5220 7373 570 5491 3403 7989 4766 6676 7388 9013 7190 1624 4059 4089 5918 6402 7862 1937 4039 4469 5325 3717 3357 6125 6315 6022 8876 4994 5164 3152 6377 1995 3867 4822 5651 3843 3831 3602 4860 7896 6158 5357 4377 7408 3152 5747 7407 3704 4838 6999 5667 6166 5755 7107 7601 3424 8385 3409 4967 4270 3386 4920 7824 7166 5955 6628 6060 5767 4519 4953 6917 5247 6375 5952 4324 4574 7943 6088 6212 4093 3838 3985 5892 5835 7104 5096 5134 3264 4660 6090 5320 4208 5817 4468 4214 6106 6333 5443 6609 4108 2938 6915 7015 3370 5473 2633 4265 5384 6975 5663
1540 5998 4726 4104 2720 9603 0 5005 5991 7361 4484 8152 6466 4918 5493 2781 2815 5860 7628 4209 8838 8953 1756 7791 7514 8839 6923 5731 3742 7129 7165 4520 7121 2581 4284 6312 8446 7052 8207 200 5468 2924 5011 311 6406 2524 7294 7061 6284 3717 5628 5146 6456 7022 6950 5714 7523 4969 4724 8218 1574 4856 4916 7040 5693 5878 6710 3476 4912 8167 8421 2144 9098 3048 4281 5310 7503 5732 1479 6298 3829 6657 3669 8278 9123 4112 6763 4538 7355 8773 5051 5992 3223 4050 709 2860 2849 4874 4621 1292 2277 6909 4912 3973 5630 6874 1848 6169 9361 3843 3893 6028 8318 4883 6486 2359 4126 6855 6273 5024 4158 5784 6548 3944 6971 7960 6694 5081 2533 5437 3684 7280 8072 3208 4354 9065 3409 7880 2306 6782 4292 4777 4421 3250 4448 6037 5152 5747 3785 4994 4167 5083 2791 5894 1961 6888 2319 5822 5515 5128 5916 4857 5308 7318 2167 7773 6580 4647 3532 2689 4107 6546 7263 4576 8643 1503 261 5188 5818 7761 7034 5396 3131 6075 3732 6095 5011 3121 3364 3260 6746 8095 7360 3396 2583 1933 4404 4813 2740 5579 6278 3007 7295 7044 7500 3299 4119 5138 3585 6615 5957 5339 5773 3143 3815 3453 6693 1550 6310 3073 5404 2379 3803 2235 4368 3882 2310 1043 6369 1385 2535 4589 6442 5719 5434 1623 7128 6896 2767 6535 7812 6920 5014 5255 1232 1790 6172 7771 5128 2999 3703 6602 8416 1039 9295 4194 3440 6708 1131 3649 496 6749 4350 5717 6979 8034 5895 2579 5727 5054 6197 2757 1533 2405 6469 7000 6573 7601 5241 6406 6805 2633 2142 3085 8783 4812 3500 2963 5566 6018 7555 4940 6572 7338 2911 7078 9284 1074 3462 1671
2663 5818 7077 4330 4560 5448 5005 0 6509 4406 4102 6523 5156 4466 1337 5712 7676 5360 4287 6179 4799 1757 3054 3652 2824 5541 2924 5758 4514 8916 4360 7853 3308 8690 1861 6582 6805 6435 7354 3493 3550 748 2328 6847 6940 8585 4900 2628 5633 8854 9306 3294 4467 8684 7062 3865 4794 1922 5828 8143 4760 4349 1394 2314 4846 5708 1906 7745 5581 5091 1265 4969 2302 3562 5928 7754 7416 6327 1735 7019 7994 3440 7111 8649 6600 3266 719 6599 3957 2377 762 1566 4629 2534 7691 7215 4279 5171 3667 4657 7386 5533 7394 6195 8632 2265 5508 2964 2389 6538 4940 4570 8083 945 4226 6755 8886 3198 4398 2747 732 6871 5933 5306 2759 6877 6927 6758 2667 2302 5062 2406 2816 1697 6679 3177 7879 4965 5542 8667 4676 6665 4769 3964 8368 5788 230 8069 5461 4432 5153 5738 9090 4066 7334 4619 5319 4915 8938 6680 5918 3894 3152 6100 5750 9631 4285 5246 9636 7504 7215 2316 2739 4352 4772 4941 9170 7443 6216 9463 5177 1637 6444 5404 4636 6513 7090 8069 1806 5831 1619 6280 3934 6173 6181 5589 1822 2867 8032 6572 3963 5202 7629 1909 5375 3513 6315 4866 3259 5417 157 1971 6841 4586 6425 3372 2474 3852 4223 893 7197 4721 6732 8973 1885 1645 5882 7534 2660 5042 7582 5322 8115 5674 7497 8299 3618 2726 5738 5013 2334 5704 4716 6860 3230 6773 6043 7882 7995 4645 4013 6497 4274 5018 8436 3451 4062 5172 5060 6490 7038 5645 2706 3172 9314 4349 4409 5428 5458 8198 7288 3531 6330 5343 7798 4526 5049 7449 2285 5743 4822 557 9139 6153 9516 1958 2041 4917 3954 4107 5721 5717 4642 5455 5772 2886 7694 5077 5207 2613
3231 4158 4434 3723 4028 7505 5991 6509 0 3627 4832 5480 8142 6821 5724 2244 8693 3851 5790 2564 1024 6605 3173 8445 6459 6995 6586 6701 4670 1785 4637 6963 8585 5490 6685 6096 6267 6573 2026 3774 4895 2245 3487 3689 6365 5364 6532 5156 2023 3577 5162 6713 7573 4916 3441 7361 2053 6077 4297 7699 4011 5065 3386 1569 6911 1946 2340 3566 3219 5070 8079 5079 7790 7223 3723 3375 3873 1796 7953 1139 7494 6673 3997 3124 4267 7495 6694 3443 1942 2187 8061 2670 5787 750 2644 6313 4386 651 6959 2575 5929 5241 6700 1685 4390 8573 8329 1604 7861 3073 2997 3708 3829 9618 2170 3746 4207 8746 6146 6768 8599 8123 3632 2072 7131 2840 4865 7008 1219 8481 8627 4545 4316 5615 4633 7337 4138 2491 7569 3808 4904 7020 6125 4894 7461 8394 3637 496 5329 3389 2498 3510 6421 3614 7150 3446 5175 7388 6616 6692 9292 5252 5351 4383 4076 3171 7446 6997 7906 2210 4646 4158 4975 3814 6671 5445 1782 3614 5183 6975 7057 3179 548 3617 6296 5655 7582 7581 3704 2373 4435 1372 4711 3188 3325 8060 2644 5532 3949 8247 6747 7589 5914 4467 7824 3579 4273 5316 4443 5578 5960 2808 6176 6725 6376 2430 6379 2145 4934 2775 6612 6119 7431 6650 5899 4758 2899 6300 7233 7387 1637 1664 3595 5475 7230 5733 7683 1232 2549 3321 8475 3372 3938 1576 3829 5323 9741 3811 8675 2704 2063 2023 6651 3982 7672 4233 3893 3876 4686 9781 5432 1286 4503 5087 1265 7653 4301 5620 2543 5069 5096 6866 3503 8747 6737 3129 5071 2935 3652 3263 3144 5494 4829 4012 8751 6295 6825 8095 1506 2705 5752 3199 5363 8183 1327 6451 6218 5199 5271 2068
4551 4123 6993 3017 5178 1720 7361 4406 3627 0 4123 1853 2644 5156 767 5696 4406 5694 4778 6120 1840 3729 3033 8663 5253 1611 8712 3602 5152 7752 6134 4933 5854 4749 7663 4262 4383 982 923 8668 8877 7343 6118 6094 4442 1696 1988 8417 1871 4407 5165 6870 4435 4558 3775 3338 362 7403 4154 2886 281 2023 4277 5792 5320 8428 2106 6906 4352 7846 7266 7748 5393 5839 7562 3914 3529 5385 7197 4186 5903 8603 2676 7547 4825 8748 8314 5709 1261 5503 6792 5040 5270 2818 6250 3770 9587 9397 5296 6079 3503 5626 5968 1856 4049 3739 2159 6794 5431 5054 2239 3505 5008 7268 4420 3856 4629 3245 4044 8423 4028 6931 6692 9404 4008 7077 2218 7480 4423 1187 6196 8588 3293 4998 4520 5046 7426 3248 6254 6764 5796 7395 7092 3720 7161 5782 7965 5027 5726 6050 5425 6968 5277 8349 7207 6229 6286 9423 5241 2370 4776 3595 7488 367 1866 5238 9146 1784 4660 2374 5709 6106 6337 7410 8545 755 4738 6406 3487 1317 8442 5841 4303 5053 1625 3483 5140 9733 8218 5765 6670 1500 4829 4345 9246 5772 3944 3958 8227 6709 5520 3903 8755 1726 2185 5430 4131 2051 4788 5444 8546 4309 5608 3983 1088 4137 7345 2063 4123 2064 2367 3247 2631 8005 6534 9003 2663 3380 2773 5544 2472 6773 6614 8091 3530 6400 6814 5781 2876 2402 4383 2182 8060 6189 5010 5593 2877 5416 9265 6742 6721 6381 3829 4247 3183 4982 7381 8386 4308 5436 2430 7104 6209 7088 7351 5467 2108 2743 5389 4757 5137 8355 6626 7181 5195 2560 7816 2821 4144 5508 4584 6887 7287 4676 3007 5292 3874 6620 1103 4800 2781 6541 6867 3622 6182 9530 6879 7378 1780 2585
4337 4992 3042 6222 4334 2727 4484 4102 4832 4123 0 7696 5834 6643 3557 4717 5980 5651 4672 5156 66 6802 3462 6645 3582 3755 7361 9512 7642 6094 7740 5265 2707 5565 5184 6314 5974 5489 4810 6513 7937 7505 4663 2767 8706 4379 4623 3188 4313 6854 8406 9708 6347 2223 7490 4303 2126 6910 6985 5845 8053 6705 5871 5135 7243 4125 7532 1807 6427 1475 2024 4913 5099 3424 5910 5500 3251 5697 6686 5717 3048 1845 1626 3181 2295 6634 2629 1549 3316 8334 7560 3958 5968 3208 6976 6214 4939 2401 6114 4942 2932 7490 6166 5814 4717 6371 5133 3739 4139 6846 4910 4883 2744 8426 8153 3193 6650 5411 5635 7160 4966 5519 6102 3112 5828 334 5140 2483 6218 1587 8698 6985 917 3107 1490 7502 7261 8667 7197 6631 5814 7866 6167 3452 7584 6807 4805 5423 3338 6498 5127 2848 4518 4087 3519 6460 2564 3333 2574 3294 4317 5213 529 6718 4317 4804 2934 4560 5766 4440 6707 4080 5979 8124 5744 3950 6699 2248 7573 2090 5971 7749 4877 7737 6497 6466 2210 6707 6819 9190 2136 6336 3596 3677 4826 6910 2187 5105 4588 3962 6164 6550 5709 8920 4145 7238 2774 6202 1913 6570 7837 6467 4314 7537 7045 1697 7775 6335 1481 7397 5048 5429 8033 6871 3211 6437 5159 6603 8147 4071 5077 4257 4160 2312 3216 4400 5743 5562 4190 4666 8657 2957 7930 2123 1991 4189 5495 2184 5341 8104 3761 6190 4882 4512 4856 1026 1695 6453 5049 5006 6368 3058 1856 2839 3175 5226 2647 8125 9020 3193 6629 1481 5449 2672 2239 4470 2064 4398 4255 4074 2271 4652 3164 1832 5705 4861 3347 6694 5293 3523 4099 4616 5258 5786 3866 6357 6121 4244 2903 5964
6509 5147 6334 5785 4175 4755 8152 6523 5480 1853 7696 0 5207 2698 2566 9040 8899 8531 2904 4132 4084 4495 9547 4698 5900 3576 4751 7268 4502 7480 7247 4345 5429 6967 4183 2339 2958 7135 7101 8951 4963 4110 5130 8272 7287 4228 3948 5181 4688 4804 5433 7652 4201 201 2537 3849 9620 2823 5133 6433 8427 5153 4609 2141 4483 3567 4397 3009 4983 8066 6807 5889 3067 445 3859 4935 3617 5175 3747 5991 4278 5657 6407 4132 8043 4587 6522 7563 2319 2363 2320 7388 6204 4844 6610 2898 4904 6549 1695 3508 4087 4729 2462 3287 5223 2690 3829 4493 6255 4918 7924 6706 7439 535 8449 3629 1162 2934 2714 6261 4223 5412 4108 6142 3988 6323 6375 2723 2771 5904 7577 8388 4760 6534 1699 2878 7627 4167 7964 6425 5490 6372 4835 7706 6220 6825 4950 5171 4380 1797 3765 6648 3413 1829 3200 7018 7538 1504 2341 2105 7123 6553 4234 1145 9570 3915 5114 7271 8674 3146 4940 8848 5131 5080 6476 3561 2565 2223 7095 3605 5002 1655 1119 4634 2620 3534 7340 3428 370 7839 4311 5636 7840 5913 8882 1435 6574 4004 5403 5955 3455 6527 3473 8063 8620 5863 4331 5774 3999 7216 3010 1740 7261 6936 5771 6155 7182 1818 9204 5609 7684 5583 5872 3850 4626 6506 864 4439 4250 6632 7031 9567 6644 6925 5208 5029 5546 5108 6485 8193 4646 4369 6277 5364 4888 3505 7052 917 5216 6619 8248 7376 3277 2350 4259 5750 6759 7549 2549 6774 5788 8787 4465 6826 5465 3536 6541 3682 6107 2654 3240 4617 8034 4109 7686 6139 2896 4479 7172 4795 6450 2323 1055 6349 5630 4473 3772 7594 1149 4747 5728 3982 3858 4919 7133 2552 3100 4849 4016 6999
6487 3484 6153 3117 2339 4509 6466 5156 8142 2644 5834 5207 0 1078 2081 5408 3435 2714 6877 5335 3813 5599 4231 6226 6914 7303 7812 222 5513 7432 4892 423 8489 5231 4192 3479 2624 2197 7232 4334 5896 4448 3242 3307 3140 6906 3513 3681 3063 4023 6798 2096 5531 3802 7852 4325 9222 5080 4378 8184 2671 3571 6827 5617 7972 2387 3009 3189 4693 3621 3933 1727 4124 3703 5835 3762 6056 2188 5250 2376 6012 6778 5600 5198 3854 1656 3379 4577 7814 7107 4001 8046 5974 5270 1173 4313 1921 5090 7626 1658 9435 5891 7417 1637 3963 2996 7272 1835 7924 4244 5347 6436 974 8448 7551 5859 8141 4446 2736 3469 6295 1679 4104 6322 1407 4992 3782 1714 6543 2132 9045 4661 6160 5994 6611 4848 3846 3173 1930 7599 5492 4470 3561 4098 1173 7797 2589 6932 6761 4270 4774 5038 3196 3408 4895 2266 6254 8699 4039 3000 1990 4818 1905 5478 5595 5071 7653 6260 4657 2450 4393 3052 1516 6278 5177 6270 4508 8210 6158 5199 5013 4726 3872 3302 7481 4968 5674 4246 8007 5723 7013 2281 5121 5227 5390 4832 4477 1513 5673 4797 6340 2038 6934 2807 3811 4920 5428 5922 6465 8266 5836 1149 2913 6301 3694 4778 1154 5211 540 4639 6770 4892 7484 5761 2334 5293 6273 6451 1635 4960 5236 1807 6571 3896 5232 8079 7630 5167 1156 5844 3775 2482 3489 6426 1929 3544 1706 6216 4857 6151 7881 1666 6221 4899 7138 4221 3067 5919 3829 4972 4765 4937 7506 6162 9171 4121 5032 4742 5037 2681 5446 792 3228 3813 4929 4864 4772 5828 3339 5624 6355 5583 5065 2609 4151 8341 6555 5123 6384 6991 4991 3604 3036 1901 6209 4535 5136 4979 3495 4021
5328 5857 7009 7998 1871 2876 4918 4466 6821 5156 6643 2698 1078 0 2451 4332 5711 1654 1506 4975 5704 3562 3715 3781 1959 4489 8920 3956 4797 4820 9708 6916 1878 191 4883 3665 4645 3524 3275 2513 5720 8210 3282 4348 6189 6799 5996 3127 6250 6953 3588 5985 5254 8591 8363 3744 2494 4854 4299 3790 3302 3138 4027 3802 4864 7322 7097 7627 4524 7479 1967 3107 2841 3336 2647 6167 2444 4723 6249 6062 20 8383 4918 5122 7103 7303 2996 3840 3406 3845 4413 1276 8186 6346 4265 7717 5034 5344 1614 5060 5949 6616 3826 4789 5452 7239 4859 1766 112 1477 6532 6786 2610 8113 5861 6574 3178 4560 4307 2540 6704 5979 6865 2592 7281 3665 4389 1965 7369 3521 8728 6473 4872 8424 3954 6739 4471 4475 2337 9457 5098 3203 6471 7821 5619 2439 1680 7180 8021 2936 4939 4053 2776 6437 4634 6066 2710 4721 6723 5786 4599 3638 680 2830 3005 1689 3949 2196 6753 4660 2158 5072 9299 4301 8476 2986 1309 2362 5110 5384 3799 2712 6346 5326 6520 3239 4441 5029 1881 5399 4202 4974 6057 4057 5547 6068 5088 4194 2870 9096 9169 4305 5275 6534 5071 5881 4776 7642 5530 7339 4087 5327 4560 4460 3578 3320 4491 3774 5432 6343 9488 5773 4248 3242 7883 1782 3327 4641 2287 6770 2584 8600 7027 5789 7145 6730 6320 3118 1732 3574 5238 4318 8893 4547 3278 2835 8881 6874 6860 7534 383 4411 6188 2973 8242 4170 3165 5207 4355 7455 3508 7824 7189 4817 4609 2451 6521 8065 7422 2004 5147 2838 1415 5253 2464 4934 3445 5574 5719 4002 2974 6088 8183 5156 6428 4435 4242 7260 7587 2602 2837 4640 6756 4355 1922 2463 2958 7062 2579 1793
9046 4083 4012 6157 7359 5415 5493 1337 5724 767 3557 2566 2081 2451 0 5710 2288 1785 1804 4521 4550 5240 4303 4586 6022 6382 6032 8436 6116 3804 5175 8730 9684 2433 7743 7579 6033 4452 7197 6333 7282 5675 8238 3875 3590 5476 2467 8473 5471 3017 1393 5225 4593 5037 6478 3015 6524 7086 4300 6011 5729 3560 6278 4933 6540 2321 4662 3951 3853 3116 1463 5757 4097 4885 2956 4997 5198 3687 6828 5248 1674 6700 7610 5300 5083 3756 3664 6417 6577 7777 5415 569 6124 3608 7520 7927 7955 6103 6603 3571 4024 4617 4033 4824 6616 1078 4533 2646 3836 3681 5572 8428 5632 8574 2900 5042 4239 4980 1107 1132 6191 8257 2968 5836 4187 7182 3277 4795 7350 3940 7257 1586 2925 5192 4470 5059 1172 8399 5824 5966 3686 7359 8866 5815 4569 4466 6661 5471 1904 7123 873 7056 1698 5746 8956 5053 1988 5426 4983 6425 4301 2792 8439 8818 3277 3888 1574 6148 5290 5688 3147 4772 5495 6060 7325 4690 8527 2722 5163 4904 759 5672 4676 6532 4367 4878 3764 6156 1401 3879 5786 5327 3959 3477 7546 3932 4401 7494 4769 7444 5877 5899 4268 6212 6113 5676 4114 2330 4675 4229 3554 4994 6236 3586 7210 7921 4649 648 2965 8485 8011 7027 4911 6146 6147 6765 1103 4234 605 9496 3094 6621 5716 7582 7237 3908 6501 3890 771 2376 8742 4228 5861 5385 5216 2438 4975 6213 7262 5859 6103 1906 3810 3017 9102 2727 2733 5933 3719 6861 4996 4678 1221 2819 8463 4647 4627 6334 2190 5147 6600 2704 1136 7009 7529 4642 6739 1172 6647 5482 1259 4735 6673 4590 5240 6125 830 4897 5170 1564 6687 4379 5786 3745 3514 7185 6494 3917 1366 3639
7330 1243 8871 2188 3709 4847 2781 5712 2244 5696 4717 9040 5408 4332 5710 0 7316 4336 7780 4865 5075 8984 3255 3653 3758 3700 8165 4623 4398 2993 3697 4470 1466 3691 6766 1725 4765 4343 4663 5730 5871 2067 8984 6967 947 999 1392 5885 2571 3446 980 4100 4082 6144 5582 4559 6858 5918 3258 4057 5364 6947 4797 6153 3186 6870 1999 6132 4125 5943 2835 2750 5039 5655 7641 7099 6271 3818 9052 4178 6542 9277 6519 8274 3658 3274 5339 2324 7595 5869 6562 1737 3787 3453 5979 4178 3332 6563 6716 5983 6920 4605 2583 4758 8179 1864 8616 587 6184 6531 5998 9784 2498 6716 3791 3341 5476 2785 5389 6814 5038 2971 3512 5909 5881 4578 6995 5015 7338 3882 6118 3636 5495 5438 4603 3617 4011 602 7697 3951 1480 4354 6135 1524 2375 6035 8476 2731 3587 4509 2758 7258 5623 2421 2836 6215 2613 8521 3709 6016 5604 3397 3083 5064 4255 3365 6246 7970 8591 794 5487 4498 4947 3363 6021 4288 7604 2497 3468 7452 2714 3283 4725 2397 4955 2792 1934 5368 1287 5639 3156 4642 4880 6097 7848 7202 3880 7360 6868 6115 2897 1063 3428 7826 4111 2610 8014 6119 6257 5123 3587 4676 7707 4632 4714 5878 583 2512 2675 4903 5069 8010 6622 4655 3118 4837 5958 5482 7167 568 6021 6457 8432 8083 5898 5308 5071 5371 6633 8016 2240 3221 6583 7883 5137 4438 3973 5756 5584 4935 5155 7962 5861 6298 4208 5946 8840 8091 5487 4710 1856 9500 1050 6208 2381 6591 1620 1723 5742 6451 5459 6108 2383 5157 4531 6156 3896 3233 2856 2831 7471 6291 4717 3902 3445 5098 5969 8193 4089 3960 9149 5661 5284 5798 7142 2528 4611 6108 5902 4578
5742 2184 5835 3584 7988 5215 2815 7676 8693 4406 5980 8899 3435 5711 2288 7316 0 2907 4602 1730 9256 1684 4904 4342 5029 3684 7180 3802 5754 3177 7559 5469 5712 3733 5880 7371 6546 3427 1593 7139 4781 1625 3590 4752 4119 3577 5755 3377 5198 1866 7462 8794 1168 7113 7697 5932 6042 8223 4320 3572 1587 7277 5028 5692 4817 8303 4644 8572 7717 5379 3906 3131 5936 4470 7864 4222 2563 2291 3785 2709 3093 6287 6529 2815 4415 8141 8135 5371 2139 5082 2039 7869 4362 5261 9125 6634 3815 7914 2288 6384 6026 6510 6757 4699 3788 6081 6999 3241 5534 969 2139 4213 5242 5491 2834 4387 4861 8908 3372 8710 3582 6185 6229 2273 8143 6667 2143 4428 8813 5321 4978 2745 4273 4643 2474 2499 9265 1706 7555 997 6668 6254 6851 977 2538 4776 5419 6302 3407 5868 2311 2908 6217 6919 6747 4251 6116 3861 7456 5905 7246 5901 6302 1776 6982 5245 6148 1554 5510 2442 3648 4541 4587 5883 8639 7480 1340 5235 5524 9350 3219 6454 9222 3082 4400 2971 7373 9206 1093 3940 4040 6694 4218 6645 7434 6532 5269 5262 3234 3150 5927 7026 5558 5521 2163 7898 2768 7458 1350 4588 7074 3092 2980 1622 5169 7892 8326 4918 9474 5065 7164 3845 3304 2147 3733 5407 3832 5312 8012 4904 3014 6005 6045 1826 2176 2253 4264 5015 2190 4250 6468 5949 5927 8000 4003 6841 1012 7670 6860 4156 9302 4483 2918 886 3021 1979 5864 7082 4027 3386 3577 5297 3464 5281 4029 5768 8135 8543 5541 3770 1809 711 3673 8069 5585 4220 1648 3890 5450 5573 3383 2610 4412 4277 5086 2125 4008 889 3041 6374 6613 4004 4100 2462 5313 4633 8035 9073 4409 1244
3065 6138 7141 2210 3605 5103 5860 5360 3851 5694 5651 8531 2714 1654 1785 4336 2907 0 1655 7966 2948 4562 5118 2119 4282 5035 2605 8867 6077 3046 9074 3415 2637 7420 7280 5381 1540 5038 6127 5888 3713 5474 4375 1923 2843 5549 8077 6637 2533 5206 3768 2970 4854 6943 4406 7090 6949 4983 4138 5168 1475 6072 3552 3574 3374 6269 4771 5226 5139 4158 1724 2771 7580 6187 5072 3507 5234 3253 4143 3452 6058 4565 4223 423 4041 2525 5622 2890 4064 4676 4013 6063 6575 3509 4333 5852 6007 9425 7293 7336 3296 5724 5919 6061 3237 3437 5534 5580 5629 4487 7083 5292 2743 1943 7069 6618 1556 3764 7123 6877 6367 3417 8020 9146 3345 8623 1609 9239 2445 2296 2716 6071 2567 4637 3098 4809 4144 5730 6910 6291 5348 5070 5454 7902 4796 3872 4373 7107 3330 6098 6696 5034 4499 5866 2475 5738 1970 4610 5008 5314 3483 8178 6009 4536 5435 3008 4147 6226 5028 4035 2980 5108 6805 4571 3983 4655 1535 5909 6799 5044 3704 9892 4517 4090 4636 5450 8457 6781 6725 5272 1525 5264 5381 3414 7234 3645 6143 5562 6053 2523 5530 5679 6947 5310 4781 7125 1511 3114 1432 5102 3399 2986 1636 7379 9145 5717 2792 3622 4367 4440 8147 6145 6755 8434 2457 354 6046 3452 4566 3873 5012 5678 7445 7171 6210 8111 4530 1630 3297 5522 4718 5544 1690 5025 7894 6513 4955 5232 5354 5183 6450 3256 8694 3590 3331 2068 5399 3807 6032 1170 5893 4927 4219 4827 3033 3981 6890 5218 3059 5049 5450 1002 6904 1349 5096 4604 6802 5715 4541 2495 5310 2125 7733 7240 3075 5861 5222 3182 6217 5615 2920 3648 1126 6364 329 3919 3871 3223 3370 5470
3876 2376 3387 3515 6622 2055 7628 4287 5790 4778 4672 2904 6877 1506 1804 7780 4602 1655 0 3103 3383 1103 6212 2629 2161 7246 6093 1530 6496 6855 2330 6358 3454 6375 7175 5607 3820 3001 7542 9043 457 4287 4523 4366 4933 5211 2982 8094 4334 6505 3324 6972 5387 4217 2268 5256 6031 1889 4213 7270 5531 1587 2723 1917 2685 6358 4014 6854 6032 3046 6551 1495 5097 4910 2370 8370 7170 451 5279 7006 7080 8074 2841 4588 6567 5809 6365 3121 1151 8137 4355 3069 3185 2980 3397 7444 6811 6614 7042 5681 4791 6503 5348 5072 6967 6488 5584 7186 5907 694 7712 5218 1123 4252 7270 3862 8138 4840 6853 4973 3209 4779 4559 4375 2460 3332 858 4252 6792 4811 4251 7959 3722 4789 7408 6985 7130 3993 6857 9674 3482 1958 6665 4625 5143 3672 6308 6094 4986 4731 6661 8516 3643 8935 8530 4664 3429 3139 6260 4110 1633 2548 5925 4458 3851 3212 5126 4065 5051 6881 5019 3460 7641 6332 1838 7649 4272 7628 5979 4999 4602 5108 4690 5237 3827 4791 3712 3876 5910 1564 1538 3130 3259 6908 6051 5701 5656 8042 5778 5404 5273 3667 3400 5134 6394 2222 5512 5977 3926 9713 2492 4959 4500 5517 1121 4586 3282 5664 4032 4932 5720 8467 3213 7828 3458 5815 4043 8958 4647 5762 4616 2315 4401 1927 4455 4851 1495 4765 8085 8501 5080 6407 7172 2270 5204 3393 2869 3723 6061 4671 4884 5718 4916 8516 6503 4130 8304 5868 5967 1565 3219 3930 4510 3606 6046 6970 1019 3670 6607 6761 3908 3384 7214 7235 2274 8183 3975 6877 4267 3329 2668 5353 9265 3759 3786 4000 7527 4471 2275 7292 4936 6729 5516 5044 6513 8074 1599 8313 9502 5431
7046 2988 4544 8462 1382 6175 4209 6179 2564 6120 5156 4132 5335 4975 4521 4865 1730 7966 3103 0 3247 6170 1319 7495 4013 1922 6601 7496 4117 6962 4066 3830 3594 4725 2551 6919 2428 3874 7589 3535 4843 4656 6038 4772 3260 5842 9150 5895 5509 6415 5345 5907 2634 6994 4001 5776 4929 5046 5509 6752 2845 2447 7795 5009 9051 7606 8451 3123 4150 6172 3754 7392 961 6964 6848 6930 5675 7378 6811 3225 1742 5222 3925 7762 6945 3709 7376 7345 5618 8554 7516 3346 7556 5813 7394 3096 830 6249 6617 8637 5601 3158 5812 4866 5905 5710 9138 3354 3886 3792 4716 6201 3208 6254 6537 6055 5526 9011 3840 4972 5125 5517 3833 3984 2453 4526 5854 6432 1829 3027 7578 3341 6762 5434 4174 6331 7083 4691 5776 4288 3836 4106 6315 4322 8773 3419 1284 6844 4665 4447 3925 4095 4422 8010 3687 2090 5978 4665 5119 799 8499 6380 6723 6306 3445 2270 3666 5168 7069 1793 3339 6274 5015 2397 3702 7729 3804 3710 4990 3232 8223 5827 4217 7867 5543 4461 5797 4273 4699 7874 6233 5274 4317 5123 1460 4783 5408 5403 5193 2469 5147 2396 2058 4780 2633 1414 7143 2395 8907 4684 6374 6281 1387 2081 3781 9106 1238 3629 3227 5016 3507 4510 3950 3182 8465 6923 4558 4615 5406 6724 5449 3999 5436 5455 4358 4771 2346 518 4029 5625 5522 5722 9097 3462 3052 8027 5019 6399 4215 6947 7694 1936 3653 7951 6618 3949 6069 4694 4745 6089 7330 4109 2855 2828 8870 5731 5778 2437 5593 4931 9134 6189 3312 4757 2367 5310 7899 5790 3750 4819 4800 5254 5397 4855 9527 6032 5965 3225 5558 7278 5087 5103 1338 7372 3025 844 4150 3202 1749 5113
5829 3205 6697 8616 9364 5754 8838 4799 1024 1840 66 4084 3813 5704 4550 5075 9256 2948 3383 3247 0 5219 969 5943 2954 4275 3382 6348 7600 4974 4438 5561 4141 6231 5325 4332 4539 1752 6259 5276 6577 6040 6780 5834 2652 3958 5634 2918 4705 1561 5181 9041 3428 3434 1656 6102 4592 5869 6089 6423 695 7502 6923 4298 3633 8942 8092 3450 7505 5073 6339 7620 5318 5572 6669 4789 4587 1550 6224 4653 4061 1543 1253 5448 4828 4790 5082 7223 2170 5129 5977 6923 6492 3325 650 5807 2053 5369 2258 5156 5150 5045 4471 1480 6163 5442 5776 7415 7164 1008 6741 7290 6567 5497 7135 4330 7386 7531 4138 7489 4738 5799 3442 2312 4688 3389 5542 4674 7330 4501 2212 6412 4940 2669 5983 6778 5936 4079 6725 3632 1714 8675 6932 3360 4347 4365 4518 5488 8565 4035 910 5544 7917 7849 4218 8459 4276 2419 6465 2251 7910 7212 6430 4673 3984 6146 1920 2572 4168 4640 4954 5818 6667 3146 1354 3253 3049 2428 3635 2477 4790 2278 565 1974 3002 6519 4356 5089 4819 7028 6986 4785 6966 3607 4045 5846 2319 2474 5405 5209 7874 2579 5089 4315 5033 6100 1453 5906 1380 5994 8047 6927 9794 9194 5116 7478 2017 1206 6344 4515 2782 5424 5396 1101 3912 2776 7791 1451 7209 5280 3828 9285 8269 5314 5285 3568 4110 5781 5878 5854 1581 6303 3404 5290 6854 3610 7514 9360 6055 7145 8535 2182 4898 5480 2666 1188 4775 4854 8000 4702 7944 3282 8566 1866 6439 7771 6047 4802 1857 5316 1774 6191 2576 649 1615 4989 4033 5534 7964 5020 3890 2871 6636 4499 3417 5148 3651 6977 4635 2663 8244 6859 5158 7025 3825 5418 2533 4722 6656 4847
5753 3588 3994 9368 5627 4758 8953 1757 6605 3729 6802 4495 5599 3562 5240 8984 1684 4562 1103 6170 5219 0 6056 4466 3097 8246 5836 3180 5791 8096 653 6136 7498 6328 6378 4284 4803 2169 7368 7890 3124 7275 4803 7983 4352 4482 5573 6228 4502 3457 9041 6227 5081 1935 3876 703 6877 2700 5672 9723 7227 5663 3287 5152 5052 7499 3601 6730 4830 6462 2917 2914 2485 4929 1302 4419 7732 6486 1680 7442 1038 7047 5341 5419 6525 3983 3438 5043 1838 6270 4178 6624 5349 6212 4723 1585 3545 5736 6158 4916 5027 3728 4948 3826 6326 7129 2791 4949 1225 2508 3302 7145 3304 3366 9358 8304 1316 4466 2575 4280 3591 4342 7555 6195 3161 1628 7764 2349 2828 3862 2223 4239 2641 4141 891 6748 4305 3940 4031 5511 8545 4512 1240 5005 5274 5642 8088 8172 8414 6333 7374 4159 4279 6896 5856 5998 2827 4651 5162 7755 4680 4233 5754 8083 3050 4936 4729 5427 4389 6820 6620 4011 3200 3160 5364 7745 6057 5256 4684 8284 9024 7167 2408 7649 5546 4778 4029 4144 6933 4648 1733 4508 3479 9656 4197 4201 4340 6479 5425 2532 2332 3472 5688 4130 4571 8381 7112 3895 4585 5718 3457 792 5097 3952 6160 7988 7856 7478 3959 4337 4300 2700 5683 8733 4910 4370 2908 5349 2423 7912 6681 2919 2413 1984 2235 3370 4774 4185 268 3624 2180 4831 5507 6199 5723 6287 4842 6072 6372 3653 5321 7603 4546 4343 1862 4351 5484 5486 6463 6616 4204 2203 4717 5973 7443 1451 4467 6311 5572 7224 9495 5755 5286 6293 9864 6551 6387 5861 2615 4123 5357 2684 5210 1850 4210 4910 990 2607 6449 4916 7512 5549 2942 3542 6643 2718 271 6424 6999 4751
3515 5421 5769 4299 4040 5009 1756 3054 3173 3033 3462 9547 4231 3715 4303 3255 4904 5118 6212 1319 969 6056 0 4737 2805 1703 2712 4991 4627 2726 2448 6714 4260 7333 5817 5459 2879 3734 2104 3946 7233 4316 6275 4497 4763 1438 7570 6364 3225 4968 7860 1470 2300 4193 3760 966 7985 4680 1978 5869 1374 7000 6020 7510 5298 3114 3037 3192 3014 2788 2940 5209 5009 5150 3036 6507 6310 5449 3337 3848 3783 4065 3158 8439 2247 7734 5313 4824 4484 9045 7985 7224 2182 2512 3725 5646 3681 3052 4368 5238 4490 2199 3665 5123 5527 6802 4969 5248 7102 3514 6713 5145 7348 5783 2658 2937 7011 4346 5147 5965 3002 1372 4741 5641 4196 5178 4261 7805 3485 3778 4666 3271 3756 2517 8413 6238 6369 6756 7259 9327 3803 4712 3210 6737 7032 1849 3456 2602 1894 8483 956 6297 5886 8009 2585 1926 4068 2414 4660 4096 4196 5414 5895 2891 9094 5578 9143 4748 4505 7812 5433 2519 8541 807 7890 5288 5646 5371 6672 3136 4712 7420 1764 7952 4785 1738 5591 3243 3812 3813 6412 3106 5317 2611 6020 4937 5879 5843 2947 8029 6257 4771 1365 3838 4477 6820 4961 6957 3370 5152 860 8390 2775 3625 4267 6113 3421 5450 4771 3334 4191 6268 3830 8458 5695 674 4236 3597 4251 5115 5461 5169 6488 7621 2907 5837 4126 8627 4629 3373 5210 7305 2755 4666 3803 2360 2545 1861 4710 6933 3436 7105 6441 1885 7468 4560 5000 7447 568 5611 1721 5475 5998 5127 2767 7221 7565 6706 5886 5451 5859 8702 7468 5141 5258 686 7864 1093 3570 6068 6257 4188 4565 4445 7263 3515 4720 1411 5197 3681 4576 3004 5474 4586 560 6015 8370 7985 3234 3995
658 3221 2988 2583 3824 2822 7791 3652 8445 8663 6645 4698 6226 3781 4586 3653 4342 2119 2629 7495 5943 4466 4737 0 6525 4682 890 6224 3838 1516 4077 5372 438 3563 6265 8228 5897 4300 9359 7725 3694 3689 3472 2663 8818 7966 3201 3235 1846 6843 6990 8415 2810 7697 5245 4262 8969 5133 6573 7259 5641 479 7260 4848 4967 9230 3470 4585 6763 6295 7232 7218 1725 9587 5616 6301 5675 7072 3075 6258 5529 6739 6096 5173 4241 3628 3917 5576 4935 6040 4345 6438 8950 8673 2944 5893 6893 7599 4537 2994 1810 2456 5455 9344 7797 2010 6293 8545 3849 3657 4689 5152 3568 3665 4997 4500 5580 5669 3891 6135 1137 4732 3358 1154 4072 5515 2852 5715 4636 3908 4238 5393 5534 4323 5660 6604 5059 6489 3278 7176 4295 2451 6857 6672 2253 4664 1334 5113 7159 7591 7469 4151 3582 4184 5189 5190 3250 5068 3641 3991 7029 2790 4907 5479 3629 6623 2916 2998 5134 4039 5070 2409 4844 2773 5218 3299 2403 941 3431 5799 5889 6817 1922 2401 7343 3818 7625 3199 3274 4650 1955 2838 6454 5345 6877 4544 3708 4494 6541 6941 4293 1916 5298 5891 1250 5312 7509 6587 8614 6375 1794 5362 7243 6220 8957 4729 587 5330 3771 4708 7598 5386 6165 4824 5511 1580 7025 4673 3414 7368 7195 4475 4664 4458 7393 2294 7523 1840 4348 6815 6381 6314 2826 5810 3795 2631 7002 6369 4526 4392 8266 3549 1657 4803 3783 4016 4318 4835 4853 3528 7244 5359 2838 6995 4189 4959 2496 8946 2908 3426 5263 3698 4471 3907 5197 8848 8174 6315 4703 4683 4779 7385 5660 6080 5088 2673 8701 4729 7735 5984 5122 5879 6556 8848 5428 6943 8480 4469 7159 1992
6659 2703 3655 4883 6687 2794 7514 2824 6459 5253 3582 5900 6914 1959 6022 3758 5029 4282 2161 4013 2954 3097 2805 6525 0 3442 2848 5398 6179 5852 5667 5169 3073 7466 6235 1871 2608 1876 5367 8157 5406 7952 5722 3348 8078 8030 5141 4602 5109 8009 3583 7178 4706 3272 7451 5601 4597 2029 6439 5864 3434 4699 1832 2601 4971 5139 9185 3026 3625 6409 4421 2778 7058 1602 5457 8079 1821 4372 2267 3671 7001 5793 5474 2784 7168 9273 4009 7704 4878 3081 3448 5948 8398 6877 8322 5582 1789 5605 510 1173 5748 1645 4297 4143 1587 4028 8399 5621 2833 5323 4244 6896 5724 7385 3612 4949 2432 3124 6652 5180 1706 2263 5534 8318 4320 4715 6440 3892 6248 4397 4914 2292 5353 4477 6958 3194 8480 4594 5856 5517 6519 6289 7794 2888 2853 3032 5451 4807 7383 5337 4978 3981 4193 2782 8892 1139 6683 4122 4272 6208 7542 3677 5506 4042 6759 783 1224 6065 6943 2996 5640 5926 7795 4003 7983 7623 1849 1789 6534 6621 7351 1924 6463 4432 704 5902 5923 4233 1379 4025 3053 3447 6103 5081 4696 4383 5022 6867 7284 3224 3541 3204 4712 4935 8048 8386 8643 6725 4605 6146 5777 1619 3150 1474 4169 6085 4795 8054 2520 3189 135 4020 4958 3780 6661 6102 4879 7136 4980 5348 1943 6049 3862 4332 2195 6960 5461 4539 2759 4976 4011 6180 4267 4724 3733 4880 2459 1248 5536 1302 3977 3897 1221 7865 4956 3302 5464 7746 3014 4967 7096 8682 6785 3943 6339 7107 3719 7640 5881 3624 6166 2441 5386 7767 2530 1927 2175 4990 4035 3855 3826 5663 6459 7092 4778 3701 5274 5210 6855 3422 6111 4815 3901 7079 7080 3192 7019 2736 4565 6889
6526 5111 6798 4180 649 8975 8839 5541 6995 1611 3755 3576 7303 4489 6382 3700 3684 5035 7246 1922 4275 8246 1703 4682 3442 0 5001 3712 2126 5233 6148 2986 4329 3826 3672 8046 5291 3441 2591 8119 879 2483 6788 7885 3092 6218 4293 3253 5646 7724 694 5091 4809 3769 2277 8108 2826 7329 2955 4357 6690 3697 1412 1975 4473 3291 2595 2874 2264 4327 4659 4609 1064 1752 4894 4403 6398 5426 4178 7806 4985 3367 7847 1331 4461 5525 1508 4107 5927 4094 3731 4517 3570 6352 3132 3327 5485 3325 7545 3502 5205 7679 7149 8883 1797 4273 7505 7064 5694 9215 2043 1648 3085 3707 348 6841 6157 7916 1212 5859 2876 2997 5524 2487 8764 5020 2076 8536 2978 6200 7750 4236 1444 1408 6152 7462 7532 3775 6981 7705 2327 2264 6478 5366 4123 4390 8262 9607 3623 3685 4418 3835 9034 3403 5831 8329 5634 7445 4596 5586 1040 5918 7163 7115 5580 6015 6428 6258 5612 5987 5347 2170 353 6412 3758 2192 3656 5601 2501 1843 3480 2261 5476 6381 4811 4848 5235 4103 3363 4865 6889 3002 1226 5895 8176 3360 4875 5740 4342 7615 5044 3775 5461 8884 1523 5301 5388 5766 4510 8133 3915 1730 6493 1908 5005 3536 2536 4847 5359 4464 5416 8436 5287 9259 6978 6206 7874 7176 7910 5098 6822 3794 1587 2618 4033 5411 5326 4178 6891 3313 2053 2231 3060 4317 6038 5772 4975 4660 3232 3263 1092 7357 4343 7420 5188 6833 3321 7104 4937 8663 5408 5449 5249 5406 7792 2754 3142 4736 7493 8303 4225 6870 5626 1608 1753 4958 5316 5475 8749 9775 3461 2146 7589 3421 4661 3631 4682 4956 6638 6911 5399 2531 5301 1657 2262 7276 3562 3814 4819 4805
5990 6545 4408 1533 3173 5227 6923 2924 6586 8712 7361 4751 7812 8920 6032 8165 7180 2605 6093 6601 3382 5836 2712 890 2848 5001 0 7518 5580 5415 6497 4006 2769 6219 8467 4974 9076 8079 2130 1154 6132 4780 8778 3494 8194 3649 4587 7159 2351 7462 5689 4271 6709 5548 7000 4586 2068 5614 7853 4445 6131 4761 6902 4693 1291 6175 8732 5227 3440 5041 5617 5022 1158 4868 7261 6917 3665 4227 2443 7173 5184 7830 8042 4816 4734 8189 4494 6770 470 2899 3059 1764 7467 5557 5473 5095 3913 4773 6800 8600 7490 3824 4119 2920 2910 7351 4649 9470 3629 5165 5610 4623 2151 6750 4825 7642 6184 7754 4962 4770 7017 7401 6274 5441 5250 6770 3420 6284 7099 6559 7264 797 7776 3245 6609 7355 4072 1978 8157 9071 320 2143 5943 5079 6985 6774 5085 9608 4482 3813 4427 6635 2890 3809 7883 2977 4686 8629 1695 6778 2293 6200 2410 293 6823 4738 7412 552 5257 6949 6043 6233 4711 9410 4648 5190 1906 1242 7371 5487 7970 2818 6885 7492 4378 193 5120 3038 6532 4478 4343 6349 7782 4149 8417 5715 4541 4927 5235 2060 6089 4506 7064 5320 5336 2514 7104 7377 5840 7793 2160 4403 3593 3444 5896 5019 7308 2876 1556 3912 5042 5091 4190 7483 7817 3167 6523 7464 5273 810 3608 2997 4072 3293 8718 9923 4597 2216 5331 4394 4145 6053 8437 6074 1957 7349 5849 5049 5740 3916 4192 2134 3985 8459 4127 5065 5233 5117 7836 3993 8170 9225 2995 5360 6869 3407 834 5715 2103 4353 1602 5923 6690 1303 4147 6406 5066 4754 5487 6561 2673 865 7898 735 6885 3974 4307 3904 3310 3941 1482 6917 6610 5185 8090 7303 1694 2940 2672 4334
3145 7064 4930 5028 3913 5020 5731 5758 6701 3602 9512 7268 222 3956 8436 4623 3802 8867 1530 7496 6348 3180 4991 6224 5398 3712 7518 0 2309 5137 9019 8301 3519 7181 5464 5131 8531 5284 7146 5198 5171 5316 3540 3136 1192 6902 3712 5063 3154 1733 5514 2305 8479 9170 5449 339 8103 2688 4023 6064 6753 1994 7129 2213 4719 7070 9065 5799 6278 5588 6385 4580 3920 4447 5910 5653 7957 5775 5738 2612 6337 2144 3574 1144 7608 9151 1375 4824 4834 5822 4904 2094 6494 4945 4158 5331 2393 4751 3280 8013 3626 6791 6873 3342 1266 669 4471 4158 8571 5133 3952 2269 3940 8106 5704 6394 7845 3551 4396 5264 6381 3852 8271 6911 3070 5449 2835 4910 2667 675 4214 2429 7675 1895 3399 4397 6942 4067 8792 8831 4064 4278 6216 6187 2713 6382 5536 8469 2120 3867 3283 3957 4206 5430 5849 7716 2345 5105 5674 8838 4379 6707 4854 6559 4381 6095 3637 4131 7360 4646 7198 4884 2842 6632 1115 1023 6630 3714 2431 2559 6455 4374 7336 5842 2565 6849 7281 6756 5287 8208 1387 7429 6959 4961 7485 6805 1452 1446 6559 2458 3549 2273 3006 6434 2214 8366 5175 8152 4961 4350 8166 4509 8645 7352 7117 6863 7093 1634 3642 5481 5010 3582 8363 5101 2426 3963 3650 4591 4243 3675 4133 6383 4126 4575 3094 4733 3987 1437 5260 8722 4008 4004 8187 5633 5238 6720 923 4854 5685 3696 1974 6343 4582 5909 5275 5404 9136 4920 2085 3791 5035 6825 4394 4104 1296 2207 4710 1501 807 8298 8572 6270 5081 4658 4345 4745 4716 4764 8331 5371 7254 1508 1899 4416 4550 5748 5108 5827 8728 4707 1899 5477 6060 9101 4205 8062 7140 6482 7291 8861
4718 6239 5893 1587 6917 4802 3742 4514 4670 5152 7642 4502 5513 4797 6116 4398 5754 6077 6496 4117 7600 5791 4627 3838 6179 2126 5580 2309 0 4946 5681 8617 4540 4626 3559 7945 7301 4168 947 8120 2298 1424 388 5611 8363 8296 1308 7614 7716 1798 4953 5822 2264 5233 4259 3371 6014 7550 6973 2748 2903 4819 7277 4855 2930 1562 5336 4604 2305 5573 4895 4518 2316 5827 4050 6038 5382 5273 8099 6547 5195 3705 4059 7320 5419 2545 8166 2943 5387 5715 4402 8020 4908 4837 3244 4659 1628 3681 2358 5292 1782 1626 3305 5692 9680 7284 2529 4629 5946 6203 8358 1764 4724 7444 7309 8402 3587 5688 5876 3044 5824 4553 8260 1008 3506 6017 8530 4487 5910 4665 8462 2129 604 8242 4207 7291 5706 1285 2857 8608 5756 6813 2456 4387 2900 3000 4335 2027 1884 6578 4939 8608 4204 5747 4877 8854 1048 6052 3245 6180 4000 6463 7058 4574 7235 4998 7992 7869 3701 3303 2511 1943 3802 6608 1663 8690 4297 993 4761 1495 4470 8846 6925 4411 8249 4403 3718 3070 6972 4742 5421 7831 3239 7441 4565 2977 1707 3682 1847 3871 6780 7188 3626 8254 7962 5995 1745 2144 6804 5719 5476 3699 4516 8330 1048 3328 4974 4873 5291 5219 6728 7793 6298 3985 1586 4467 6753 4060 3223 4448 5630 991 6441 9001 1257 4551 5351 7936 4645 6115 3863 5774 2081 4616 4445 4047 6001 5728 6715 2267 6422 3904 6534 6586 6435 8731 3706 5580 7202 2060 5332 1352 7551 3316 4896 6243 2411 4407 8505 7258 1132 7631 5808 1343 5521 7143 4352 6141 2457 1689 1504 4704 4511 4550 4999 2098 3520 6997 6454 6342 5918 9188 2518 4594 5146 1702 7805 2377 4559 5250
8283 6676 4411 7334 5122 3963 7129 8916 1785 7752 6094 7480 7432 4820 3804 2993 3177 3046 6855 6962 4974 8096 2726 1516 5852 5233 5415 5137 4946 0 5637 7019 4744 5391 4017 7882 4857 5109 4210 7118 6239 5132 2665 6083 6707 4141 2152 3608 5117 7638 8536 5273 898 5099 6145 6146 3366 6400 2928 4332 5235 5318 7311 4792 6397 1118 1065 5471 1706 5403 2247 4206 2345 7904 3554 7064 5639 8589 8772 6482 5735 6299 6172 3037 1203 8924 2113 7223 2488 1713 5052 4347 7614 2926 3930 7679 4393 3482 5559 4094 5576 4426 9903 2763 5551 2991 5510 2952 6611 2054 2167 6316 5189 7617 9277 2888 6083 9881 5911 4924 4643 6685 5937 5826 6801 6910 6736 902 6533 6428 5738 5507 6871 5299 2904 3056 3288 5492 3313 749 3730 3598 3590 4026 2069 4836 5976 3347 2098 664 3802 4322 5185 4913 3929 5790 4358 8711 2847 5065 2561 5020 3336 5965 7873 1665 1478 9027 2409 7979 2556 4445 3255 5979 5099 5780 6636 6143 4670 4277 1913 6730 5974 5414 7790 5001 5473 7906 6963 5796 3100 3059 8234 5223 2445 6295 3059 5756 7196 6071 5382 7552 3854 4808 9096 2429 4298 3198 4064 3186 6367 6444 9111 4061 4387 6337 5029 5623 6029 8221 6264 4480 2640 8116 3644 6805 6035 2879 6297 4424 6652 3725 5661 5718 1988 4423 5474 4512 2247 4063 4756 7934 5865 5605 6689 7437 2252 65 5214 1803 4755 5718 4700 4914 2393 7782 6643 5660 2010 4586 4708 6438 3481 8027 4074 3050 4590 807 5281 6150 5711 5683 4560 4740 2676 3563 2076 6625 6000 4600 3621 6068 6036 7887 4950 6046 4929 4557 1341 4445 6783 5178 4606 3382 5517 3533 3277 7155 3605 3683
4390 665 8512 5493 7993 6108 7165 4360 4637 6134 7740 7247 4892 9708 5175 3697 7559 9074 2330 4066 4438 653 2448 4077 5667 6148 6497 9019 5681 5637 0 3619 5601 753 4314 6894 6405 3391 4739 5949 3831 5874 1301 5540 6307 4781 4960 4972 4561 4241 5056 4746 3463 3791 5475 4443 6125 3939 2546 2498 4740 5255 1234 1099 5276 4786 3276 8246 1878 8117 5560 4302 8846 5263 5203 5124 2327 5515 2501 2622 4201 2186 6424 7585 2137 4053 4207 6759 7492 4700 5515 1748 7154 6751 7942 5080 7395 2909 3003 4026 3759 4282 8732 5700 5731 6539 1588 6430 7075 4565 7116 1536 7423 2450 1438 7917 4974 3529 4830 7641 5938 4727 5644 3790 1380 5573 5617 8116 1051 8999 4287 6822 5493 5171 699 8528 5091 5156 6489 3756 5912 7295 8851 2985 4380 6160 3025 3694 6466 7971 8106 4577 6782 9581 5421 1565 2732 7092 1850 5276 8429 640 7858 6193 6426 1095 3036 263 7474 2872 6230 4996 5475 8097 5917 4816 2572 5466 4271 5613 3834 2956 5706 3299 4756 7130 7921 6740 3560 7221 4040 1344 6586 6847 6598 5294 7024 4612 7629 4566 4971 7298 7839 6473 7267 3911 6437 1542 2196 7528 4371 5505 8367 8225 6139 6481 3422 4521 666 4575 1544 8446 3995 6327 4877 4695 4496 6128 4364 1137 4009 6656 6084 5921 3000 3600 9744 5106 4927 3941 4573 545 6039 8235 2323 4208 3209 6284 1704 6018 8342 1204 2735 5020 2486 4592 8068 4723 6292 3699 1355 5809 6107 3565 5037 3719 5468 2145 1118 5147 4986 4458 6156 9175 7644 4494 4779 6688 5454 1990 3736 4925 5420 4975 4098 6736 3993 6161 7047 6795 5691 3791 2104 5239 7633 6668 1980 5547 5743 4253
882 4289 5571 4088 4483 7015 4520 7853 6963 4933 5265 4345 423 6916 8730 4470 5469 3415 6358 3830 5561 6136 6714 5372 5169 2986 4006 8301 8617 7019 3619 0 8280 5082 5790 3514 7225 5936 6240 3944 5183 2120 5818 2747 6625 4235 5000 4295 4354 4866 5805 941 6913 2471 1682 3249 6406 3338 3453 5692 4457 8501 5460 2474 4940 3184 7261 3554 3049 3690 6325 8519 3854 1542 4620 5125 6149 1518 3085 4087 3516 6801 6124 5923 6584 4370 6734 5144 5322 5272 3285 2890 4721 6240 3508 4773 3431 8634 4681 3344 9146 4148 5495 3518 5644 4238 5570 7314 3917 6615 6060 3839 6988 8617 5855 6906 3353 4085 8587 3502 1886 1663 2892 2766 7907 3865 6560 4804 4343 3387 5496 4163 7223 4538 6238 7105 2675 6745 1890 6068 6375 6516 5317 8445 3983 7016 7556 4777 3375 3389 5742 4178 6015 5494 6851 2306 4574 4644 6014 6227 5093 1584 6729 6700 2752 3747 6213 3591 3078 6961 8056 2185 5357 6472 4443 3607 6665 5998 5108 3809 7685 5363 1748 3734 2528 6854 8287 4491 6863 8056 3472 4891 5401 6576 3871 8278 7649 9034 4566 2414 7204 5084 9821 3033 4130 1518 4909 4355 6148 5593 2036 7329 4565 3861 5460 7051 7215 4035 4939 3900 1719 6239 4566 2250 6382 5435 7575 5228 5026 7972 5957 7371 1663 6766 9705 5309 6740 8895 5439 3218 4953 5827 1479 4731 5016 1360 5640 6618 3771 7525 9147 4973 5639 4408 5969 9711 8538 4897 5705 7529 4329 4927 8718 3906 4360 8213 7267 7668 6643 4181 7452 8043 1841 3332 8354 4528 5422 3501 2506 2572 8524 3228 6887 5555 2806 5512 2831 1752 1856 4040 6041 6073 704 4469 7771 6901 5059 6163 5573 6501
5277 9718 3869 5055 8254 5206 7121 3308 8585 5854 2707 5429 8489 1878 9684 1466 5712 2637 3454 3594 4141 7498 4260 438 3073 4329 2769 3519 4540 4744 5601 8280 0 6931 4324 1444 9251 3818 4732 5232 6483 7534 8612 7489 4346 730 6401 7765 4156 4847 5362 3796 2114 5456 5184 6072 6857 3076 4999 8359 4751 3281 8543 2135 8486 7537 6731 3580 7984 1943 7260 6135 5654 6730 4553 7741 6984 2232 7621 5732 5383 4137 7506 6113 4805 4791 7504 6044 8157 2998 5225 5892 3873 4116 3601 5395 3282 7121 2708 7611 6363 8287 3727 3783 815 3081 6530 8479 7090 6204 2189 5505 6015 3971 5923 6552 7253 6645 7157 5990 6052 5611 2558 5104 7895 2255 4976 4966 4229 5020 5416 3821 1508 3366 7265 8359 6515 4426 4334 6064 6024 8207 3433 2169 2847 3491 2657 1815 2692 6905 1952 2497 8486 7719 2165 2471 3956 6709 5739 6828 6152 5923 6549 5947 7722 4062 5909 5614 8435 3182 3667 3306 3699 6724 4560 4498 2215 1883 3977 3820 5051 3071 7902 3504 7324 8682 7175 3086 5474 2737 7407 4022 8293 7223 2080 6518 5351 7340 3167 5700 2789 2882 5264 8137 6239 4645 5194 1086 5552 3968 5763 4810 4282 2736 5709 6435 7102 8299 7798 7402 3838 6643 5351 9304 3606 6933 3779 6943 9429 5591 4969 3745 3932 4327 2595 1279 5077 4091 3191 4062 4887 3272 8939 5458 4547 5764 4312 6952 8617 4903 1881 4194 5115 4845 5914 3408 3841 1003 5863 3594 3437 7117 3699 4629 5362 5455 5429 4497 1916 2483 3195 4738 4934 4078 3781 7359 4742 9116 6163 2384 6702 1867 7206 1528 2497 3778 5603 2598 2562 3027 5173 3605 3003 1933 4094 3055 6445 932 3484 5632
8455 4079 4583 1591 3860 1185 2581 8690 5490 4749 5565 6967 5231 191 2433 3691 3733 7420 6375 4725 6231 6328 7333 3563 7466 3826 6219 7181 4626 5391 753 5082 6931 0 3391 8990 5391 2563 4389 8419 1388 3785 6888 585 2411 5467 6549 6790 6905 4763 7016 7973 4377 3380 4144 2425 3641 5381 5005 2728 7117 3885 4494 5528 6417 5914 1616 8387 5113 5251 4052 4823 5307 2517 7540 4568 2829 2393 2666 7168 4449 7059 2264 7702 2330 4048 2291 5739 4663 2263 3427 5784 3649 6868 7576 7958 7326 3844 8338 5573 8342 6363 4714 5885 5653 5181 1597 7989 5500 5465 7396 1528 3676 6044 4205 6323 7223 3464 9023 3729 3968 9306 2754 7377 5095 6527 1372 7883 5191 4811 9096 3545 5823 7065 4757 3112 8246 1523 2732 4269 4065 6293 4831 9291 2277 7111 4628 5490 4971 2666 7133 4788 5117 3070 4231 8095 6760 8014 5600 6682 4187 3069 6341 4653 5706 4970 1127 6230 4826 7533 1092 4617 7021 5521 4184 7528 4314 5304 1481 5451 4506 3472 3002 7296 7462 6553 3116 2228 4551 3347 7348 4356 3745 8515 4073 7339 6821 4712 5618 3615 5397 7135 4466 6375 4949 5260 3888 6785 3250 4686 7186 8882 9150 7308 4004 3131 7195 4565 268 3362 8460 8432 5789 8696 5274 7367 331 7877 6364 3756 7128 4716 4544 2809 8496 5176 7970 3556 7282 1136 2383 5878 8749 2638 5176 1680 6188 8186 3643 5118 4243 4051 6297 7193 8767 2176 3632 6580 1269 5044 3440 2731 4774 6118 3483 3471 8154 6237 3588 5617 3716 4260 5717 1532 6501 6854 1448 4654 7293 4959 4683 3687 1761 660 2894 5106 5790 5036 5991 6046 5151 4577 3714 3916 3801 1442 2564 3584 7992 6359
2254 4794 2112 2976 5833 7712 4284 1861 6685 7663 5184 4183 4192 4883 7743 6766 5880 7280 7175 2551 5325 6378 5817 6265 6235 3672 8467 5464 3559 4017 4314 5790 4324 3391 0 4543 1879 3424 7319 6679 7095 3283 2634 5279 1488 6485 1751 5042 3736 671 3402 5000 7040 3140 5109 1304 9506 5815 1792 1033 4923 9144 4058 9106 7771 7823 4695 3665 4414 3742 5737 7296 5541 3209 7328 7999 2690 4339 4220 3902 3819 7879 6374 7500 6628 4172 7416 3211 4007 1635 4729 5494 8069 3763 1577 6396 3108 2613 2854 4295 5213 3223 2818 8335 4155 6730 6444 4617 3436 4320 1407 7004 4999 3349 4877 7002 7994 4015 8363 2429 2982 3300 4861 4662 6219 1134 8675 8312 1062 2171 3553 6053 3048 4345 5273 3976 6872 2621 6862 2712 1554 2252 6196 7481 6908 3172 4004 3986 4970 7797 4594 1462 3276 2028 5320 4974 4109 4354 6374 2269 3257 4901 7533 3010 1631 7569 4597 2979 5914 8838 5633 4865 8680 6673 6545 2048 4964 1971 3718 4113 6423 6442 6973 5839 2537 3901 4773 5946 5059 4715 5233 2053 5214 1850 3139 5785 6142 3764 2132 3694 6753 5260 5650 4895 9201 1085 9867 4171 5053 6153 2091 992 4268 9122 6850 4775 5067 4270 6360 5798 6871 1842 5761 5752 3724 2647 4611 2376 4313 6853 2798 6868 7050 4376 6581 4038 5009 7415 461 6829 4321 7055 4879 7475 6966 4429 1255 9779 8256 4345 3648 4442 2889 6885 2880 5353 5848 4735 5540 7480 7597 2603 2921 6167 6584 3348 3890 6890 2395 7466 5154 7113 5656 4700 6217 7211 5685 7673 5809 2537 1569 4848 5097 4431 5988 4847 1591 4763 3827 5111 5064 5872 4158 7145 7468 3401 2440 4267 2240 7701
7603 6042 3093 3961 5008 6707 6312 6582 6096 4262 6314 2339 3479 3665 7579 1725 7371 5381 5607 6919 4332 4284 5459 8228 1871 8046 4974 5131 7945 7882 6894 3514 1444 8990 4543 0 7877 4637 8951 6938 6681 5112 1912 5774 1093 5098 7073 6981 5350 4964 5434 1047 5225 4083 5326 367 4011 7295 4581 3647 4139 7204 6450 2673 8864 4632 7444 6391 7516 4166 7146 7862 3068 3700 2927 6611 6740 7659 5780 1405 7171 3130 3552 4143 4334 6325 5372 5224 4524 4141 2580 1400 7209 6656 8723 4310 6855 6098 5342 923 4221 4752 1525 5786 780 5396 8045 2652 6074 4161 4188 7272 2698 5947 2787 3601 1886 7008 4085 6385 6678 7034 1914 6178 9176 5442 7006 6718 4280 3909 4487 4860 225 2831 3242 4970 5359 9181 4024 4478 8258 2110 7995 5310 6643 5092 3092 6954 5742 3046 6640 6891 3841 416 8432 6785 7067 3894 4720 5430 6268 5639 3986 8119 8009 6019 5279 4365 4121 7577 3103 4299 974 6735 7693 4768 7314 5603 5875 3845 5566 3708 4095 2171 3063 5684 4439 4718 5049 7605 6700 2117 4691 3208 3652 5741 5321 7735 3278 8739 1023 8013 1042 8280 1598 3079 1799 6906 6490 6619 5907 8038 3842 4695 6656 7983 1463 1334 1323 6308 5574 5675 3913 5979 4307 297 2695 3186 5068 5907 4990 5972 1853 4902 4923 3327 5756 8087 4280 1438 7594 1962 4734 4061 2983 4131 7844 6917 4580 2413 3842 2934 4836 5162 1906 3665 4408 6033 6362 6596 5342 7686 4245 3326 9119 2066 4266 4818 6287 7828 4843 2077 5976 9226 5159 5791 6948 4421 4047 6979 2186 3492 9305 1570 5287 6346 5464 4656 2838 8935 6425 8457 3527 7981 2031 4996 671 5695 3793 7163
3075 4945 5583 7909 7714 5767 8446 6805 6267 4383 5974 2958 2624 4645 6033 4765 6546 1540 3820 2428 4539 4803 2879 5897 2608 5291 9076 8531 7301 4857 6405 7225 9251 5391 1879 7877 0 4363 601 3195 3842 4676 5238 4696 5780 3553 6120 4489 3505 7082 4818 4485 8292 9642 5752 4455 4056 6986 7840 4381 2075 6123 2301 1352 5369 5426 5786 4703 6488 104 6111 9302 4896 3551 2650 7454 5451 5497 4669 5181 6114 8555 3748 5875 9223 3240 4497 3197 741 4590 7271 7602 5030 2109 1793 7704 6103 7407 5043 2622 2867 3351 664 2000 8132 6945 6265 5044 5473 4733 6007 8646 8039 3652 8945 5365 1738 8139 3533 6515 3066 5020 3675 8746 5129 2121 775 8057 7338 4267 6638 1690 6670 4741 3634 6555 740 3081 5991 3085 8164 6247 1773 4168 7491 4313 8329 7058 1159 7598 4521 1885 4919 7274 7300 5147 4128 3397 5178 4481 6640 5501 5301 4022 4585 3585 7291 2839 5578 3534 4646 4019 2474 527 3553 5765 5040 2539 4978 5227 4515 4985 6763 5874 1027 5458 5564 2149 4795 6429 3726 4056 6960 6562 3852 4423 5524 1140 5169 4157 6363 9620 2414 3530 4531 5961 5567 3931 4878 2127 2585 4585 5557 2226 3483 2442 3180 3805 761 6143 4208 5405 8802 3879 4917 1717 7820 6029 5015 6578 5881 3514 9230 5634 4076 6101 1822 6879 4634 4543 1982 6018 6580 3221 8381 4811 6560 6477 4203 9013 7948 3959 6746 2395 3350 4729 8790 5204 4852 2518 3690 4439 4600 3762 5224 5458 7467 8239 5336 5167 4878 5370 8195 2051 5696 5240 4066 8401 4278 5937 2578 3515 7921 3720 1603 4918 4218 3816 5428 1643 7718 4737 4697 2931 3718 6743 8734 3254 3185 5398
1750 8023 2115 2756 5150 4686 7052 6435 6573 982 5489 7135 2197 3524 4452 4343 3427 5038 3001 3874 1752 2169 3734 4300 1876 3441 8079 5284 4168 5109 3391 5936 3818 2563 3424 4637 4363 0 5699 9448 3180 4839 126 1098 6422 5773 7364 1499 4469 6106 7359 6785 3087 5656 1604 8083 911 4286 7161 4983 3078 8119 596 8708 6565 586 6863 4940 4832 8762 7638 7287 3365 7305 3771 6511 3921 7964 3200 5865 5364 6353 4773 5797 7115 2741 4663 6100 2935 4411 5393 8363 4898 5375 5673 3802 5622 2365 5430 2131 3521 4112 1483 5348 6485 5068 6702 5803 5828 6973 8143 883 4965 8974 7673 5730 5145 1508 462 5341 877 3858 5245 4279 6037 3530 4979 4745 5169 5258 6503 3767 9383 5019 4014 4481 1327 6296 6138 8433 6838 5639 5243 2791 4325 7466 6472 5031 3376 7137 6181 3721 4326 6395 3813 4779 8375 3555 5861 6494 5288 6216 6010 7308 3486 9326 5962 7934 4904 8050 2679 4115 4466 2095 4191 6699 3808 5643 8246 5275 6480 2581 4375 2072 4799 7605 5896 7655 5455 4237 3293 2995 6790 1657 6130 5791 6511 8075 4487 2233 7976 3091 7082 7623 7050 4323 4480 3224 5343 7886 4859 7893 5853 2798 3703 8187 4250 738 7449 7613 7520 4009 4658 2921 2011 2735 2075 4422 5545 2673 5388 3389 9415 4514 5131 4032 3657 4921 8987 3780 5392 7254 5758 4557 2083 6260 6558 4410 4127 4322 4000 4785 7007 3589 9420 8673 6165 1527 5162 5910 7354 5045 3203 4047 2795 4498 6749 3598 2513 4102 3956 6020 4275 4042 3975 5565 3823 5937 9580 4725 4739 5129 3694 7403 6579 7832 8945 1411 3932 6219 8341 4418 6254 7470 4470 8557 5591 3065 4668 5366
3430 3158 5582 3773 3512 4943 8207 7354 2026 923 4810 7101 7232 3275 7197 4663 1593 6127 7542 7589 6259 7368 2104 9359 5367 2591 2130 7146 947 4210 4739 6240 4732 4389 7319 8951 601 5699 0 3583 4706 3845 5315 6233 5585 4784 3299 2594 3652 6061 4651 4774 2981 6253 1542 7254 4719 5824 4247 4585 3176 7344 4669 3605 8046 4788 4724 3436 2201 5996 7486 4722 8991 5463 5046 3392 895 176 3298 4705 8151 3661 3219 1872 8608 6430 3611 4979 4865 5888 7080 7726 5755 7747 2564 7941 7094 8398 5411 8041 5434 4888 992 6897 5929 5909 8648 4398 6214 7441 5764 4063 4048 455 7417 7125 1206 6435 8676 4528 6828 1219 3409 2429 6430 2811 7523 4584 8420 8207 7344 7018 4130 6773 5451 4179 5796 3345 4317 7260 1932 4094 3153 4269 7000 3051 4831 4805 3544 6496 5422 8338 2845 8210 4591 5982 7164 424 6937 2771 4219 6176 6258 2880 1419 5842 6356 6281 8649 6728 6416 8920 5906 5710 9430 3340 4691 5459 4219 2677 4725 3169 1168 2527 5531 1873 6037 6777 3641 6711 5188 6458 2735 7744 8586 3593 9503 5455 3188 3833 2247 5723 6172 4285 5408 864 7193 5113 5550 5474 4878 6193 3268 8025 6435 2078 8509 5049 3288 4871 4816 3493 5161 3448 4841 6946 4536 3016 5387 5969 5230 6615 5893 2236 5452 8581 6312 3623 6533 7247 6941 5966 7283 4124 6221 4738 8549 6817 6548 5568 8922 2582 5087 1371 4421 3792 2341 4911 6313 3919 4558 4996 7284 5365 7255 3689 4997 1611 6950 6766 6994 8452 3691 2647 3423 5557 3768 5940 2004 9556 1534 6556 7200 1592 7293 3806 6017 4348 7618 4047 4805 4951 6950 3679 4486 4441 1129 4406 5346 5187
2572 4324 7632 7119 8584 5057 200 3493 3774 8668 6513 8951 4334 2513 6333 5730 7139 5888 9043 3535 5276 7890 3946 7725 8157 8119 1154 5198 8120 7118 5949 3944 5232 8419 6679 6938 3195 9448 3583 0 7064 5229 186 1734 6622 3623 5588 6134 4672 4959 7233 2076 6898 3207 4567 2928 5539 5877 7284 3560 3995 6575 6532 5383 4618 3986 2769 5218 6814 8068 4019 94 6414 2869 4673 3723 2787 4800 4622 7886 1313 5084 5256 5613 6368 4493 4728 3610 5685 4586 5001 3078 2705 4101 6496 3344 8126 4906 7555 7063 5181 8341 6947 4042 4479 4225 5087 7104 6813 1080 7184 5659 9003 4648 6241 4661 8874 5078 4642 8814 2633 1997 7063 5577 7332 2932 3749 4295 5204 766 4419 7125 6664 4849 3708 5899 6925 1707 5647 2779 4556 6194 3091 6711 4530 6963 3141 3327 3987 4925 1212 7129 2055 4454 4178 1706 5272 4170 8932 5683 3726 7062 9471 5774 6707 6853 2373 8321 8671 2926 4535 4302 5216 9541 2423 6220 7729 4357 788 6390 7480 6221 1195 5759 4881 6698 3362 6731 5237 3644 2586 1166 7786 3925 7576 6521 6119 5345 5365 5231 7390 3279 3126 2575 7354 4025 3958 6577 4227 6750 7196 6285 6805 8546 7010 4693 2448 5334 5320 8170 4730 5175 7793 6861 5456 2121 3664 5041 7021 6886 3179 4626 7714 2434 4054 3805 6289 2353 4053 2106 4025 6004 7915 5375 4709 4184 8672 2355 3669 4516 7530 807 8070 5298 3636 4679 6012 6295 8753 1903 5408 5048 3033 3204 9127 6137 6155 2825 2537 3835 9378 2872 7321 5228 8651 1966 3852 2798 3989 3453 5050 4199 6218 4600 6910 7477 7000 5076 8502 8560 3364 2922 5558 6457 4412 5161 7346 5725 3604 4771
3577 6426 5747 7834 3902 3830 5468 3550 4895 8877 7937 4963 5896 5720 7282 5871 4781 3713 457 4843 6577 3124 7233 3694 5406 879 6132 5171 2298 6239 3831 5183 6483 1388 7095 6681 3842 3180 4706 7064 0 4847 6754 3771 5635 2795 4541 6435 2899 5049 5597 9141 4347 6987 4008 3385 3431 3352 3327 5847 8438 2946 6914 4563 3539 6093 3026 7618 6059 5186 4049 470 6191 7600 4016 2523 9093 2298 6677 2409 4768 8302 4135 411 2243 6600 4170 6400 4760 5175 5690 3002 5290 4917 2998 4770 8923 4249 3780 5611 5397 917 5977 6565 4402 4532 1796 3297 3691 4294 1561 3741 1556 2613 5885 4942 5055 1801 1913 1840 5060 6100 5445 5570 547 2902 2498 5924 3070 4858 650 4106 2758 2825 3716 4096 6864 6348 3548 5270 6368 4763 6419 4668 7798 2419 1899 5796 4848 2573 4954 6849 6417 3676 3898 3952 2074 3587 4728 5204 7633 2618 1071 4804 4003 5079 2273 5025 9167 4747 3021 6435 4267 2103 4878 3709 5382 5094 2375 7563 3683 5941 3339 4512 4949 6390 4516 4226 9393 5900 3259 5043 3088 4949 4549 5217 6204 7105 5107 3955 4732 5857 5127 7932 3742 8210 8234 8174 4894 3838 3231 6858 5495 8776 3098 3794 4891 8133 6482 4728 4193 4193 7004 8726 4518 4514 3895 5936 6352 5291 4269 2252 6837 2125 2645 1580 361 6534 7145 5824 2100 7317 3152 2499 5246 6169 4249 5257 7107 8786 3872 5391 8312 9313 7511 6868 5087 5613 4837 4399 4441 5409 4796 4616 6712 5938 4652 4936 5307 4468 5526 2067 6583 3502 7186 4449 5440 9090 6641 3657 4565 4891 2160 6516 6615 3486 6200 4786 7290 6285 5166 7854 6969 4387 6557 3890 6966 2318 4314 2179
4381 3211 3533 5237 5048 5356 2924 748 2245 7343 7505 4110 4448 8210 5675 2067 1625 5474 4287 4656 6040 7275 4316 3689 7952 2483 4780 5316 1424 5132 5874 2120 7534 3785 3283 5112 4676 4839 3845 5229 4847 0 2704 5886 3578 1593 3740 2602 8599 1639 5458 5026 6342 3353 7377 4889 9070 4628 7872 5173 7229 5840 3129 3230 6733 2064 6130 6012 4968 5075 4366 3162 5071 1009 2635 6997 1878 3321 5320 5030 6070 4468 3603 4602 3857 5510 7220 1864 6963 5095 4753 6792 7727 4126 7421 6702 3341 4245 3852 3637 4581 5272 2960 3386 2974 4096 6475 8139 7441 6995 2745 5874 4954 5938 2356 4967 1768 4888 4309 4893 4954 5551 1461 5653 2946 6287 4072 3357 3796 3411 5103 3213 7357 1289 4412 6333 6078 4559 3961 5035 6625 3447 9166 2536 9671 7132 3413 2270 6740 4304 6263 8934 6066 4755 6054 5876 5126 9713 3793 7248 4481 5241 6353 8779 9045 5490 8557 4050 2880 7573 8423 4378 3030 2895 7675 4983 4641 2270 2708 4794 8094 5917 7825 3998 2379 2359 3584 7812 2295 2714 7205 2505 5114 3285 6408 5685 4886 3692 3973 3316 4490 4517 4849 2513 6883 6984 3815 3499 6992 4432 3006 2994 4164 6471 1864 6921 8936 7144 6273 7832 6106 4497 3035 6383 7549 1980 8300 4165 6865 5918 4321 6965 4550 6010 5839 5110 5035 7158 5501 4728 4481 5175 3572 1769 5914 3453 4386 4311 4161 1160 8601 8297 4540 3141 2065 6022 6438 4150 4075 1882 1559 9061 3467 3816 7128 1958 4722 5309 3206 4443 3841 6860 2321 4975 3365 2460 4392 906 8117 4970 6897 7486 5700 4757 5210 7161 1216 3268 3045 5675 698 4991 5892 1043 7493 6844 4382 5766 7069 7478
1633 3326 4137 3481 4125 3313 5011 2328 3487 6118 4663 5130 3242 3282 8238 8984 3590 4375 4523 6038 6780 4803 6275 3472 5722 6788 8778 3540 388 2665 1301 5818 8612 6888 2634 1912 5238 126 5315 186 6754 2704 0 3313 6372 4895 6110 3957 3004 5215 3880 6623 4896 4784 7798 6726 5230 6849 5126 4917 3242 4416 5651 2904 7902 2647 2511 6950 7865 5933 4313 4959 4830 8971 5201 5310 8031 5374 8472 4183 2517 3595 3602 4835 5576 2664 5081 3197 6827 6220 4063 1218 3844 3744 7848 7319 4239 3004 4012 1835 5443 4393 5359 2532 3003 5649 2846 1770 5165 3092 2570 8963 5093 1403 3595 5104 5412 5724 3609 5090 4520 4098 1649 2891 5787 7276 4212 3276 357 3869 7078 3598 8508 1781 3945 6862 5540 3501 8505 4598 471 5987 4097 7848 5967 2978 6542 4017 1793 3801 4620 1441 5670 6480 6108 3366 3592 3771 5421 5076 6658 3428 1340 5393 4765 1956 4369 5749 4528 3714 2437 4259 1340 2502 883 3736 5103 8531 5785 2089 7118 3479 2808 4392 7841 2735 7763 6459 5484 8633 979 1013 5843 1186 5780 8050 5274 3582 2909 1792 5499 7221 3265 1049 6255 3939 8014 4004 3512 5840 6299 4509 2547 4761 3381 4422 8780 8043 6201 7758 8840 4171 6629 6180 3029 6455 872 917 4922 1872 2447 557 2564 8617 5559 5609 4568 1577 7462 8202 5182 3324 5733 5350 4940 6740 4748 6340 1106 5717 3048 2017 5378 7424 3034 4481 7859 6592 2742 1766 7519 3837 3280 2836 4047 4983 5843 3015 3247 6516 4892 3846 5477 4484 6222 8839 6355 4944 1300 3298 603 2005 5260 2805 2056 3244 6916 1620 6794 4015 2375 528 5291 6799 2421 4895 1933 3808 3636 6131
3739 6960 3570 2672 4695 6870 311 6847 3689 6094 2767 8272 3307 4348 3875 6967 4752 1923 4366 4772 5834 7983 4497 2663 3348 7885 3494 3136 5611 6083 5540 2747 7489 585 5279 5774 4696 1098 6233 1734 3771 5886 3313 0 4926 3996 5617 4197 8438 6303 5586 5015 5518 3807 5885 6532 7744 4568 4004 5373 4047 7232 7258 8481 8882 4814 6939 2921 8590 2905 8857 8726 3924 8437 4939 5693 7215 4063 6037 3862 4796 3702 5804 907 8970 3843 4124 6494 7592 5651 4072 7586 4398 5255 2495 6376 4211 7592 8090 9100 2803 2624 5568 2980 7285 5642 5198 582 5462 3047 6988 7652 5347 3315 7485 2054 3346 3963 2401 4167 5854 7248 4841 3887 3076 3086 7386 5333 7143 5439 4831 9123 1330 2749 5324 1366 4072 6952 6706 4415 6301 1101 8423 4597 5306 6111 6462 1211 5165 7347 3817 846 6903 3779 5370 2612 2606 7671 4557 3464 4064 3630 7862 8587 3555 7165 4595 1799 3059 5018 4224 3505 4485 5441 3872 4094 7007 3568 6935 6470 3880 4236 2350 4518 5259 5859 3930 7686 6930 3334 4467 3885 4873 5324 3326 4378 2891 5853 369 4210 8345 4384 4942 8195 5478 6793 8875 2138 5686 3353 1854 2576 3225 3226 4311 1247 2852 2803 5744 5734 3126 4710 8669 4607 2887 7393 2907 4363 3579 4066 2567 4076 6292 7199 3214 1998 5283 4636 5644 3192 4354 1392 8057 3539 5068 6024 9454 4183 5415 5454 3058 1959 5744 1205 1780 6450 4864 540 8206 3273 5528 4780 9538 8183 7191 3214 1173 3257 8302 7048 7408 3840 5534 8210 8217 2983 6060 8776 1998 4419 6405 7573 2734 6149 5581 5866 4541 2947 2674 6985 2769 1790 4868 5093 7012 5855 555 6414 3709 5688
1246 8009 4093 3084 5879 4202 6406 6940 6365 4442 8706 7287 3140 6189 3590 947 4119 2843 4933 3260 2652 4352 4763 8818 8078 3092 8194 1192 8363 6707 6307 6625 4346 2411 1488 1093 5780 6422 5585 6622 5635 3578 6372 4926 0 2054 5985 8247 2326 6699 7120 613 7224 1195 1094 6379 6028 5082 2294 8318 2835 7006 5431 5554 3628 5502 4292 5275 7929 4550 1212 2871 2944 5093 2194 6764 4413 6554 9133 2823 5902 4274 2230 4926 7374 3885 5422 7120 4791 7689 5883 4127 3820 2182 5809 4629 4810 4872 5638 7871 4850 1794 4537 1524 7192 4981 6277 5823 8068 7531 5771 6777 3280 3975 3389 5647 4810 8849 4681 4281 5703 3687 8297 6621 1010 4455 6845 7869 2861 6761 5633 7202 3651 1838 4604 4262 5759 7254 6812 5814 1297 6930 7352 4671 8268 9302 4759 4670 4908 3991 6244 2950 3899 4370 8160 6705 4310 3961 5785 5488 3521 7100 6241 5867 7185 5269 3734 6776 8087 6112 3035 5314 6851 6340 3482 8786 4855 5138 5031 9443 4556 4713 6705 3060 6903 5724 7437 5191 6947 4349 8341 5655 7248 5357 5707 4258 7376 7915 2830 6683 9229 2601 5901 5144 7025 7032 2155 9674 3021 2589 2861 5512 1606 4529 6787 3792 3186 5438 9023 5584 3320 7222 4099 3303 8743 6034 4033 3204 5628 5998 1823 5216 3881 5710 3661 2717 5771 2339 5305 292 4854 4938 6442 2036 6661 1544 4995 6652 4868 7979 3936 3271 4947 8201 4523 1038 1089 6511 9478 1789 7158 6127 7663 2094 7340 1160 4348 5341 1437 6060 5264 6738 6126 2888 6271 2295 5791 6438 1160 570 6742 5490 7403 3948 6352 5525 7455 3000 6468 4473 4613 6624 5049 4029 4912 2530 3858 2596 6363 8557
6861 6098 6084 6018 1806 4144 2524 8585 5364 1696 4379 4228 6906 6799 5476 999 3577 5549 5211 5842 3958 4482 1438 7966 8030 6218 3649 6902 8296 4141 4781 4235 730 5467 6485 5098 3553 5773 4784 3623 2795 1593 4895 3996 2054 0 2154 9253 4856 7432 2890 5963 3796 5483 2866 5019 4639 6575 2652 7333 5015 7147 5865 8539 6689 5766 2997 7103 3437 5476 2365 5468 8823 6587 6198 8487 5252 463 3028 3042 6575 8695 2238 8705 9227 631 4329 4198 2380 6893 6291 4622 5147 5209 4192 4884 3970 2842 5778 5487 7419 3501 7624 3478 5321 5114 3131 8230 7575 7345 4384 6169 6701 4304 4456 6332 7472 1704 2005 6646 4833 5716 7916 7326 5726 3226 5889 4241 8504 2987 4737 5799 2460 2623 3392 8081 3971 5820 4812 5479 2311 5039 2853 4229 4165 4103 2325 3728 3796 5546 2332 2922 3130 4676 4834 8470 4713 5007 5133 3965 4160 3630 778 4094 3644 2845 4762 4619 8874 6759 5125 5827 7047 7647 3462 7359 4113 1035 5746 6252 7863 3377 6187 2601 8421 6348 4675 3571 4862 3813 8565 3154 3411 3175 2985 8311 8885 8161 3461 2584 5965 6159 5442 7466 8486 4306 2584 7562 6011 3113 5981 6687 5667 8562 3530 2723 2976 2274 3708 3752 6830 2090 3381 7016 4253 5389 6415 4225 1773 9538 635 3772 3204 4286 3039 2992 5334 1809 1110 2937 4684 7416 4563 591 7938 4112 5136 7098 1271 4883 6347 2644 6502 4083 4527 1234 8608 1922 3133 3268 2194 1344 5164 5831 8449 4019 3785 3186 6488 3185 3682 4838 4700 1645 2162 8876 4043 5511 5302 6409 5470 2897 3045 3665 4329 1939 3887 8343 8229 5876 4614 4367 3177 3047 4166 1217 5196 5747 4611 6827
3612 3013 9471 4167 3257 4507 7294 4900 6532 1988 4623 3948 3513 5996 2467 1392 5755 8077 2982 9150 5634 5573 7570 3201 5141 4293 4587 3712 1308 2152 4960 5000 6401 6549 1751 7073 6120 7364 3299 5588 4541 3740 6110 5617 5985 2154 0 3852 6489 6899 3781 4505 3469 4938 5022 3143 4953 1648 4926 3349 1684 4511 4086 3934 5365 5214 5050 4310 4439 3452 6311 6552 9217 5902 2744 5307 1639 8408 4604 7997 3830 6742 6763 4927 7980 2073 5082 6001 6283 6794 3013 9274 3514 7951 4138 6174 1756 3779 8049 8666 7608 5640 3592 6146 4513 2486 6284 4087 3424 2985 4378 6575 1537 6086 6831 6661 2346 5898 5047 4250 3389 3327 5716 4148 8203 3225 2456 2387 6621 7156 5951 7293 6248 7599 3662 7108 4272 4724 6586 7190 4015 5760 3046 4147 1092 953 3378 6638 5321 8267 4323 8201 3429 7338 7414 7922 4515 5025 1220 4933 6055 1655 6971 5611 3271 1590 6040 9288 5834 4830 4893 3037 1443 4547 4171 7644 3312 4932 4542 3501 6732 4546 5584 7267 3392 4479 6737 3426 8322 6162 5770 6521 5426 9773 4223 3772 4345 5580 3804 3608 4139 3437 6997 9316 7365 7627 2454 7196 7513 1230 8455 3507 3360 7975 5710 3466 7082 7547 8512 4820 2709 4580 6189 4473 8631 7592 6600 3100 3863 3601 8837 4482 7680 6144 4369 5020 3929 2097 5998 3889 1453 8348 5807 4358 7014 4230 3011 7981 3641 6029 2233 3961 5481 2111 4831 5372 4693 4039 7260 7451 2312 5374 6738 3077 3044 1974 3062 2957 4527 5327 5930 6630 6310 6860 9387 3984 7060 1894 8912 2441 7578 4776 2727 5061 5271 4283 4480 3375 2689 5054 2476 3120 1880 4906 4848 3376 4611 5608 1481 6143
6148 2404 2251 1911 5585 7640 7061 2628 5156 8417 3188 5181 3681 3127 8473 5885 3377 6637 8094 5895 2918 6228 6364 3235 4602 3253 7159 5063 7614 3608 4972 4295 7765 6790 5042 6981 4489 1499 2594 6134 6435 2602 3957 4197 8247 9253 3852 0 6847 8445 6364 7266 3403 3750 4006 7438 5647 2419 8916 7619 8637 4077 2554 8070 6704 7687 6620 5273 5861 4624 2781 4423 2322 1567 5160 1315 3948 5317 6096 4963 3189 4001 7091 5954 2812 6943 6844 4839 5501 5363 4812 4672 8809 6471 6629 8021 5873 4098 2448 7616 946 6142 681 2503 7750 6144 705 5904 2878 4523 4759 5482 1840 4503 6244 4709 4704 2710 2959 5814 4959 5847 4618 3840 8290 6379 2099 8112 5530 2291 9204 9110 2417 6040 2461 1670 3998 3843 5092 1939 4119 2149 2631 2470 2091 8566 8613 3053 6200 8390 6466 3492 6929 8094 6121 4548 3928 1492 7188 2805 7762 6455 4878 2539 2390 4994 6306 1971 7185 4936 4307 7494 6817 3515 4432 7321 1883 5051 4842 3684 6371 2356 6227 4183 1741 4586 3834 3151 8513 6567 5645 4509 3644 5266 5737 5599 6167 3301 3600 2882 2401 3285 3930 3975 6014 5584 3850 5766 2429 4746 4191 4304 4726 3132 913 4808 2819 5599 9118 6317 1841 3297 4505 2279 5942 7986 1497 5510 6197 5144 8171 2767 6074 5905 4737 3815 4141 4746 2542 7990 3962 6360 2283 2776 4505 4220 3106 6064 4503 4341 6166 5117 5335 7726 5011 3965 6319 3059 8045 5009 8624 5723 2261 5943 4507 6625 9037 6606 3210 3500 3842 1337 3864 4728 2879 3006 6167 3810 2325 9591 4715 4164 4585 5433 4326 6310 7429 5542 4989 3571 5911 7147 3453 1092 6048 5185 7738 1406 6312 6574
5681 3322 1365 4929 3104 2488 6284 5633 2023 1871 4313 4688 3063 6250 5471 2571 5198 2533 4334 5509 4705 4502 3225 1846 5109 5646 2351 3154 7716 5117 4561 4354 4156 6905 3736 5350 3505 4469 3652 4672 2899 8599 3004 8438 2326 4856 6489 6847 0 4129 3642 1677 4660 8516 2067 1982 6493 3901 5805 4764 5608 6848 8555 2673 4602 4935 3252 1504 2711 5234 5466 9373 4216 7038 2953 2402 4763 5006 3845 2427 8177 5462 9445 694 4035 6050 2359 8365 4681 3952 5567 6122 1643 5613 761 3352 2877 5868 5392 4051 3677 4544 5451 3587 2549 7849 5325 5875 5987 2912 5778 3215 4153 5168 7684 823 6371 3731 5764 2755 2092 1716 4397 2676 1027 3350 7841 2157 7087 3471 7475 1052 5892 5213 2541 4824 2141 8906 7694 4667 7521 6256 4065 3658 5648 2893 6275 3987 7968 4863 3869 1199 3447 4614 7884 4936 6893 5945 7715 8863 4785 7244 4503 2776 1273 7294 5617 6836 4241 8148 253 9339 1429 5130 4286 5665 8929 4683 3569 4221 1692 8059 7974 2987 1149 4447 4401 3561 2793 6036 3716 7153 4407 5954 3134 3526 8347 6853 2615 7084 1534 2497 5205 6623 5352 4846 5036 4384 2601 2148 3233 3295 842 5295 3210 1709 5593 4758 5293 5733 6037 5650 4252 4174 4959 8068 4851 4911 2850 5632 898 4997 6714 3781 5738 4921 5667 3950 5266 1926 1304 8095 4540 3577 3780 5459 3875 4454 5118 3432 5904 6045 5066 1264 4562 3747 6613 1354 5586 6724 5451 6194 3098 4219 3240 3526 1737 7006 7867 2402 7102 5303 5288 6818 6343 5666 4860 2561 4373 928 7359 3712 2622 922 8404 6070 5424 5317 2277 7659 6440 7842 8663 4057 2125 2672 6088 4667 1866 6046
3748 9284 5045 1432 6309 7934 3717 8854 3577 4407 6854 4804 4023 6953 3017 3446 1866 5206 6505 6415 1561 3457 4968 6843 8009 7724 7462 1733 1798 7638 4241 4866 4847 4763 671 4964 7082 6106 6061 4959 5049 1639 5215 6303 6699 7432 6899 8445 4129 0 7717 8067 1523 4600 5425 6133 3009 2655 4115 4311 4200 8588 8216 853 4855 7412 3064 3701 3210 3008 6909 4559 6171 7206 2283 4299 6059 4784 5106 4656 4405 6125 5897 7892 7405 7142 5354 6196 2585 3855 3827 3731 7363 3398 4631 5336 7178 6647 4530 7880 8900 6017 1260 3807 6105 3202 8230 1547 1714 8045 4866 4408 4088 4068 4242 1731 4610 4147 3620 1971 6166 1148 4629 4563 5477 5047 6199 5294 2603 3854 6374 4502 5782 6738 7527 5058 3012 4850 3853 4812 4137 6324 9232 3017 6757 3494 6604 2689 7696 6949 4218 3357 7004 4753 6206 4443 4242 6983 6116 7426 8536 4747 714 6241 5372 7818 7051 2044 5870 7117 9465 4533 5574 3042 2070 4642 6452 5559 7387 8735 6592 4357 4958 4017 5376 1575 5398 3724 4005 9180 6988 7343 5883 7354 5075 1263 2743 6035 3896 4024 4246 3248 2399 5537 4360 7101 1711 6634 7588 8661 5740 4473 6159 3892 3576 3649 8023 3725 5221 3803 7556 2481 5960 2574 346 5637 1027 3124 5290 4194 5921 4483 4764 4515 8282 3967 3529 6482 6141 9316 4206 6472 2995 4067 6030 7801 6996 9046 7091 4121 5678 3226 7430 8460 5568 3304 5021 6900 1693 6288 2055 4297 4820 5762 7913 3653 6253 4268 3842 8142 8286 3065 2480 3304 5030 3385 3410 4141 3578 6573 4443 4959 2493 5657 5079 3312 4967 6325 5597 5768 9243 4408 2300 4339 3461 5026 8610 3238 5215 1432
4777 3995 2854 5770 8220 1662 5628 9306 5162 5165 8406 5433 6798 3588 1393 980 7462 3768 3324 5345 5181 9041 7860 6990 3583 694 5689 5514 4953 8536 5056 5805 5362 7016 3402 5434 4818 7359 4651 7233 5597 5458 3880 5586 7120 2890 3781 6364 3642 7717 0 6829 2715 6546 5491 5073 8610 6452 1716 5192 754 6484 4213 3862 6008 4727 3915 1520 3186 6144 2232 3678 5549 2315 6486 6728 3090 2477 3913 2996 5534 4809 2493 3776 6989 1807 7872 3213 2697 8247 7416 5576 1168 7194 3188 6026 6044 5731 4767 3666 4791 8329 1596 5169 4263 2444 6011 5046 8331 1604 3825 3588 3328 4749 5686 4383 5075 2709 5172 5009 2062 7685 2155 5166 820 4261 2705 8676 7017 3441 8189 8874 4529 5446 4570 4926 5573 1184 3607 3843 8686 6083 5545 6777 8616 4666 5428 7665 7161 4747 228 7196 6302 3554 6301 1370 5646 4668 5512 4699 4221 9382 2011 6209 3926 5020 4165 5064 5725 2304 5244 8854 3531 9236 2883 6124 7241 2769 7144 6416 6446 7255 3342 5088 5807 6563 4392 7054 2084 1772 5842 6853 4362 3064 6268 5973 3167 5603 2749 7703 6502 4520 4670 7478 1804 5909 4452 8582 1529 8142 737 956 3942 5709 5744 7244 2793 4243 633 2613 5491 3388 965 3097 5030 2187 7661 7520 4924 4762 480 5203 6206 1603 3787 3115 4691 8021 5566 2461 4918 4544 4135 8466 6485 5936 5947 3964 1381 1990 3304 4043 6654 4764 4909 6950 2597 6144 8610 4655 5949 2003 3756 1143 9133 6562 5526 2172 5966 4748 4651 5201 5793 2802 5992 3423 8373 8724 2412 749 5751 1213 4854 1546 4959 3408 5680 8545 4304 2648 2633 1802 5321 8123 8894 2660 4801 4706 8077 4909
3590 4532 4409 7873 1138 5771 5146 3294 6713 6870 9708 7652 2096 5985 5225 4100 8794 2970 6972 5907 9041 6227 1470 8415 7178 5091 4271 2305 5822 5273 4746 941 3796 7973 5000 1047 4485 6785 4774 2076 9141 5026 6623 5015 613 5963 4505 7266 1677 8067 6829 0 2859 4137 2878 1026 5775 8209 3419 5269 2809 2563 7559 7745 3531 4315 5108 4127 5715 2794 3640 5431 4798 6631 5430 6221 6250 2248 7949 4602 3304 5889 4839 4383 5529 3584 4192 4402 1902 3286 4653 8031 7985 5437 489 6058 5871 4747 4979 4554 5894 3152 2589 4021 3893 5005 5544 1854 5834 7574 6758 5172 6877 1879 5800 1909 6768 2890 4382 7638 7898 5328 4930 2418 7332 2707 2200 5232 7831 2121 5437 4397 8216 2465 8211 4236 5820 8851 3681 4627 5949 4416 5822 2858 1108 8075 1918 1606 4129 3869 5602 5819 5867 7776 4469 5617 7193 3701 5128 3348 5341 3155 7806 7068 5560 3450 6915 2476 4373 6456 6575 4293 9667 2301 5971 3438 6642 7437 3135 6665 3167 3874 4489 4961 5205 3515 3156 5941 7223 1572 7016 5202 2271 3597 2482 1628 1132 3012 8106 2677 5655 2116 2784 7736 8325 7440 3945 4650 4176 3199 6061 7340 1452 3604 7073 4593 1040 4229 4989 5634 2918 6575 8830 4677 9021 7884 7653 7134 5564 4987 8685 5912 7056 4275 4946 1105 4005 5302 4275 5032 4911 4606 5706 6122 6073 6687 2102 4768 7591 5506 4770 7031 4085 5957 6422 2569 4730 4351 3323 4230 3648 5300 6145 9283 4877 4878 5978 4335 2142 4986 8331 2543 1248 3526 5327 6605 5073 3817 5961 4099 5408 3933 6446 4738 3874 8159 4989 5894 2582 5673 1972 3990 7443 5042 4568 6725 5974 3807 3718 3333
5506 2528 4079 5122 4763 6414 6456 4467 7573 4435 6347 4201 5531 5254 4593 4082 1168 4854 5387 2634 3428 5081 2300 2810 4706 4809 6709 8479 2264 898 3463 6913 2114 4377 7040 5225 8292 3087 2981 6898 4347 6342 4896 5518 7224 3796 3469 3403 4660 1523 2715 2859 0 7813 4253 8147 4436 8810 6793 5521 4408 7689 7063 5195 2519 6903 5975 7259 4016 7490 8442 4490 327 6425 4713 6319 6164 981 4253 7209 3272 5939 6950 6111 8608 5435 7463 6296 3218 7667 3961 387 5292 8380 6021 2454 3789 5618 6033 3526 973 3796 4133 3062 8051 3157 3283 6775 7394 5584 6987 9655 7292 7811 3764 5078 3313 5232 5254 4705 2449 3656 7723 7265 5227 5717 3894 5006 1829 4105 1577 8068 4344 7562 6516 9219 4565 5046 4374 6658 5791 7603 3896 4088 8290 6261 2755 5230 6021 2611 5223 5766 6990 2032 7574 4563 7012 7245 4378 6313 7510 1772 5396 5178 1891 5483 4846 4322 5581 7993 6930 6542 3009 5181 3911 1110 5637 4953 5903 6536 5487 3143 6847 6079 1478 3454 4582 8713 5222 428 4178 4181 2641 5568 8840 4108 1751 2930 5425 8779 2293 9245 5097 6361 7385 1432 4540 559 2046 7388 7904 6358 2414 6934 3743 4223 4188 3420 4265 8551 7959 4931 7556 6743 7033 6690 8987 3322 8330 6879 4524 6561 3776 6367 1676 2447 8277 7215 4968 4159 8292 6839 7764 3862 4329 3029 5302 7719 5962 4748 3557 4576 5661 5785 4335 3579 5493 4490 7083 5731 439 6200 2768 4017 6262 4798 7937 3231 5921 6360 5251 3592 2153 8186 5374 1549 7906 8891 9607 6357 2947 4611 4952 1362 2229 6633 4811 5043 5132 3869 3673 3870 5241 1398 7595 7863 2798 8821 4797 6857
7906 3896 4465 5523 7695 5341 7022 8684 4916 4558 2223 201 3802 8591 5037 6144 7113 6943 4217 6994 3434 1935 4193 7697 3272 3769 5548 9170 5233 5099 3791 2471 5456 3380 3140 4083 9642 5656 6253 3207 6987 3353 4784 3807 1195 5483 4938 3750 8516 4600 6546 4137 7813 0 3166 7043 6272 7033 7461 6214 8559 4487 2515 3779 3528 6128 8840 3811 6872 7974 6101 5120 6278 7323 7630 4938 3569 3823 6620 4939 6664 6625 3926 5204 7981 5124 8542 4142 5711 6399 1093 6761 4691 4381 2735 6129 8265 3771 4156 3442 7860 7750 3920 3775 5198 4267 4127 1593 4345 4983 2223 4991 5973 3585 5433 6961 5553 8255 2680 4874 4667 5755 6626 3356 5636 3871 6559 8060 4366 5655 3951 2909 6482 7275 3597 4360 4255 7319 975 669 5017 1309 4254 6832 3128 8709 2597 3699 2174 5607 1469 8470 3587 3631 3968 7671 7781 3057 4497 5261 6373 6408 5457 4914 4176 5877 4965 8879 5701 6004 1482 6397 3561 3921 5813 5374 2122 3367 7454 3504 4453 7437 4026 9112 5881 7982 4594 1473 4456 4493 1757 5308 1022 5803 8192 2773 5983 7243 8402 4062 1951 6029 2299 2061 5823 3993 7669 4127 160 5847 1203 4694 1575 6363 5028 2334 9110 5170 2224 6785 5940 4351 2366 5045 4067 2583 6184 6271 4322 4406 1957 6448 5299 4015 1065 629 5155 1522 7153 5221 2430 3643 3513 3271 1564 2155 3551 3972 6304 2334 6143 3956 6440 5613 6788 2117 7015 3050 6651 7057 4335 7434 8430 5588 2992 4456 3154 3296 3723 8591 4620 8027 3711 7143 3223 4834 4144 3716 6607 7182 8389 3040 2783 6242 7297 4040 8845 6784 5147 5889 8108 7315 753 3496 5456 6077 3950 5907 4575 6697
7647 4114 7191 6867 3613 6136 6950 7062 3441 3775 7490 2537 7852 8363 6478 5582 7697 4406 2268 4001 1656 3876 3760 5245 7451 2277 7000 5449 4259 6145 5475 1682 5184 4144 5109 5326 5752 1604 1542 4567 4008 7377 7798 5885 1094 2866 5022 4006 2067 5425 5491 2878 4253 3166 0 1678 6261 5063 1510 6154 5557 4935 360 7619 9123 2348 8405 1741 8454 5076 6875 1798 6362 6438 9410 1978 6016 5531 6949 6287 2593 4191 5182 2167 5331 1266 2198 1673 4700 8457 5065 9340 5075 3250 7697 6596 6212 4556 2045 4061 3444 3657 5977 5078 3342 6892 2341 3853 3983 9182 8145 6698 6449 5283 4798 5059 4182 7156 3154 9838 1619 5314 6269 777 2147 3500 4217 2298 3229 4164 3988 8965 5376 7299 5393 3480 2852 4825 5351 2958 2842 4952 6176 7102 3983 5501 4155 6991 5280 4108 5611 4823 6596 3527 2011 5031 2848 7957 4178 199 5810 6281 1359 609 5711 3514 5909 3322 5634 6261 7997 8201 4459 1478 8440 2362 5533 666 5421 4685 4426 7359 8165 6941 6146 6446 5614 4528 3885 2762 4237 6490 3180 4884 3315 8815 4750 6919 4294 8842 6235 5857 4562 8518 1025 3467 4381 2975 2253 1123 2954 7112 2882 7107 2858 3042 1246 5171 7035 4303 8354 4097 5171 3162 620 4928 3718 4865 7462 6622 5207 8411 7776 9748 5827 1472 3572 4729 5213 4040 8740 2639 5917 3525 5137 879 6031 2623 6942 6322 5272 542 2302 6811 2925 6110 6547 3935 5622 8647 4476 3667 5459 2845 7503 4122 883 3049 5880 6218 4315 5438 583 4070 5485 4700 5763 4021 3912 3780 7879 7351 3823 4847 6037 5383 2537 5985 1070 6662 3811 6336 2102 3380 6128 6832 8722 6747 1968 5191
6019 7455 8149 6440 6218 5032 5714 3865 7361 3338 4303 3849 4325 3744 3015 4559 5932 7090 5256 5776 6102 703 966 4262 5601 8108 4586 339 3371 6146 4443 3249 6072 2425 1304 367 4455 8083 7254 2928 3385 4889 6726 6532 6379 5019 3143 7438 1982 6133 5073 1026 8147 7043 1678 0 1710 1904 3239 1109 7186 4295 2961 4519 6895 6568 4224 5036 2930 3851 7824 5337 5928 2210 3167 5697 4336 897 4060 5435 4807 6455 4661 8782 5736 4151 9307 3756 3455 3943 7531 4243 4102 6040 1131 4115 7438 6196 5934 6295 3484 4455 2700 6533 2955 6332 4411 5079 1230 6978 5134 5671 5990 6430 3046 4177 7052 7906 6693 5832 1358 3878 7091 8429 5430 5683 5700 3875 5298 9256 2222 4381 3106 7106 5555 5757 5849 2269 2864 2679 6460 4154 4646 5743 1861 7419 5225 4151 5854 6822 2502 8275 6747 7055 4012 7451 7371 6571 7166 5737 5559 6694 3861 7627 4399 2451 628 5011 1177 4475 3603 6101 2646 2342 7442 5232 8531 7247 5911 7365 3503 4256 6664 4247 7168 2480 4935 4776 5084 5031 8591 6994 8050 2341 3916 6567 4971 7383 3754 5313 1884 7699 1880 6699 2598 4756 6875 2662 7256 1482 7544 8221 4738 6621 7296 3614 3943 8848 4362 2669 1599 3996 5868 4075 5690 5230 4311 5968 3009 2348 4045 3890 3692 1304 2827 6739 5977 5389 1801 654 6994 7238 3989 3675 3408 1642 6731 7361 1189 4327 6519 5643 6883 5554 5566 5749 5732 2975 3500 4948 6368 3990 5377 5026 7189 7851 5637 2657 2043 3500 4589 8224 4612 5219 4847 3630 4469 6722 7948 5092 7598 5955 8426 4157 4070 4472 6495 6026 5227 2971 2485 2939 753 4029 1050 7429 6377 5841 2353 6555
3070 4600 1681 2391 8912 5002 7523 4794 2053 362 2126 9620 9222 2494 6524 6858 6042 6949 6031 4929 4592 6877 7985 8969 4597 2826 2068 8103 6014 3366 6125 6406 6857 3641 9506 4011 4056 911 4719 5539 3431 9070 5230 7744 6028 4639 4953 5647 6493 3009 8610 5775 4436 6272 6261 1710 0 5035 3228 4683 3122 7533 5092 4976 5713 2716 4686 4090 3933 6234 2662 5671 7100 3536 2329 3468 5194 4911 6401 4040 1356 6021 7966 6293 5342 6049 6269 2233 6639 8672 6341 1813 7038 4202 8584 1161 5700 7228 7343 4724 4339 2246 3136 3746 4909 7172 5873 6079 6916 2238 7757 5670 4613 4240 4985 5261 5333 4458 5410 7406 4873 4768 4499 364 3347 6498 6068 6744 5615 4867 7270 5541 1710 6431 4270 8198 7720 1930 2594 5241 5939 3296 7405 4409 5473 5818 9250 7024 5901 2292 7302 1969 8059 5177 4951 6398 7695 2476 4351 2488 4050 3807 4744 3511 2917 5628 4637 4812 1827 5886 4861 7190 5447 2822 1351 1074 5574 3700 7103 4885 9474 4227 3194 6342 5621 3624 3915 8365 5462 1742 9002 5886 8244 4184 5833 3937 5203 3361 8046 3499 3581 4231 2941 3265 5360 4748 6361 3513 2498 3791 3959 6328 5299 6516 6335 5745 5848 3363 6397 6287 6944 6513 3317 6397 4993 4229 8109 6664 3665 6388 5961 8309 3721 8702 8459 9295 7226 5255 5128 6656 3230 8784 5808 4337 5694 1828 5747 7376 5796 5038 5555 7779 7664 3635 7334 6052 6672 6133 6654 5500 1671 8143 5858 6813 6364 1224 3661 5824 5000 1071 1803 1414 1872 3283 3791 8291 2657 5177 2208 2690 2953 3319 3308 3121 6070 3192 5880 6511 2631 4439 4558 4997 5368 2313 3387 5682 2031 7954 1431 6105
6813 5113 4284 5165 7633 2439 4969 1922 6077 7403 6910 2823 5080 4854 7086 5918 8223 4983 1889 5046 5869 2700 4680 5133 2029 7329 5614 2688 7550 6400 3939 3338 3076 5381 5815 7295 6986 4286 5824 5877 3352 4628 6849 4568 5082 6575 1648 2419 3901 2655 6452 8209 8810 7033 5063 1904 5035 0 5606 3936 8265 1784 2669 7291 7166 7282 9186 8618 1795 6766 6028 8431 6421 3540 3650 4119 4268 6769 6417 5855 1805 3136 5222 5013 6630 5788 4492 618 5395 1824 4614 7822 7217 1220 4673 5481 5755 5958 3283 6479 3886 5732 4785 3806 5209 4811 3778 8040 6036 5820 2024 7048 7447 5684 7910 5900 3482 1063 5145 777 3016 9404 4123 4493 4384 5497 4017 6897 1574 4437 3632 1643 3867 7875 7484 7718 6586 4837 8051 8571 5418 8630 8108 4609 1972 4485 5551 2758 7472 7825 5922 8460 6425 6384 4788 240 2557 4010 552 3685 7835 5978 3869 4240 6464 3245 4567 7688 3468 7094 2641 8662 1909 4700 5762 5319 1735 4926 7936 2727 4680 5766 2807 3392 8889 7031 4326 7197 5978 6970 4816 6646 3039 3054 7255 2323 2637 5683 804 1573 5063 4404 7936 5007 2846 8810 6227 6173 1762 6802 2271 4772 3317 4241 8063 5489 4419 3772 9575 4985 2210 5391 7447 4969 4436 3576 7824 6569 6260 4831 4820 6367 7040 3126 4475 8160 9608 4749 7430 1296 7978 9311 4999 4171 5781 3971 2735 8541 5880 5616 4568 803 6103 4358 3606 3873 5246 5851 5174 8703 4935 5933 1798 5983 5833 3012 5616 1362 3610 6337 5977 8269 4913 5802 4244 8830 4807 8200 6704 4716 2720 5380 6590 7131 3928 2722 5872 3234 5436 4016 4833 3915 3202 7507 5809 4988 2797 5192 5369 4757
8628 6316 5674 3054 9558 2882 4724 5828 4297 4154 6985 5133 4378 4299 4300 3258 4320 4138 4213 5509 6089 5672 1978 6573 6439 2955 7853 4023 6973 2928 2546 3453 4999 5005 1792 4581 7840 7161 4247 7284 3327 7872 5126 4004 2294 2652 4926 8916 5805 4115 1716 3419 6793 7461 1510 3239 3228 5606 0 337 3856 8001 1019 8061 3614 2523 4011 3422 4922 4971 4519 5234 1526 4536 4427 9480 1640 3139 4043 8180 5243 6583 4362 4453 5407 6823 1755 3302 9097 1376 7530 3041 5773 8148 5482 3805 6626 717 4970 201 3870 5661 7144 3977 2575 2462 4795 3816 4895 5996 2825 3320 3265 4820 2997 6118 8910 7596 4885 2172 4551 365 7501 3377 5215 1198 792 5044 5397 6810 6735 6528 4480 1509 1930 4917 7251 4997 6334 5179 3485 446 6697 5449 7125 6209 7178 3872 4295 5119 1524 5545 4876 3534 7875 5608 6449 8287 3193 3293 2058 5402 1725 5554 6075 2812 4196 717 4490 3887 8215 1430 4685 4493 6433 4134 6970 6730 2620 5795 8767 3311 6635 4485 4989 7069 5769 5137 4402 933 4940 8036 5155 7503 3343 5607 9705 6101 4735 3587 741 2256 3856 5682 8857 4725 1077 713 6208 1141 4866 7451 6844 5285 2603 3471 5606 3041 5419 651 2567 6231 5314 6118 4092 1385 7439 5590 2427 8583 5199 2937 716 2590 4018 8619 6154 7031 5829 4611 6531 5492 5155 6378 1191 3659 2680 1604 8099 5650 1538 3407 3128 4397 1950 8642 4031 5993 7188 4755 7202 7493 3793 7465 6046 7161 3218 5836 3930 5858 5731 3831 3522 3744 1096 5286 7113 2164 5065 2976 5978 6448 1833 4147 3997 6828 6534 4581 4150 6019 5481 7979 4300 7553 5519 8772 3492 6493 5345 6872
3940 4087 6214 4833 4212 5613 8218 8143 7699 2886 5845 6433 8184 3790 6011 4057 3572 5168 7270 6752 6423 9723 5869 7259 5864 4357 4445 6064 2748 4332 2498 5692 8359 2728 1033 3647 4381 4983 4585 3560 5847 5173 4917 5373 8318 7333 3349 7619 4764 4311 5192 5269 5521 6214 6154 1109 4683 3936 337 0 6206 4451 3808 3960 3977 7316 5041 8243 8193 7316 2328 5969 5194 6724 6035 6397 2213 3661 6518 4612 7570 6258 7851 5523 4380 8713 2917 1704 2705 946 8510 8137 4557 8563 6976 3529 5387 5775 9214 5072 2951 3258 7615 6276 8233 4933 5732 2092 990 6081 719 6029 3670 4098 1732 1495 1176 2908 4073 6981 2963 2324 3915 4576 3578 2300 6122 8627 2256 6408 4729 4270 4677 5849 6923 1875 7204 5455 4984 5242 5116 5939 2925 6713 6584 8350 3951 2531 4964 5203 3724 6986 2256 6976 8775 3483 4792 3656 8770 5394 4106 4484 4705 5681 5476 3753 8230 2275 8303 8556 4123 4913 3383 4441 5333 7567 4535 1545 8453 3648 6621 1516 3661 5359 4126 5253 1614 3867 5329 4783 6290 1613 2165 4848 5170 6321 2684 3704 6248 6583 5899 2723 8627 4018 2577 5300 2154 5961 6769 580 5596 1506 7108 3093 3718 6977 7871 3138 1086 417 8841 5716 6107 3987 1107 4881 7923 3459 1330 6997 2933 3420 3168 6582 7715 2776 5434 5618 4683 4559 7446 5974 3990 9328 3794 2782 6330 6761 4208 7950 1956 6375 7279 7092 6583 6252 6184 5117 5571 3295 5789 4500 4387 3526 963 1951 4763 9319 6594 5079 6489 7073 2920 6808 6645 748 8409 2122 3982 3362 7656 389 2626 8878 4066 7320 5323 3865 5780 6723 1441 3144 5743 5707 5100 3295 7696 9356 5067 4761
7359 5576 5735 6597 3850 6992 1574 4760 4011 281 8053 8427 2671 3302 5729 5364 1587 1475 5531 2845 695 7227 1374 5641 3434 6690 6131 6753 2903 5235 4740 4457 4751 7117 4923 4139 2075 3078 3176 3995 8438 7229 3242 4047 2835 5015 1684 8637 5608 4200 754 2809 4408 8559 5557 7186 3122 8265 3856 6206 0 6760 4403 5392 3835 4761 7510 7829 7984 3296 2508 8563 4914 4025 2151 7725 5889 2494 4378 5350 559 5395 4993 2082 7695 7938 3158 9205 5301 3488 1403 8046 2806 5681 5354 5007 3926 5683 4536 3991 3820 7637 1246 4534 4913 3025 8210 3719 7559 3602 7391 5913 8072 6361 5758 5480 1377 7522 6401 4273 4457 9590 2870 4912 4757 8699 5042 4681 4322 1791 9030 5417 3666 3408 5668 1734 8627 5169 1861 8427 1654 5664 2970 1236 2980 4658 7211 4064 507 8286 9155 2140 1591 3672 5160 6802 4428 5772 6343 4892 4758 8829 6109 6199 7227 5126 2985 2027 3790 9146 5130 6818 3948 5535 5657 6662 2154 6385 4480 7933 5348 9339 7823 5787 6686 6262 3944 1392 5285 8989 5463 8050 6188 3730 3594 6703 4820 7705 3357 4023 2973 8111 2326 6755 9449 5938 3762 5349 3368 2603 2182 3304 4450 3424 4687 790 3346 7358 9280 7728 6479 3917 3207 3317 3359 706 3754 5445 3716 5803 7713 5731 4829 2118 4255 8200 2805 4542 5487 7064 7746 3580 8843 2860 3636 2471 4104 5034 5230 4210 5730 6816 2125 9510 4942 861 8346 6669 1769 6143 5267 5506 7194 898 7736 6670 3031 5892 1195 4514 3835 5454 8943 8559 3486 2974 2794 3006 5786 5879 6311 7119 4444 3483 2338 5041 2540 5845 2798 4707 4651 9155 3251 5421 6268 4664 4893 5196 7975 6382
6416 4590 6452 6652 5163 5705 4856 4349 5065 2023 6705 5153 3571 3138 3560 6947 7277 6072 1587 2447 7502 5663 7000 479 4699 3697 4761 1994 4819 5318 5255 8501 3281 3885 9144 7204 6123 8119 7344 6575 2946 5840 4416 7232 7006 7147 4511 4077 6848 8588 6484 2563 7689 4487 4935 4295 7533 1784 8001 4451 6760 0 646 4788 704 5889 4617 6033 6437 8163 3455 5868 4842 4962 8440 5110 1662 4197 7970 4493 7528 5081 3941 4121 5046 6224 4277 5938 3662 7366 4746 2124 5342 3241 5508 4731 6184 3415 4575 7182 6632 3582 302 3148 4479 4899 5233 7078 5969 2956 5132 6319 5279 6161 1637 6821 6273 4259 6218 6614 5420 5845 2149 5556 5500 2066 4632 6599 7178 4069 3499 3974 3108 6553 3262 5433 5806 3806 6169 4903 2626 5771 5803 3734 6280 5650 5323 4580 5084 7322 2744 3402 4349 798 4918 3948 6303 6440 5594 5493 8403 7002 3543 3876 3604 2018 5942 7266 5888 5603 8908 7654 5755 5845 4340 2049 5505 6787 3283 2132 2232 8279 3681 4315 3204 5979 6079 7247 5125 1602 3515 6144 6353 8701 7757 5784 5020 2626 3634 5973 4920 5915 5804 3376 3775 3198 2959 4625 7628 4355 6748 6109 6374 4125 7247 4383 3661 4339 7454 4860 5433 1830 7602 8503 7724 3074 2724 7175 2552 4305 5096 2218 5341 4553 4829 4231 3205 9878 9182 7265 4700 4020 6480 5130 3476 5458 5985 5837 8209 2844 2544 5653 4999 4478 5909 4828 6276 4884 4106 2792 6683 7683 5866 3108 4467 5580 3518 2437 3298 6094 6611 404 5765 4507 6434 8040 1852 8663 6480 2725 8449 4459 1613 5505 4798 3170 6758 2015 5760 8612 2179 5244 7505 6176 2494 8732 6934 8730 1850 2239
8509 7907 6211 7124 4512 7037 4916 1394 3386 4277 5871 4609 6827 4027 6278 4797 5028 3552 2723 7795 6923 3287 6020 7260 1832 1412 6902 7129 7277 7311 1234 5460 8543 4494 4058 6450 2301 596 4669 6532 6914 3129 5651 7258 5431 5865 4086 2554 8555 8216 4213 7559 7063 2515 360 2961 5092 2669 1019 3808 4403 646 0 4535 6845 6189 6862 1688 5122 3355 7316 4237 3476 5178 6819 8183 3828 3013 2925 8438 4232 5786 2436 7844 6868 7575 5495 5878 4918 5195 3921 4785 9917 6169 7055 2142 5600 815 5303 5136 3380 5504 5016 7752 6014 2654 4531 4849 9455 2560 4090 5036 6620 2712 4913 1002 1346 803 5514 4328 2027 5407 2797 2552 3962 2652 9134 6358 2724 8864 2720 5662 5715 5460 7963 4636 6134 4294 4168 7401 3479 6351 2212 5649 3009 7331 1702 5536 3373 6000 7289 4700 3475 5354 2119 2183 3523 3931 3709 1010 4068 1172 3675 2102 1590 3761 8272 953 7874 3799 7962 6374 4743 4547 3275 3217 7623 3764 5298 4121 5001 6169 1788 6463 4257 3004 6817 1905 6826 7953 5548 3280 3546 6719 6369 2721 4933 3765 3916 8049 3383 6032 4903 5272 5046 3307 6347 6611 1683 8513 8726 2669 7781 4946 1735 4996 3763 6057 4758 6677 2813 2324 7903 3158 4051 3020 5639 4844 5040 4930 5514 1606 3631 5434 4174 7513 8285 3465 4104 4008 2861 4877 4356 1261 7877 3261 8056 4881 7020 4723 7165 7193 4850 7930 2888 4646 4151 6542 8985 8675 6460 7617 4783 7126 5108 2034 8451 6014 7928 1037 7432 3454 5557 8174 5468 6567 5598 6898 8047 600 6823 7649 5775 5450 8742 5927 7198 3653 3661 5048 3455 8884 6035 5982 5207 3231 7498 4624 6039 5399
4186 1340 2085 3752 7431 2786 7040 2314 1569 5792 5135 2141 5617 3802 4933 6153 5692 3574 1917 5009 4298 5152 7510 4848 2601 1975 4693 2213 4855 4792 1099 2474 2135 5528 9106 2673 1352 8708 3605 5383 4563 3230 2904 8481 5554 8539 3934 8070 2673 853 3862 7745 5195 3779 7619 4519 4976 7291 8061 3960 5392 4788 4535 0 8763 4069 3751 5571 4099 7300 5947 8000 8983 6866 7851 5011 3126 3931 2239 3989 2890 689 4698 4952 3439 3177 2332 7095 4346 3414 5922 5153 5074 5792 4852 6193 2361 8313 5927 6156 4771 7060 2121 6519 2589 5469 5541 7344 5680 3249 3200 6022 9682 3478 6869 4577 5831 4634 8031 5453 3701 2239 7942 5721 9426 4056 6453 5908 4336 7620 7035 6508 2120 630 2639 3418 4963 5592 6022 5105 5835 9417 7516 7000 8539 7817 7201 5256 5483 6151 7436 2388 7129 3073 4582 4193 4895 4756 6814 5337 3913 6436 6090 7133 6551 2934 4662 2268 1915 5460 6058 6325 5866 5002 6514 6563 5764 6604 1090 8521 1941 6159 2967 3139 4022 6020 7387 2215 5108 6563 5360 7574 3098 4353 2956 7319 4245 2082 6003 3055 2556 3253 6740 7451 8117 4523 5354 3979 8452 3598 6641 6406 6160 8368 6386 5183 6124 5091 3366 3246 2898 6347 3544 6922 3660 7393 6750 5918 6517 2593 1821 8203 7047 4296 2920 4093 3176 8031 5176 6711 5184 2773 2863 4862 143 4494 6416 7168 6518 9180 7606 3713 1924 6828 7339 9820 4930 2193 5799 2379 8262 7216 8500 7723 8077 2888 5963 8951 6475 2963 4504 5417 3054 6423 7179 2087 9299 6931 1379 4544 8299 8078 6258 1991 8291 4496 5707 5563 6253 6341 6332 6562 5049 1295 7642 6364 5382 8345 2967 5362
6324 3927 1559 3722 3345 5895 5693 4846 6911 5320 7243 4483 7972 4864 6540 3186 4817 3374 2685 9051 3633 5052 5298 4967 4971 4473 1291 4719 2930 6397 5276 4940 8486 6417 7771 8864 5369 6565 8046 4618 3539 6733 7902 8882 3628 6689 5365 6704 4602 4855 6008 3531 2519 3528 9123 6895 5713 7166 3614 3977 3835 704 6845 8763 0 1058 3333 4575 554 6452 4939 5493 7659 6481 5509 5651 4540 4133 6041 3815 5113 6981 6210 7498 6453 5034 8489 3647 1587 6278 5215 1471 7300 6364 2275 4173 5947 6493 8367 6654 6309 5313 2233 5696 6973 5907 2294 909 6127 3619 3942 4716 5183 6837 6502 6200 5490 4121 2630 5938 7350 4326 3127 5842 1522 4201 2172 5707 3629 6822 8491 6117 5452 2867 4274 5248 4730 6240 8405 4975 1371 6598 5685 4941 6908 5732 7732 1465 3430 2599 4480 5756 9098 6969 2260 2531 5553 5694 2112 4066 7193 5591 5718 3009 6622 3938 7689 1707 4275 6190 6066 6245 8206 4047 5623 9151 817 3230 8767 4027 5447 5792 4452 6134 2941 3943 6640 3006 5568 4928 4485 5536 1538 3669 2801 8816 2340 8168 5214 4036 7621 5121 2466 7141 6872 4803 3422 4555 4330 4932 7077 4541 6684 5852 4821 4595 2578 7247 8245 8725 7986 1863 2254 5090 2402 6144 8044 4942 9695 6373 2460 4571 5017 6730 4229 3993 7726 959 6226 2170 5105 8217 4044 6140 8656 5293 7227 3567 6427 6453 7071 3475 4553 6761 4740 4696 5833 3011 4209 6469 2864 6297 7077 5624 4150 6077 3222 1856 6745 6425 743 2935 4263 8499 9641 2459 2874 6473 7303 798 6980 2724 8931 5452 8084 2974 8288 7982 4301 8095 3693 6481 3678 5185 4400 6354 3856 5754 3498 4605
5258 4288 2771 4727 2046 5461 5878 5708 1946 8428 4125 3567 2387 7322 2321 6870 8303 6269 6358 7606 8942 7499 3114 9230 5139 3291 6175 7070 1562 1118 4786 3184 7537 5914 7823 4632 5426 586 4788 3986 6093 2064 2647 4814 5502 5766 5214 7687 4935 7412 4727 4315 6903 6128 2348 6568 2716 7282 2523 7316 4761 5889 6189 4069 1058 0 5770 5187 5054 5436 4555 8186 5378 5984 6846 3852 3131 6521 5906 7244 4755 2661 5838 6996 2800 4680 1365 3416 5739 6255 7738 3953 3623 5061 5398 5072 5102 5240 5749 5985 2438 8354 1689 4830 2382 6421 7049 1139 2480 6037 6211 4007 5394 3894 9817 6813 7515 3896 5085 6157 8097 6946 7049 6216 3635 2949 2013 5189 3291 9764 5862 7092 3710 6053 504 2520 502 4389 7631 2026 3395 6310 4118 3023 5801 5276 7713 8255 4176 5616 4384 2254 5052 3140 1771 5551 7301 7100 5124 5765 7476 3357 6483 5353 2965 4556 2380 4883 6505 5162 7627 4785 4785 3256 8642 4116 2178 5717 3985 6789 5056 2836 6002 3694 3852 6548 2441 1271 7308 2695 5569 7233 5269 2440 2616 4126 6619 8190 3715 7960 1173 2979 4830 6505 7598 8036 4308 4618 6448 4962 4331 4844 3435 3960 8082 6621 5791 4461 6909 6357 5916 4742 7482 1592 7324 3386 4887 8454 2144 2414 7946 4222 2854 4530 5062 3494 3435 3223 7251 3165 4444 6709 5311 1729 6866 3211 2762 6015 2799 5355 4789 2544 8212 6209 3855 3763 4902 5105 3774 2952 6226 4650 5394 1042 5207 6618 2895 3734 4876 5517 5870 3137 7098 654 2003 7536 8009 4395 5263 4855 4443 8194 6608 6549 4305 2504 5722 1592 5188 5406 5424 1249 3840 7913 4828 7762 6443 2608 3783 4594
5391 3910 3347 4326 5254 4842 6710 1906 2340 2106 7532 4397 3009 7097 4662 1999 4644 4771 4014 8451 8092 3601 3037 3470 9185 2595 8732 9065 5336 1065 3276 7261 6731 1616 4695 7444 5786 6863 4724 2769 3026 6130 2511 6939 4292 2997 5050 6620 3252 3064 3915 5108 5975 8840 8405 4224 4686 9186 4011 5041 7510 4617 6862 3751 3333 5770 0 797 6692 7996 3419 8043 4458 1220 3223 5956 5047 6377 4767 7690 7076 7652 4340 3126 4489 4981 3491 5049 5782 5152 2774 7684 4054 2922 3786 6369 5963 1260 5443 1813 4936 6915 6321 1658 3988 1396 6319 3519 1400 5935 5391 3153 6157 3794 7697 2724 3179 3281 4873 4422 2558 8301 3569 8560 4475 4122 3661 4745 5773 7388 3760 6042 4584 7226 5022 918 3267 3887 6800 7190 5121 4726 3098 3743 4250 4319 6977 6253 3769 3507 4714 6698 7257 5867 2011 5134 5614 1892 691 6292 1072 7428 5946 4023 1880 5173 221 5670 3057 7170 3227 3021 8222 3316 5755 4894 4752 4017 4265 7351 6438 6675 6340 2764 1799 6586 4440 6148 919 5936 9516 2519 5362 8460 2187 5379 5397 6713 6473 821 2164 3439 7304 8192 2249 5872 3738 5966 5658 7018 6449 3737 5762 5167 5362 5535 3068 4841 7950 9715 2156 8131 5269 2492 8895 4687 2893 2164 3648 9177 7738 6087 4169 6938 6919 8426 4501 5201 8756 4366 5245 2697 3634 7449 9171 4686 4776 2907 5651 2406 4827 1411 5269 7252 1927 7150 1177 3074 8279 7830 4036 6059 5779 942 5707 6820 4079 9797 8309 5242 6782 7203 4408 4844 2547 4570 6472 5823 4578 2436 4783 7459 6039 2578 5424 3166 6997 1659 1720 5012 598 5840 4157 5460 6696 4571 4823 3752 5181 3400
5025 5054 3450 3375 2644 2809 3476 7745 3566 6906 1807 3009 3189 7627 3951 6132 8572 5226 6854 3123 3450 6730 3192 4585 3026 2874 5227 5799 4604 5471 8246 3554 3580 8387 3665 6391 4703 4940 3436 5218 7618 6012 6950 2921 5275 7103 4310 5273 1504 3701 1520 4127 7259 3811 1741 5036 4090 8618 3422 8243 7829 6033 1688 5571 4575 5187 797 0 3394 5547 6969 3464 117 2715 850 6541 598 2349 2746 4244 2640 6141 6011 2445 5319 4969 4405 4683 4460 5721 7254 6223 5445 5464 9697 4444 6507 5624 7657 1963 4004 559 1912 6676 8518 7021 8579 4598 4432 2313 7916 4663 98 4618 1912 5795 5680 1089 2697 745 5080 3977 5637 7276 8107 5165 8665 5491 7703 6236 3405 4271 4312 3655 6497 4827 5793 8966 6558 1986 797 3130 3837 7512 2719 7156 6153 2593 3755 2685 5517 1724 5222 5360 8072 3824 2836 1942 2442 7262 5706 6270 4055 6969 6670 8323 6245 5129 6739 8046 6504 4266 6332 7082 2209 5859 6170 7480 6727 8941 5199 2017 1698 5111 6142 6489 2743 7780 7519 1119 7878 6014 5964 5575 3080 5859 4813 3091 5098 3901 3244 6100 1259 8226 8320 5574 1862 3266 4081 2903 3278 1765 5781 6038 3455 7780 4991 3254 5504 6524 4456 3453 2138 6185 1770 1529 5204 4698 4154 6598 7750 5052 2521 6700 3993 442 2927 6462 5726 3786 5230 4798 3226 2537 6498 2155 1865 3638 3629 3752 7096 4647 6639 1606 7099 2413 8036 6276 5329 3544 8683 916 8225 4520 5291 5890 5158 7802 6634 6488 7080 4903 5338 4639 5214 1737 3826 4313 7654 8335 3093 2310 8578 7038 4606 5692 5717 6164 5833 7109 4150 4689 6829 2902 2799 2985 5509 8289 3458 4687
4329 4240 5451 8060 4847 2835 4912 5581 3219 4352 6427 4983 4693 4524 3853 4125 7717 5139 6032 4150 7505 4830 3014 6763 3625 2264 3440 6278 2305 1706 1878 3049 7984 5113 4414 7516 6488 4832 2201 6814 6059 4968 7865 8590 7929 3437 4439 5861 2711 3210 3186 5715 4016 6872 8454 2930 3933 1795 4922 8193 7984 6437 5122 4099 554 5054 6692 3394 0 3752 7962 8330 6277 1839 8247 5892 1480 4854 5340 3658 7037 8823 5927 7278 4321 2170 562 5157 2880 4363 6684 5273 363 3794 8321 3378 4861 4248 6571 3170 4204 8025 8082 2724 7360 1554 1068 2699 4185 2904 2463 5540 6648 6589 3523 6162 3807 5524 9013 6262 2275 5116 2052 1020 2673 9414 3909 5488 8707 5318 4702 1171 6196 6505 3558 2238 4364 2269 2505 6615 8100 5863 6366 4894 7273 1341 5176 5741 1433 4851 6465 6639 3460 5167 1809 3754 4527 4881 3914 2343 4760 4587 4282 3306 4497 6628 4566 4870 2129 6082 5931 7167 5414 4650 3801 7008 7077 5509 5067 6480 2777 3020 6473 5580 1805 4367 8252 6246 5050 5119 4134 3654 5844 7064 7402 5244 7819 6843 4904 2843 6798 7723 3228 4973 5711 3361 5896 3936 4998 3966 1991 3351 4640 8007 6697 4809 4437 6237 3273 3615 4980 4947 5807 5201 6995 4626 4974 3209 3954 1334 3190 7039 4144 3589 2018 1865 3720 4839 4965 5535 3938 2926 5530 5462 3558 718 3225 5104 4912 4751 5382 5223 8661 5796 9612 6824 4089 5869 4639 2202 4759 5510 2373 2201 4982 7734 4100 5018 2970 7319 4020 4688 7160 7486 8135 2116 6354 1565 6810 6472 3938 7847 3445 1522 6320 7201 3235 6288 6994 5446 3125 2814 1716 3659 2259 2751 4148 9216 6843 3194
7533 8330 2846 4495 6029 1534 8167 5091 5070 7846 1475 8066 3621 7479 3116 5943 5379 4158 3046 6172 5073 6462 2788 6295 6409 4327 5041 5588 5573 5403 8117 3690 1943 5251 3742 4166 104 8762 5996 8068 5186 5075 5933 2905 4550 5476 3452 4624 5234 3008 6144 2794 7490 7974 5076 3851 6234 6766 4971 7316 3296 8163 3355 7300 6452 5436 7996 5547 3752 0 3844 6729 5348 2790 5099 3807 6618 3104 5636 6598 5030 4352 7820 5218 5536 4804 3538 3638 2042 2938 4075 1208 9424 2050 7517 4497 4782 9032 6846 5842 3386 2298 4575 6436 5573 4927 3939 5131 2811 8656 5425 6742 8940 5000 4619 8392 5350 2726 4729 1115 3983 9624 5691 3681 2541 5902 3977 6128 5686 7582 8149 6620 4496 4191 6035 5225 8162 3106 4589 3583 4678 3826 4192 4568 5805 3372 6596 9406 2223 6787 4204 3141 6415 7671 5017 4124 6297 5608 7167 7395 5846 6475 1136 1485 2310 5590 2118 7076 2829 7247 2258 4188 5103 1020 5171 7809 1904 1887 8177 6220 5098 4912 6753 4293 4264 2528 4304 8718 5987 5309 2079 713 4927 5044 7896 9049 3481 2539 7003 5723 6915 4401 7445 3463 3900 2291 5818 4147 7765 6365 7405 6643 2142 8031 4484 6376 3588 830 4606 3788 7397 5193 2496 5608 1534 6079 2433 5431 9201 8297 5456 5996 4630 3730 6477 5508 4871 4642 3335 4787 6719 7419 2736 3761 4263 2155 6163 7686 7507 4025 5031 6149 4281 8979 4975 3752 6196 4514 3011 5729 1245 2113 3702 5466 6973 5628 5243 1661 6011 5713 4331 3817 1479 4904 4505 9040 1970 5222 6998 3635 7849 4399 5666 7257 1381 7964 6460 7903 3369 3760 6745 4999 2510 535 4019 4121 1783 2622 5131 7660
3516 7533 5464 5678 3285 4777 8421 1265 8079 7266 2024 6807 3933 1967 1463 2835 3906 1724 6551 3754 6339 2917 2940 7232 4421 4659 5617 6385 4895 2247 5560 6325 7260 4052 5737 7146 6111 7638 7486 4019 4049 4366 4313 8857 1212 2365 6311 2781 5466 6909 2232 3640 8442 6101 6875 7824 2662 6028 4519 2328 2508 3455 7316 5947 4939 4555 3419 6969 7962 3844 0 1460 1897 7749 5424 3285 3354 3833 4599 2200 3304 3967 4913 8563 8865 4152 3404 6579 6643 4429 7422 4339 3971 7029 5852 5283 5282 3814 4180 5890 3981 6230 2818 7012 834 4648 5025 3630 7225 4717 4926 7951 7205 3328 8800 1462 5838 154 4119 2364 6808 6543 8778 4512 3779 4905 4255 5893 6871 3211 6809 2928 3214 5336 4237 4672 4480 4101 2529 542 6057 6047 2784 6541 4759 5775 6701 5677 3905 3406 6215 9823 4454 8644 8350 1822 3376 173 4617 4543 6886 7334 6263 5854 5970 4472 8859 4611 4886 2737 2193 2748 5569 8058 2461 5343 462 7226 5643 6410 8827 938 5195 3080 6130 5541 7363 5731 2841 8269 2374 8554 5458 4241 6560 1583 2491 4445 5856 9290 2392 3698 2256 7601 5131 6905 3090 4759 2775 2938 4428 5831 8813 5259 2871 1231 5404 7665 5218 5710 7252 6823 6535 2866 7040 2084 4749 673 5949 5117 5673 4897 3548 4830 1081 4385 6814 6385 5234 5671 5490 1879 1727 2266 7898 4395 5290 5330 7624 2700 3768 7236 2511 712 8946 5729 8093 2578 2461 9001 5031 1531 6768 2215 3502 2701 4189 2875 4497 1496 5327 5040 2461 5232 2289 5008 2319 7460 7488 5297 4052 3110 3953 3129 4568 3382 3855 4438 5289 2691 5811 7460 4271 8373 4114 5830 4120 3732 5295 4701
5273 5522 5151 4915 6389 3927 2144 4969 5079 7748 4913 5889 1727 3107 5757 2750 3131 2771 1495 7392 7620 2914 5209 7218 2778 4609 5022 4580 4518 4206 4302 8519 6135 4823 7296 7862 9302 7287 4722 94 470 3162 4959 8726 2871 5468 6552 4423 9373 4559 3678 5431 4490 5120 1798 5337 5671 8431 5234 5969 8563 5868 4237 8000 5493 8186 8043 3464 8330 6729 1460 0 5467 5416 4343 8227 4967 6870 4553 3655 4236 8817 9019 5339 5628 4872 1313 3592 5776 5019 8778 2235 6314 6232 4754 7997 4589 7241 4995 4526 4312 4486 3827 9088 3016 6672 2771 7980 9011 7642 8121 2902 8435 6918 2336 5031 5227 6599 5990 8570 2720 3004 6164 4071 7655 3776 3280 7358 4803 3549 4070 6918 7970 1231 1414 2838 7153 4005 7203 7731 1906 4685 4843 5428 5332 779 3542 8460 2674 6113 7899 5278 5944 6973 6164 7112 6678 6698 5402 7705 4073 5031 8533 6109 4981 6906 8074 3526 3550 4261 5597 4906 4234 4963 883 1769 6539 3961 7079 5173 7065 4962 5479 6705 8320 2552 4119 4946 7837 3944 6555 6418 5822 4153 5064 4945 7827 3274 5142 9200 5333 3430 6742 2011 4674 7335 5568 3752 1681 6223 7151 4899 5096 7725 5062 5048 7078 5828 4682 4648 3118 4603 4831 2382 4286 7927 9346 6437 6517 4880 2236 7081 7010 2736 5851 5085 5631 4517 8813 3152 7297 4966 1702 6493 4517 3904 6409 5351 3910 5141 4624 5343 5976 6036 1329 5165 6094 1120 5749 4233 6648 6580 5793 5066 4247 1462 1685 6515 7614 4049 8148 5195 4000 4659 2685 7168 5454 2431 2322 876 4058 7040 4793 4329 3747 6634 5226 5015 8352 7349 5203 7795 2147 3810 8211 3916 4890 2876 4415 2111
3810 7624 5494 6339 2729 3042 9098 2302 7790 5393 5099 3067 4124 2841 4097 5039 5936 7580 5097 961 5318 2485 5009 1725 7058 1064 1158 3920 2316 2345 8846 3854 5654 5307 5541 3068 4896 3365 8991 6414 6191 5071 4830 3924 2944 8823 9217 2322 4216 6171 5549 4798 327 6278 6362 5928 7100 6421 1526 5194 4914 4842 3476 8983 7659 5378 4458 117 6277 5348 1897 5467 0 5672 6670 3214 6811 4332 4026 7194 4689 8043 7384 3954 3826 6497 7257 5346 732 3997 3510 5804 4249 9181 4506 6356 3748 2041 3156 7011 5429 7010 3364 3817 7691 1698 8091 3956 2089 1467 3659 1596 6449 7163 5899 6116 6208 3225 3406 7617 3321 6539 5814 3116 1940 573 6304 4686 5090 4888 4796 5137 5613 6885 9018 7877 3729 4627 4487 5059 6694 5328 5012 2609 3182 5213 4476 7013 6570 1410 5242 5807 5424 3278 4714 5457 3152 5336 6133 8929 5155 656 5026 6096 9370 4943 4470 6109 2789 4986 5397 5291 3865 5565 4548 7352 9731 3050 4122 6854 7889 6690 8712 5988 5643 3819 4925 4825 3829 3366 2335 3826 8349 6886 6024 6561 3545 7264 7781 2265 6236 5035 6136 2856 6344 5005 4373 7249 5523 4790 4152 6650 7907 6604 9092 5010 6876 2834 8553 6667 6389 3493 4542 5936 4703 4299 3500 5116 2897 6956 5259 7584 5126 7453 5170 2242 4147 7146 3175 2937 5015 7468 6368 4819 6402 2711 7712 3685 4678 4969 7268 64 9058 4867 6685 5035 5105 4472 5410 5305 4232 3462 1835 6903 2912 4614 3391 4922 2658 4110 5712 2859 5749 5150 3937 7163 2161 8092 5911 3861 4053 7625 6706 5364 4030 1987 2493 5454 3283 4675 2621 4518 7579 1261 8284 4853 4387 6659 7940 3763
2759 4230 8287 3917 4987 9295 3048 3562 7223 5839 3424 445 3703 3336 4885 5655 4470 6187 4910 6964 5572 4929 5150 9587 1602 1752 4868 4447 5827 7904 5263 1542 6730 2517 3209 3700 3551 7305 5463 2869 7600 1009 8971 8437 5093 6587 5902 1567 7038 7206 2315 6631 6425 7323 6438 2210 3536 3540 4536 6724 4025 4962 5178 6866 6481 5984 1220 2715 1839 2790 7749 5416 5672 0 8044 4941 1002 6366 4880 3930 1908 5954 3292 3239 1879 3504 6189 3490 5890 6164 4706 4855 4519 8673 4375 6368 9079 4056 5017 6357 8127 3162 5515 2342 4397 2328 8366 5085 4783 2645 6738 3175 6611 4909 1328 7142 3541 6234 7579 2004 2243 4704 4591 5055 8180 4212 3371 8331 7222 5897 2929 3625 6244 602 2303 5782 3063 4320 3772 9698 4873 5067 6880 3883 5430 6540 5276 7870 6731 5954 5361 2514 6132 5980 7553 4560 8200 6261 5015 7082 6068 5855 4549 1274 2580 8468 4828 4718 7825 4081 2681 2456 4881 4701 5194 6024 6349 2423 7246 6749 6227 4157 2718 3846 9155 3404 4316 3453 1702 4735 6132 1839 7790 3650 3723 3354 7393 6667 2802 5641 3870 2418 4293 8430 992 5111 5422 4122 1743 9819 2875 7393 3621 4341 5699 3540 3891 4123 5856 6642 1564 2413 2093 4708 1414 1775 4229 5862 2714 6272 8485 2615 4215 7032 275 6634 5159 2560 4993 8925 1996 648 5562 4228 4863 9201 1421 7029 5528 3910 5906 775 1521 4468 6036 6032 5738 4662 2935 4051 8404 1934 4436 4297 5658 2354 1498 7265 7401 7029 6396 9111 7672 2058 5833 7107 9253 7684 3851 9100 3198 6960 3596 3500 4148 6438 4775 2562 5132 5938 3063 7716 6106 8149 5541 8430 3746 1529 3331 5175
4511 9454 3462 1193 4892 6139 4281 5928 3723 7562 5910 3859 5835 2647 2956 7641 7864 5072 2370 6848 6669 1302 3036 5616 5457 4894 7261 5910 4050 3554 5203 4620 4553 7540 7328 2927 2650 3771 5046 4673 4016 2635 5201 4939 2194 6198 2744 5160 2953 2283 6486 5430 4713 7630 9410 3167 2329 3650 4427 6035 2151 8440 6819 7851 5509 6846 3223 850 8247 5099 5424 4343 6670 8044 0 8161 4821 2497 7857 5397 7121 5656 8683 4526 4869 9687 3938 1505 4772 2479 5432 5941 490 2096 6018 5388 3676 2483 1021 8785 4376 2630 2832 3167 8188 5809 6160 5619 3995 1466 6344 3250 5861 3671 6964 9189 5832 5301 2111 4760 786 9135 4936 5901 2307 4640 6586 3710 5151 3939 3707 3920 2296 4405 7344 6244 8319 3023 2751 4681 4065 4777 3033 8825 5851 7640 3517 2182 5523 1020 4024 3109 5073 3934 4013 6993 6996 4324 2212 5347 4094 5994 5270 2617 6905 6055 1445 5714 8870 7516 4621 5177 1034 5150 7755 5543 2867 7732 4541 7198 6188 6467 5117 5771 4005 4964 5303 6847 6556 2787 7220 4237 5189 2141 4768 2730 1728 3183 3092 1469 3700 7085 8612 3286 5911 6314 6208 4884 9064 5526 4366 2653 1582 8513 6810 6380 4896 5831 6878 6014 5800 2144 4944 3199 2515 4466 4185 9602 2889 5349 3502 7050 4092 3198 652 3438 7419 5335 7158 7444 7250 9745 4709 5964 3165 7050 7850 4506 4474 6722 6060 3237 9332 6222 4342 3540 5914 4040 5126 8699 7748 2913 5072 4023 4959 4438 7367 3788 5519 5283 4976 5046 6690 7306 5962 2468 8065 6115 7134 4632 780 935 3968 1284 5473 6793 8584 3186 6483 8422 6557 4859 4892 6284 4259 3687 4121 3423 2775 6701
5299 8196 7671 6820 4801 6241 5310 7754 3375 3914 5500 4935 3762 6167 4997 7099 4222 3507 8370 6930 4789 4419 6507 6301 8079 4403 6917 5653 6038 7064 5124 5125 7741 4568 7999 6611 7454 6511 3392 3723 2523 6997 5310 5693 6764 8487 5307 1315 2402 4299 6728 6221 6319 4938 1978 5697 3468 4119 9480 6397 7725 5110 8183 5011 5651 3852 5956 6541 5892 3807 3285 8227 3214 4941 8161 0 5523 1434 8752 6717 4343 3026 5111 1431 8201 5092 1335 5135 3327 7038 3598 4041 5332 5907 2701 4446 2260 7561 4566 2018 7323 3131 4745 4813 3392 5047 4791 4999 4959 5012 8270 4727 6660 1190 2251 3549 5072 4532 5539 3508 2976 6223 6508 6255 3163 5324 5857 5949 4992 6645 4693 6537 6576 8243 8427 3442 6175 6120 1974 2409 5424 5250 2891 9240 5419 4550 3050 2741 2857 3602 3071 3899 4083 1738 6277 2663 532 5370 6196 3257 4577 7273 4444 5235 5436 3654 4443 4922 5042 6130 4135 4080 5784 3487 6209 8683 1622 5512 5948 3232 4750 5092 5387 4506 2950 1146 5406 2166 1170 1563 4287 5990 3084 4342 3989 6127 5247 4959 4762 5654 3773 5090 5385 6565 6194 1377 9264 3543 9184 3073 1653 3843 5005 2300 6041 4952 5104 5639 5905 5056 8564 5975 4968 3802 5981 8738 2570 9060 4621 6272 5012 5521 2913 3925 4477 1366 6713 8202 4276 4843 5507 6277 5281 4385 5802 8660 6985 6631 6407 2298 8307 3783 2315 4612 2272 2113 3740 5220 6595 7935 7613 3324 2444 6524 4267 8047 7861 3304 2980 5978 7366 2746 5331 8261 3564 6250 5016 1132 4630 9481 4711 846 1676 4698 2815 1281 7350 6822 5807 4432 3186 7111 1902 4630 6578 7436 4938 4807 5259 5442
3782 7522 7821 1916 2954 5763 7503 7416 3873 3529 3251 3617 6056 2444 5198 6271 2563 5234 7170 5675 4587 7732 6310 5675 1821 6398 3665 7957 5382 5639 2327 6149 6984 2829 2690 6740 5451 3921 895 2787 9093 1878 8031 7215 4413 5252 1639 3948 4763 6059 3090 6250 6164 3569 6016 4336 5194 4268 1640 2213 5889 1662 3828 3126 4540 3131 5047 598 1480 6618 3354 4967 6811 1002 4821 5523 0 3894 4765 7384 5132 3571 4070 3237 5976 4380 4159 7939 4417 4226 7724 7508 6130 6823 8301 4563 5570 6651 4843 4234 2547 4273 5137 7536 6656 8329 4464 6584 6402 8841 6174 3164 7014 1941 5868 5318 9840 7226 4851 2042 2170 6710 8250 5311 6275 1882 5108 6091 3962 4928 5915 6576 5964 6251 2274 6808 5580 4676 4827 3180 5543 3703 1849 5238 5467 1160 4783 3948 5085 5447 5077 6402 2582 6670 3773 3732 4843 5495 4465 6606 5199 474 2973 2367 5051 3742 7622 2900 1482 5207 6462 6299 7088 6530 1059 4389 6955 3701 6961 5707 2864 5498 3149 8062 3718 4288 7958 3857 6012 5884 5512 6177 5229 3358 1995 4900 4227 4739 8192 7864 4525 4284 4147 4841 8017 7392 2199 6299 5870 4922 6418 4589 2311 9444 4684 8264 9489 1370 1223 7283 8583 2978 4885 8855 5782 4438 5842 6954 6908 2723 5890 7825 8603 7966 8334 6203 2789 4816 5820 6581 6191 6799 2408 5949 5239 5558 3750 3749 8064 5081 3117 6537 4753 6675 3441 4960 4206 4093 5383 6870 6515 6580 2467 6195 6755 3847 3506 6607 2991 4042 9073 7855 3592 5717 4369 5565 6291 5205 6848 6290 3116 4755 5840 8204 7790 6559 2913 5914 6023 3936 1973 6182 9445 8593 1148 7326 3242 6421 3115 1206
6212 3928 4342 7864 2001 6885 5732 6327 1796 5385 5697 5175 2188 4723 3687 3818 2291 3253 451 7378 1550 6486 5449 7072 4372 5426 4227 5775 5273 8589 5515 1518 2232 2393 4339 7659 5497 7964 176 4800 2298 3321 5374 4063 6554 463 8408 5317 5006 4784 2477 2248 981 3823 5531 897 4911 6769 3139 3661 2494 4197 3013 3931 4133 6521 6377 2349 4854 3104 3833 6870 4332 6366 2497 1434 3894 0 6648 6522 8097 4877 7199 1847 6275 4522 4298 4773 990 7612 3468 5340 5170 884 1117 4203 6810 4567 4284 6482 2668 7338 5706 6380 2900 6332 2929 6064 5093 969 4093 3958 5096 3057 3273 3405 3739 3857 3351 5786 5104 9083 7435 7219 7461 5164 4131 5636 5700 6676 4387 7573 2446 2661 6906 5198 5999 4689 2715 2672 1535 3083 499 3555 603 3918 4357 7310 7596 2884 8376 6238 6162 2993 5629 2216 4464 4103 2375 5360 7895 7980 5722 3450 4172 5331 2144 5237 4506 2915 4368 6874 7073 8112 6052 6544 3403 5443 5573 5342 3464 3003 8316 4145 4006 3949 5781 3264 7820 3818 4075 2178 3477 7897 4654 7224 7559 8199 3103 2892 3402 5663 6299 4089 4549 3407 4542 4706 5112 1979 6715 7939 6516 8897 3990 4792 6717 6749 3082 7429 7693 8444 4511 5414 8169 5908 2865 5103 5721 1501 2766 5320 4554 4863 1457 4938 3702 647 3107 3136 6247 5602 3311 3173 4484 5469 3269 9734 4800 2796 4651 1907 5055 2380 6347 6509 2485 2233 5771 584 8979 5983 4715 5633 9471 6421 3696 2733 819 5186 8809 8004 4173 2973 5476 2694 8149 6602 5702 5288 6049 5085 4757 3351 3787 5374 6147 4951 3861 6567 3433 3712 2399 6218 5025 4132 1317 5421 5117 507
2954 3968 6419 6503 6697 4762 1479 1735 7953 7197 6686 3747 5250 6249 6828 9052 3785 4143 5279 6811 6224 1680 3337 3075 2267 4178 2443 5738 8099 8772 2501 3085 7621 2666 4220 5780 4669 3200 3298 4622 6677 5320 8472 6037 9133 3028 4604 6096 3845 5106 3913 7949 4253 6620 6949 4060 6401 6417 4043 6518 4378 7970 2925 2239 6041 5906 4767 2746 5340 5636 4599 4553 4026 4880 7857 8752 4765 6648 0 3705 7322 8394 3937 5388 6960 4451 7577 3874 1429 4350 2623 5132 8783 5267 6273 5101 7340 7447 2285 6210 4142 3529 2805 1684 8518 1326 5445 6254 5277 1397 5969 1762 7285 8382 5417 5581 4469 5929 3262 5084 1285 6025 4483 7139 7687 5923 3309 3958 1545 6931 4886 6905 7630 4768 4555 5904 7693 5316 1943 1296 6033 6863 7260 7638 5506 7907 5902 7333 9166 6348 4314 8915 6878 6731 7974 6866 4396 5802 5012 7931 9339 7712 5186 6248 4960 8141 2693 4640 8554 7980 3656 3645 3906 2169 4576 9094 5898 6682 5641 5764 5072 6641 7901 3844 7534 3355 3146 1853 5156 1355 4041 8079 4452 6726 4464 6564 1988 7441 4467 1051 8554 3328 602 7619 3045 6653 6439 1319 2943 3254 5728 5859 5251 4247 3158 3770 6257 5003 5275 1273 7649 2165 9246 3974 3403 7790 1975 2886 1158 6190 8115 7785 9219 8355 9137 5436 2362 7216 6297 4865 2992 6212 5487 4731 6453 2413 5631 2108 5478 5803 2266 8589 6630 8431 5031 2992 3938 2171 4976 4033 4030 2952 1698 4537 2754 7114 6920 7295 2641 3005 4072 9254 6771 3655 3698 3410 4677 7312 7513 2543 4594 8575 5353 2114 7462 6350 7351 3351 5390 7530 6232 6010 6728 646 2959 8840 5801 2918 5297 2387
4640 4270 7007 4300 5663 6103 6298 7019 1139 4186 5717 5991 2376 6062 5248 4178 2709 3452 7006 3225 4653 7442 3848 6258 3671 7806 7173 2612 6547 6482 2622 4087 5732 7168 3902 1405 5181 5865 4705 7886 2409 5030 4183 3862 2823 3042 7997 4963 2427 4656 2996 4602 7209 4939 6287 5435 4040 5855 8180 4612 5350 4493 8438 3989 3815 7244 7690 4244 3658 6598 2200 3655 7194 3930 5397 6717 7384 6522 3705 0 2534 2524 7328 1216 8865 7503 7543 3844 6835 5080 9081 7242 4503 4875 3432 3092 4901 932 2966 6299 5471 4287 8541 4183 5940 7060 6347 6297 4949 6666 5644 2419 4127 3511 4536 5922 4094 984 6389 5911 1969 5361 5834 5539 6746 4066 8201 3407 4315 7094 4283 5271 4310 791 3741 5928 2809 9315 1590 3732 9054 4325 1181 2797 3053 4259 3621 4081 1824 1010 6881 5784 3748 3653 7284 6938 2334 5034 9200 7619 7782 2259 6748 9026 6864 2213 2671 2067 7812 3382 4250 8635 4760 4017 5349 7808 4673 4668 9088 5094 6155 4811 5276 3557 2334 5767 2512 3472 5063 6552 2904 7710 1452 8118 4750 5576 4201 1854 1794 2679 4281 4865 4238 2470 4779 8849 4080 4453 8197 3640 4732 6037 1540 8940 8206 4118 4641 6063 7351 4603 5486 5738 7135 6735 6672 3442 5825 1000 1673 8031 6275 8343 843 4750 7034 4370 3008 5985 4800 6536 2808 7617 5988 1208 4560 3756 2757 8047 1234 6045 2763 6398 4214 8145 2669 6814 1538 3613 4543 5839 3519 3662 6512 1056 5247 3715 4419 5704 5182 5022 4345 4153 2766 6331 9096 7738 6320 6056 3393 5715 7849 4092 1137 4177 5522 3444 1416 4973 8992 1929 6142 7650 3391 7342 6106 4469 3315 2204 6079 2610
3518 6182 6346 5239 4589 3814 3829 7994 7494 5903 3048 4278 6012 20 1674 6542 3093 6058 7080 1742 4061 1038 3783 5529 7001 4985 5184 6337 5195 5735 4201 3516 5383 4449 3819 7171 6114 5364 8151 1313 4768 6070 2517 4796 5902 6575 3830 3189 8177 4405 5534 3304 3272 6664 2593 4807 1356 1805 5243 7570 559 7528 4232 2890 5113 4755 7076 2640 7037 5030 3304 4236 4689 1908 7121 4343 5132 8097 7322 2534 0 6976 4944 4276 5436 6980 7605 3480 4385 6252 2571 5775 5359 4726 3098 4689 4658 1802 6787 4737 4815 4919 6255 6121 5386 2712 2299 3171 3113 6387 1002 2382 4773 5293 4344 5987 5478 5782 7695 7892 4008 8394 5138 5435 5203 1799 4064 6114 841 2634 5731 7631 3809 5733 6792 3025 5627 1596 5599 2743 6026 2446 6880 2610 5935 3802 7506 5309 4125 5364 2781 6669 1077 4629 5118 7539 7040 4660 6474 6911 5932 8879 4920 6388 8231 7431 8880 362 1423 5056 2613 8543 3618 5791 7326 3477 5035 4986 7608 6158 5156 2769 4729 7681 6615 5013 1928 9020 7416 4160 8005 2872 2346 3596 6142 7550 505 2567 8394 6824 3712 5963 2321 4356 1002 6820 3279 4770 4168 8875 9241 4509 7361 5456 6827 6944 5188 2621 3769 3061 5473 9592 7759 5591 5133 5691 6855 5555 3856 6956 3677 1355 2149 2711 6882 2301 1245 4662 8317 7501 4223 5818 8581 1928 3938 7082 1974 2735 5499 960 7002 5568 5071 2499 6760 2045 6283 2986 5211 2021 2563 6576 7463 2291 7089 4571 5140 5132 8757 5670 891 6081 4751 3456 4942 8536 8719 7846 7196 9078 4246 7584 4304 2748 3953 8188 4295 3636 7275 4980 7466 4197 6795 7953 6230 1834 3668 5590 3294 8996
3524 2127 1259 2146 2526 5121 6657 3440 6673 8603 1845 5657 6778 8383 6700 9277 6287 4565 8074 5222 1543 7047 4065 6739 5793 3367 7830 2144 3705 6299 2186 6801 4137 7059 7879 3130 8555 6353 3661 5084 8302 4468 3595 3702 4274 8695 6742 4001 5462 6125 4809 5889 5939 6625 4191 6455 6021 3136 6583 6258 5395 5081 5786 689 6981 2661 7652 6141 8823 4352 3967 8817 8043 5954 5656 3026 3571 4877 8394 2524 6976 0 5614 4483 3177 2147 6994 7193 7916 3990 39 9093 3857 7695 7428 4514 4674 7311 5102 1165 4320 4209 6315 3808 2846 7018 2354 7554 8227 6987 5497 4360 6615 8586 4594 6042 5291 8173 5082 5306 1860 2800 6311 2448 6282 3449 6688 9585 7886 6387 7219 6803 3730 4539 1286 7401 4976 4793 5874 3890 7016 4844 7301 3486 4705 4937 9023 3805 4609 486 1970 3334 3054 3071 4837 9831 7039 5218 5565 3902 4531 5578 2356 4283 1756 9011 6606 2527 2326 2680 6531 1481 3135 5763 3804 8817 3549 3626 5093 5115 8231 6236 7876 4591 6367 5298 9000 3018 4545 4608 1056 6450 3115 8947 1623 6736 7096 7662 6291 6845 3960 4626 6127 6292 4946 6146 5571 3342 2732 6733 2648 3052 3901 9858 5572 6462 8119 8687 9178 5704 4057 5453 3197 3234 4227 683 6729 7016 2121 6578 3057 6134 7463 4290 3481 1778 4515 2662 4115 4782 7842 4936 3791 3889 5545 4708 4386 5542 3180 3055 2901 6415 2931 3926 2525 8967 3583 5771 6742 6821 5629 2537 1309 5245 3284 7615 4403 3831 3465 8224 4610 7982 5648 5263 7875 2936 3351 4773 9274 4301 5694 4851 5210 5062 7777 7448 5483 3749 5405 6534 5739 5236 5964 1208 4137 4652 621 4432 5138 3710
2794 7742 3439 3516 6058 3485 3669 7111 3997 2676 1626 6407 5600 4918 7610 6519 6529 4223 2841 3925 1253 5341 3158 6096 5474 7847 8042 3574 4059 6172 6424 6124 7506 2264 6374 3552 3748 4773 3219 5256 4135 3603 3602 5804 2230 2238 6763 7091 9445 5897 2493 4839 6950 3926 5182 4661 7966 5222 4362 7851 4993 3941 2436 4698 6210 5838 4340 6011 5927 7820 4913 9019 7384 3292 8683 5111 4070 7199 3937 7328 4944 5614 0 4575 8296 481 7257 5688 3027 1453 6085 7557 5937 4540 9048 3075 7324 7707 1613 3986 2484 6711 5480 3839 3965 5490 7946 1742 7612 3155 4478 2071 5147 4529 4791 7235 3425 2613 3877 1676 7550 8514 1857 8016 3279 3495 4228 6349 4988 6963 3801 6443 6058 4800 9177 6075 4273 3675 1660 5537 5049 2131 4295 8351 3200 2950 3796 1430 4993 4938 4489 3436 5741 4881 1718 6098 3584 5748 4443 4531 5534 4705 5007 6584 2698 1392 3298 5652 6515 7023 3231 4907 3146 4030 6619 8131 5646 5090 4018 5800 380 1214 5236 3573 3651 2749 7622 6839 4598 3827 5531 7531 9197 7072 6334 8337 5689 6410 3896 3037 5542 6087 3925 5383 3284 3997 2966 6484 4451 5353 7782 3157 7337 3276 1749 5531 6857 8819 8107 6194 3615 8067 6493 5133 6917 4285 5277 4847 6605 2944 4471 2317 5351 5426 4002 4829 6247 2739 6081 3864 6710 6373 4479 7863 8878 3706 2730 8650 8275 4324 7007 580 7056 7628 1949 4199 6020 8701 4069 1565 900 6865 5511 820 7099 3620 5158 9085 5734 7268 6199 1137 4724 5194 3319 3898 1424 4714 5044 7722 6683 5773 8406 5246 3853 2530 4396 5651 6624 4838 2909 6121 7348 7400 6095 7459 4348 4809 6596 8952
6216 6837 8105 4849 5589 3536 8278 8649 3124 7547 3181 4132 5198 5122 5300 8274 2815 423 4588 7762 5448 5419 8439 5173 2784 1331 4816 1144 7320 3037 7585 5923 6113 7702 7500 4143 5875 5797 1872 5613 411 4602 4835 907 4926 8705 4927 5954 694 7892 3776 4383 6111 5204 2167 8782 6293 5013 4453 5523 2082 4121 7844 4952 7498 6996 3126 2445 7278 5218 8563 5339 3954 3239 4526 1431 3237 1847 5388 1216 4276 4483 4575 0 4487 6333 4475 2953 4207 7828 8384 4612 7862 5863 4880 5109 1067 6479 3132 4656 7886 7128 5723 5174 3245 7466 4034 5582 5471 8601 4981 5266 7612 6029 4660 3090 3469 5806 7251 1503 6068 4449 8101 2006 5500 9008 1470 2589 4644 3264 5835 5170 5767 5015 6148 7430 7129 3592 8924 3130 2837 4496 5257 6808 7622 9282 3799 2009 3269 4555 3609 7480 3827 4459 3835 4769 6611 1095 6087 7541 2815 6784 5756 5468 2342 6350 7058 7171 1307 5907 771 8496 7736 2723 5075 9402 4184 1606 2664 7463 6498 5147 4540 2766 2599 3601 7272 4828 6184 4757 6001 1130 6252 8290 5143 5389 9793 5142 4236 5918 2490 8549 5295 4768 1977 6406 3855 3808 8856 5028 4808 5075 5424 6029 7519 7252 2555 977 2123 4700 2485 1336 2662 2543 5917 2945 5267 747 5879 6702 7423 8089 5093 5062 3514 6614 3469 6514 2140 4815 7176 2554 7029 6326 2976 1244 5798 2300 7924 4863 7763 8756 1603 4088 5417 3336 3472 9368 7708 2350 1718 7205 5536 6974 6824 4579 3932 2883 9231 4567 3273 5680 7549 914 4458 3925 2183 7142 6812 6846 4890 3972 4134 8598 3591 6274 6363 8764 5893 1919 4149 5761 5179 5343 8208 4716 4819 5635 5945 3773
6389 4924 5883 3685 4463 5653 9123 6600 4267 4825 2295 8043 3854 7103 5083 3658 4415 4041 6567 6945 4828 6525 2247 4241 7168 4461 4734 7608 5419 1203 2137 6584 4805 2330 6628 4334 9223 7115 8608 6368 2243 3857 5576 8970 7374 9227 7980 2812 4035 7405 6989 5529 8608 7981 5331 5736 5342 6630 5407 4380 7695 5046 6868 3439 6453 2800 4489 5319 4321 5536 8865 5628 3826 1879 4869 8201 5976 6275 6960 8865 5436 3177 8296 4487 0 6047 3613 3733 3848 3518 6264 6238 2397 7487 992 4945 5882 6521 1811 3166 8135 5529 6131 8136 7593 7157 4975 4470 7003 3794 3134 6192 4461 8141 8629 1664 7120 6201 6879 7750 5009 4833 7996 1080 5764 1813 3233 2253 3453 7139 5468 6570 7803 4894 3986 8349 462 4912 8989 4601 5762 2727 4971 2031 4167 4955 3487 5569 5970 3116 5497 7266 4454 3648 4590 8482 3073 7224 5650 3767 4949 1168 7208 803 6902 8098 3802 6855 7523 4980 5929 1600 5219 6203 5144 1711 4779 926 3617 2548 4690 5110 4300 2484 5737 6519 6175 3043 4283 5063 6950 6701 3246 5215 7359 6646 5958 7431 5992 2719 3925 4569 5123 8333 3958 5957 6897 5181 3228 3978 5517 5022 4626 4750 6686 2590 6206 6311 4246 2195 3662 2763 5211 6999 8391 1718 560 2562 2785 7975 6066 4233 7478 8493 3908 5791 3160 4554 4188 2588 4903 5542 7121 7158 4336 4086 5087 5199 4886 5661 3938 4865 5419 7237 5092 6621 5117 4253 2990 4262 3587 4101 3571 7892 7231 3327 7406 6080 4570 4963 5388 7140 4543 6228 5512 4244 5633 8813 7397 5818 8439 4806 4179 2114 4267 7639 7748 2866 4612 7554 3534 5529 5315 7804 5446 5187 3984 4205 5772 5364
4554 4063 4556 5433 4468 2316 4112 3266 7495 8748 6634 4587 1656 7303 3756 3274 8141 2525 5809 3709 4790 3983 7734 3628 9273 5525 8189 9151 2545 8924 4053 4370 4791 4048 4172 6325 3240 2741 6430 4493 6600 5510 2664 3843 3885 631 2073 6943 6050 7142 1807 3584 5435 5124 1266 4151 6049 5788 6823 8713 7938 6224 7575 3177 5034 4680 4981 4969 2170 4804 4152 4872 6497 3504 9687 5092 4380 4522 4451 7503 6980 2147 481 6333 6047 0 2952 4985 4842 6255 7253 6016 8582 5327 5108 8907 3535 4425 5493 5028 7281 2895 6338 7152 1195 4101 685 5690 6089 4384 6907 2987 8263 6334 4904 3729 1249 4255 6230 3059 7599 4761 8016 2668 7298 3958 3470 4667 3804 5923 3133 8503 8127 1026 6330 4426 2505 6598 4903 5029 4192 6104 5839 4208 3355 5589 5097 5024 3443 3387 7260 8073 4261 4821 3611 6683 8766 6932 8963 2226 5794 4472 6263 5893 7022 7603 3941 3926 6945 221 4023 4025 2685 970 5785 6110 4121 4659 2163 8592 5991 2681 4935 4611 7011 5337 4441 5929 8043 8122 1363 5420 1415 2067 1982 3102 6006 4353 4047 2324 7497 4606 5343 4275 8519 1771 2642 6177 8256 7771 3167 4196 2459 5416 2619 4211 4133 5777 3735 2084 824 5076 3282 4811 3180 2448 2261 4349 739 1027 3408 4197 3298 4004 3216 1566 8430 8194 6304 3342 4116 2032 1523 5715 8670 7544 2985 4685 2458 4130 3840 6414 6644 2713 3189 5647 5766 3942 5263 2932 7529 5890 7736 6724 763 1931 3249 4549 9483 5913 7188 4101 8893 3703 5976 4683 1549 5698 6595 4941 4891 8602 7725 4424 8900 5044 6790 4006 5208 5700 4631 3509 3240 3603 6513 5894 7409 2298 6857 7060
2617 5954 6575 6328 5118 5783 6763 719 6694 8314 2629 6522 3379 2996 3664 5339 8135 5622 6365 7376 5082 3438 5313 3917 4009 1508 4494 1375 8166 2113 4207 6734 7504 2291 7416 5372 4497 4663 3611 4728 4170 7220 5081 4124 5422 4329 5082 6844 2359 5354 7872 4192 7463 8542 2198 9307 6269 4492 1755 2917 3158 4277 5495 2332 8489 1365 3491 4405 562 3538 3404 1313 7257 6189 3938 1335 4159 4298 7577 7543 7605 6994 7257 4475 3613 2952 0 8846 4932 3184 7847 3831 3773 6603 3741 5257 7300 6781 6017 3886 5726 4815 6377 969 4689 7383 7920 428 4828 5549 2205 6974 4210 5485 5213 8689 2441 8856 4008 4835 1965 4500 1416 2994 4270 7400 8930 731 8947 6956 3810 8833 1952 4976 1060 3822 3156 2307 3208 4580 5247 7759 731 8524 3721 5782 7061 7150 7450 5405 5579 5818 1474 8123 5406 3499 3342 3307 7860 8922 4632 6922 5997 3318 6085 7757 5085 2633 8464 8377 4993 2277 6111 3407 3089 8705 5858 6496 407 6217 3959 3187 5982 3095 5889 2864 7574 6326 4876 5991 4295 2069 5857 6889 4259 2146 7755 2016 6289 4833 6611 5878 7493 1189 3891 598 5569 4921 3350 3726 1383 1414 7010 6966 8202 4369 1331 4936 4103 7062 6954 2448 8232 2823 6557 2908 5643 1633 1853 3993 3972 5003 4521 6469 3938 9152 4316 6864 6059 9286 8310 6802 4413 3235 4175 3361 5800 3325 4183 4827 7325 6826 7351 2788 1920 3873 4345 3183 4132 8448 8980 5023 2574 3677 2667 8907 4542 4454 3772 8148 6956 5120 2328 7048 9233 4784 3058 4032 7676 4090 4690 7397 4516 7438 5180 3031 4169 7092 5242 2029 1393 6835 6553 2690 3531 7894 5854 5563 2105 6507
6282 3267 4568 3489 2962 6230 4538 6599 3443 5709 1549 7563 4577 3840 6417 2324 5371 2890 3121 7345 7223 5043 4824 5576 7704 4107 6770 4824 2943 7223 6759 5144 6044 5739 3211 5224 3197 6100 4979 3610 6400 1864 3197 6494 7120 4198 6001 4839 8365 6196 3213 4402 6296 4142 1673 3756 2233 618 3302 1704 9205 5938 5878 7095 3647 3416 5049 4683 5157 3638 6579 3592 5346 3490 1505 5135 7939 4773 3874 3844 3480 7193 5688 2953 3733 4985 8846 0 5190 3369 1539 5437 2005 7989 4634 7536 2322 7234 3252 5133 4825 4487 9519 5627 6504 7229 5123 4482 4936 8165 4709 5095 5774 9535 4184 6331 8331 4280 4471 2657 2380 7632 4575 6111 5127 2628 6844 5881 6659 5595 2141 8680 4995 4404 7969 2910 3043 5679 4905 8024 6933 3487 4254 6987 3851 5888 6486 6517 3171 3399 3332 6407 4698 5587 5317 6260 7062 2712 2550 5040 2689 4923 8056 6481 6168 1824 5815 4553 3852 7798 2965 5641 5243 4324 4248 6815 5224 4895 2915 2937 6480 4140 5408 3327 8658 5825 1462 3099 4769 5448 2542 9075 8097 7679 4226 3549 755 4176 5508 2045 3421 1512 8098 2903 2416 7662 6272 4183 2685 6078 3060 3126 4728 4581 6651 7125 7024 1630 8888 4458 5269 7075 8792 3543 2879 2201 6845 9437 3520 8054 5540 5844 2700 2976 4297 5243 5420 1140 4117 2744 5235 3621 4590 8136 5459 1780 8418 563 2594 6071 6726 6748 8509 8263 4006 5706 4715 7312 5227 5505 6985 6854 5993 7959 6211 5246 6638 6107 8036 5467 7171 4562 5090 5441 4969 3548 8995 3559 5445 6065 7887 4787 3959 9006 5479 4359 423 6917 3948 4278 4838 4985 2883 2017 5290 4155 5204 4260 3611 6597
5857 4067 7938 7872 4136 5191 7355 3957 1942 1261 3316 2319 7814 3406 6577 7595 2139 4064 1151 5618 2170 1838 4484 4935 4878 5927 470 4834 5387 2488 7492 5322 8157 4663 4007 4524 741 2935 4865 5685 4760 6963 6827 7592 4791 2380 6283 5501 4681 2585 2697 1902 3218 5711 4700 3455 6639 5395 9097 2705 5301 3662 4918 4346 1587 5739 5782 4460 2880 2042 6643 5776 732 5890 4772 3327 4417 990 1429 6835 4385 7916 3027 4207 3848 4842 4932 5190 0 3142 2556 1357 4475 5959 1152 4676 3250 1646 5279 2517 4028 6339 7019 7107 3028 4382 4663 5693 6732 5061 850 4865 6796 3221 3656 6133 6216 7038 4621 2914 5632 5823 4387 4181 3752 3346 5094 2523 3511 3763 4317 3376 4703 6524 3196 8254 3392 7026 5259 7074 7326 5315 1636 5720 8285 5034 4401 6904 5484 7784 6006 5863 5871 3406 5696 9050 2853 2867 4854 6050 3724 7293 6440 1665 7568 4877 3311 8815 6196 4920 8453 6043 7045 4833 971 793 8622 4946 6969 4334 1598 2814 4670 2610 2534 7246 3304 5796 2821 4749 6854 3526 6769 1421 4606 759 2157 3625 3591 6535 6073 4197 1496 4288 3372 6813 8215 4539 1178 2724 4303 5100 1815 6603 5449 5123 3502 7715 4961 8478 5589 4555 5421 4133 8965 1258 3144 1612 1428 1444 5889 8176 7237 2506 4302 5685 7053 5642 4264 7235 5353 2220 5026 7844 2113 5873 2242 5323 3612 5330 4294 5055 3566 5637 4915 5656 3373 7709 6900 5541 5853 4402 5617 4294 4984 3875 3399 4852 4192 6288 3026 3188 5524 4304 3316 4320 2858 8940 7236 5510 4721 5609 4934 6617 4799 6439 4577 3359 6275 1522 7559 7695 5156 6539 6081 4519 6059 8946 3607 4282
5142 9368 6914 5656 5053 7143 8773 2377 2187 5503 8334 2363 7107 3845 7777 5869 5082 4676 8137 8554 5129 6270 9045 6040 3081 4094 2899 5822 5715 1713 4700 5272 2998 2263 1635 4141 4590 4411 5888 4586 5175 5095 6220 5651 7689 6893 6794 5363 3952 3855 8247 3286 7667 6399 8457 3943 8672 1824 1376 946 3488 7366 5195 3414 6278 6255 5152 5721 4363 2938 4429 5019 3997 6164 2479 7038 4226 7612 4350 5080 6252 3990 1453 7828 3518 6255 3184 3369 3142 0 3704 439 5408 3412 5395 2401 5295 4235 6573 6701 4335 2266 2271 5514 2640 7336 5744 4530 6294 6507 4981 5489 3989 7024 4289 4863 6692 6572 1255 6876 5725 4077 5010 2541 8449 2088 7807 6940 4969 6662 6980 4415 4063 3632 7778 7255 6399 2120 5430 2931 1090 2767 7711 2848 6695 3793 6460 8362 6799 2294 4724 6063 8382 3754 5130 2416 5447 5160 6881 5821 3803 7452 6705 4136 4332 4108 4793 4637 4885 4027 5065 4303 5745 7488 2421 6855 4676 3955 3676 5239 6984 4079 4917 5259 4948 8417 3381 5529 2828 7162 2432 4815 4331 4657 4626 5227 200 3704 4007 6194 3953 2905 5648 7699 4993 7127 4980 3892 4448 4465 7763 6496 4444 5315 7015 3871 5685 1307 1741 3799 7017 1575 9187 5480 4171 7512 4749 6199 3497 317 5403 4197 6328 4604 3489 6964 6072 4935 5250 5609 6467 1082 3317 2835 3639 676 2443 6965 3485 1884 5410 8384 3662 4488 2552 1032 2967 5796 5007 4452 4500 3540 1169 3806 1825 7963 3164 8169 8238 4358 7008 7876 4176 5421 2913 5269 8705 2459 5054 6022 3454 4893 7565 1215 9011 9864 4124 6528 6668 7611 5644 4950 7438 3574 6907 6928 4470 5741 1855 2977
3026 543 2085 5137 7911 1643 5051 762 8061 6792 7560 2320 4001 4413 5415 6562 2039 4013 4355 7516 5977 4178 7985 4345 3448 3731 3059 4904 4402 5052 5515 3285 5225 3427 4729 2580 7271 5393 7080 5001 5690 4753 4063 4072 5883 6291 3013 4812 5567 3827 7416 4653 3961 1093 5065 7531 6341 4614 7530 8510 1403 4746 3921 5922 5215 7738 2774 7254 6684 4075 7422 8778 3510 4706 5432 3598 7724 3468 2623 9081 2571 39 6085 8384 6264 7253 7847 1539 2556 3704 0 5234 2429 1774 803 4930 4624 2073 5372 6805 5983 6490 4067 9653 3085 5067 6584 3014 8637 7175 2671 2792 5605 3742 4952 5552 7750 5942 3716 4975 8026 5752 7130 1519 2800 2497 4166 5511 7292 3561 5935 2223 8312 3626 3841 1945 5989 4926 7355 5670 6955 4202 2939 5504 5408 5783 5598 5585 5393 7712 2996 3182 6174 7659 3802 3415 5265 8698 4271 6165 7521 4866 6893 1556 4987 6830 3055 3829 5152 1769 2205 3127 5796 6770 4716 2150 5060 6198 4152 7828 3947 3734 5287 5353 5702 3994 1589 4075 2890 2973 3840 3319 5796 7158 6386 8697 6365 954 6432 2577 5806 6030 4125 4837 3659 5696 9604 7644 6193 5234 6276 4349 5204 5642 3294 6650 2903 1749 3950 4122 8396 2013 6000 7281 6859 4601 3191 5666 6485 8019 2196 6711 2910 4212 7771 2922 4343 6863 944 7062 2294 5829 5445 5230 3594 3505 2493 8247 5095 7686 5165 3276 2359 4171 1307 7777 5702 5870 3372 1538 1649 9337 6400 3625 7162 1690 3284 7989 5477 1794 8331 4290 8399 4360 5051 1533 8673 8777 4894 4920 6587 7849 5887 4719 5161 6017 6136 9337 5321 8155 5865 5371 1957 2324 2863 5365 6723 5246 7654 5174
5477 5352 1893 4277 7193 2267 5992 1566 2670 5040 3958 7388 8046 1276 569 1737 7869 6063 3069 3346 6923 6624 7224 6438 5948 4517 1764 2094 8020 4347 1748 2890 5892 5784 5494 1400 7602 8363 7726 3078 3002 6792 1218 7586 4127 4622 9274 4672 6122 3731 5576 8031 387 6761 9340 4243 1813 7822 3041 8137 8046 2124 4785 5153 1471 3953 7684 6223 5273 1208 4339 2235 5804 4855 5941 4041 7508 5340 5132 7242 5775 9093 7557 4612 6238 6016 3831 5437 1357 439 5234 0 7154 4726 3462 3915 5670 5634 4465 3475 7963 4343 8005 4060 4416 7196 2315 5365 4870 8845 3564 2459 4534 1684 3538 6592 4192 5338 3827 5182 5404 7277 3087 4003 5511 5266 3535 2884 6253 5205 5135 4548 3855 6343 4187 1493 5633 3160 3692 9116 3510 3822 6762 8972 6427 3323 7524 3378 5477 2545 6550 7590 5304 4719 4673 5759 7976 4581 4045 7840 4408 3946 4815 5109 4464 3279 5426 6317 3944 7073 5462 8512 3169 2870 958 5378 7523 2392 5388 5661 3988 6394 6297 4436 3893 3393 6426 2398 5120 4177 5442 3725 7713 2382 3469 7924 6292 5884 9133 5057 1869 8021 3945 4654 3702 6433 6305 4195 1864 5779 4602 2949 7209 1554 6768 2158 1569 6209 6522 2573 6415 3861 1108 7194 5543 6222 8545 5538 7637 7000 5056 4549 1156 2858 2629 8526 3742 6001 3386 6004 4894 7625 5424 5534 1544 5799 7053 6209 6047 8485 995 5460 1712 4689 8162 6762 5196 4930 5173 6998 1949 5954 6538 5789 2306 3675 4809 7369 9565 3931 5742 7271 5271 8346 7974 3245 3074 6490 7664 4577 3067 7646 6096 4218 1605 3540 6224 6318 6230 4833 5113 5315 8251 4650 3929 8381 5691 4191 8696 5706
1415 7148 5680 3560 5876 5406 3223 4629 5787 5270 5968 6204 5974 8186 6124 3787 4362 6575 3185 7556 6492 5349 2182 8950 8398 3570 7467 6494 4908 7614 7154 4721 3873 3649 8069 7209 5030 4898 5755 2705 5290 7727 3844 4398 3820 5147 3514 8809 1643 7363 1168 7985 5292 4691 5075 4102 7038 7217 5773 4557 2806 5342 9917 5074 7300 3623 4054 5445 363 9424 3971 6314 4249 4519 490 5332 6130 5170 8783 4503 5359 3857 5937 7862 2397 8582 3773 2005 4475 5408 2429 7154 0 2652 5706 6512 6430 6606 4299 7744 4911 5305 582 4069 4280 5440 6999 2115 5056 5188 4101 3048 7667 6247 4409 3800 5464 3847 4162 4948 5392 5851 7563 7068 4015 5556 6663 4378 1914 7515 4789 8923 7708 7116 3580 6663 5777 5980 940 8577 2637 6277 6188 3390 4026 8359 5663 3094 2495 5370 1881 6950 2646 3417 1706 2333 2686 6037 2189 5480 6191 3639 5895 5274 7160 5875 6959 8435 4570 2947 2041 2385 8425 4600 3840 5895 8029 7430 1249 5911 5331 8754 8376 4649 3776 1071 4790 7695 651 1006 4556 896 8617 6705 4922 3750 5882 3778 2738 659 5364 5404 3152 7577 6368 5567 4552 2025 6419 5737 2416 6690 1587 5649 3904 5343 5717 6085 7120 6070 3821 4702 9564 3563 1110 5343 8918 5004 6549 4427 8497 4586 6150 7407 2866 7819 5858 4046 3423 6489 2517 3901 6438 6308 7532 4456 6324 3309 5910 1896 3588 4745 3695 4943 9193 1275 3298 3031 6356 2387 8448 6907 5360 9078 5588 325 6046 8027 2339 6315 6644 8298 3971 6211 5167 3624 6349 5484 5268 3686 5117 7924 7939 7516 6364 7223 7731 5434 3560 1988 2516 5512 7616 2350 7349 2448 7057 3439 4338 7458
2144 2288 3166 3944 7851 4271 4050 2534 750 2818 3208 4844 5270 6346 3608 3453 5261 3509 2980 5813 3325 6212 2512 8673 6877 6352 5557 4945 4837 2926 6751 6240 4116 6868 3763 6656 2109 5375 7747 4101 4917 4126 3744 5255 2182 5209 7951 6471 5613 3398 7194 5437 8380 4381 3250 6040 4202 1220 8148 8563 5681 3241 6169 5792 6364 5061 2922 5464 3794 2050 7029 6232 9181 8673 2096 5907 6823 884 5267 4875 4726 7695 4540 5863 7487 5327 6603 7989 5959 3412 1774 4726 2652 0 4214 5256 2811 7336 4709 3656 5190 6164 3714 3713 2906 4043 4042 6922 1623 7501 3159 6082 7368 4031 6120 5081 4289 4656 9198 4059 4334 5822 5060 9393 7247 6318 5194 6852 5371 6536 6523 6765 7085 5517 6575 6660 3403 4484 6843 6603 4289 4768 3405 848 3898 5938 4393 4951 3469 4388 1996 1416 1698 4995 1314 4491 3793 4295 2649 5740 7002 6765 7346 2304 4170 4350 3207 9076 3663 2879 3324 4131 6218 5046 3503 3138 3928 4983 3731 2784 4550 1419 2185 6533 7497 7124 7448 2782 7005 7016 5158 4700 4629 2699 5916 6203 7315 4152 2755 4228 5940 2486 4482 8840 8761 4618 3552 5483 6526 666 6054 6475 4805 4649 4006 5885 968 2514 4917 4623 3071 5184 6919 8824 6985 2171 3706 8956 4837 8085 8257 6010 1487 4196 3620 7298 4233 3861 4450 4763 3637 6293 8484 5491 7950 6904 2354 4912 4228 6143 6822 3703 4608 1808 3329 4014 332 3836 3204 7719 3292 4972 8569 5636 3999 6951 5901 6974 5451 5399 8779 8535 1818 7238 3994 5072 2031 4433 2293 3003 7356 2541 3625 8919 4556 5039 7751 7536 7986 5777 6194 3716 5881 7732 3536 7919 2638 8216 8522 5026
7389 4800 4908 6629 6180 7465 709 7691 2644 6250 6976 6610 1173 4265 7520 5979 9125 4333 3397 7394 650 4723 3725 2944 8322 3132 5473 4158 3244 3930 7942 3508 3601 7576 1577 8723 1793 5673 2564 6496 2998 7421 7848 2495 5809 4192 4138 6629 761 4631 3188 489 6021 2735 7697 1131 8584 4673 5482 6976 5354 5508 7055 4852 2275 5398 3786 9697 8321 7517 5852 4754 4506 4375 6018 2701 8301 1117 6273 3432 3098 7428 9048 4880 992 5108 3741 4634 1152 5395 803 3462 5706 4214 0 2791 924 3477 4732 4641 7550 4384 3709 5044 5687 2901 4426 7092 6423 5593 2131 5103 4855 881 2869 3344 3609 3139 3607 710 5940 6205 6219 8362 5089 3900 4683 4119 2191 4134 6629 5484 5185 5372 6902 8653 4414 1830 6947 5315 4356 1683 4311 1589 3907 6327 4391 5380 3950 5067 2966 6048 5701 4472 8351 7803 3672 4552 4687 5341 4350 4880 4967 5775 1682 4899 4344 7844 6825 7480 4912 4783 5813 5547 7862 6564 4888 3451 2438 1044 2715 8646 5611 5018 6593 6418 3925 8331 7157 2663 7141 4637 3252 5001 8696 5377 2779 5966 5034 4765 4782 6654 2556 5749 4531 7148 5910 5020 3080 3867 6943 7289 4689 3787 6984 4158 5709 8077 5647 5309 2885 9574 3197 1858 5576 4912 8509 8009 2049 8616 6204 6228 2909 9728 5154 6174 3305 5570 4323 4203 4124 5093 1151 4681 7271 4911 4662 4651 7923 6909 7329 5348 3078 3905 6984 9410 4608 5778 3560 6554 5843 8244 5494 2463 1935 3923 7091 4986 8302 6037 4246 8080 8037 1896 7830 5011 6050 8168 4967 5156 6769 4254 6357 8936 5334 6211 4351 3707 2210 2763 6583 2911 5236 4006 5931 5519 7461 6757 1913 3718
6434 6150 6905 6481 3849 5919 2860 7215 6313 3770 6214 2898 4313 7717 7927 4178 6634 5852 7444 3096 5807 1585 5646 5893 5582 3327 5095 5331 4659 7679 5080 4773 5395 7958 6396 4310 7704 3802 7941 3344 4770 6702 7319 6376 4629 4884 6174 8021 3352 5336 6026 6058 2454 6129 6596 4115 1161 5481 3805 3529 5007 4731 2142 6193 4173 5072 6369 4444 3378 4497 5283 7997 6356 6368 5388 4446 4563 4203 5101 3092 4689 4514 3075 5109 4945 8907 5257 7536 4676 2401 4930 3915 6512 5256 2791 0 4510 4615 4528 4787 5607 6877 2893 7111 6576 6179 7836 3022 2012 6248 7078 3492 7632 5259 2510 4730 8346 1727 3032 6305 6785 3874 3629 7398 2921 4664 5299 7642 8487 7430 6163 3329 7267 6811 7812 2424 3645 8941 1877 6717 3627 6893 4307 5898 6466 918 6393 2021 4701 7520 1273 5121 5954 3774 3814 3048 4480 4272 4179 7498 9614 4126 2495 5341 6914 3526 2245 8793 3834 4407 5950 4971 7167 605 7150 5931 3246 2365 3543 6951 6792 447 3885 1783 5281 3196 2166 6711 7616 5335 5400 927 7159 2992 4488 5635 7326 4643 3848 8209 4508 3318 4753 3768 5889 4617 4962 441 5947 5838 1896 4821 2998 5575 4809 2462 4011 2314 6500 5444 5963 6608 3272 4063 4511 7431 3704 4531 6807 5931 8581 3862 3830 3258 7318 6018 4013 1235 1023 7377 9388 1756 6161 8794 1896 6792 4369 5308 9067 4662 2354 6673 4445 3110 6041 1790 5475 4123 8719 3511 5393 8139 3339 5593 3189 4998 5272 6266 7167 4135 5443 2465 5652 2802 7046 7856 7132 7055 5073 5476 2500 3249 4169 3333 5031 3739 7168 2836 1689 4664 7795 4183 3416 6830 6329 5479 2049 7362 4381 4436
4508 3730 4517 1238 7509 9040 2849 4279 4386 9587 4939 4904 1921 5034 7955 3332 3815 6007 6811 830 2053 3545 3681 6893 1789 5485 3913 2393 1628 4393 7395 3431 3282 7326 3108 6855 6103 5622 7094 8126 8923 3341 4239 4211 4810 3970 1756 5873 2877 7178 6044 5871 3789 8265 6212 7438 5700 5755 6626 5387 3926 6184 5600 2361 5947 5102 5963 6507 4861 4782 5282 4589 3748 9079 3676 2260 5570 6810 7340 4901 4658 4674 7324 1067 5882 3535 7300 2322 3250 5295 4624 5670 6430 2811 924 4510 0 4723 3780 2413 8969 6424 7883 2471 3183 6724 6559 3022 4094 1756 6171 4084 1073 1911 1869 7088 1779 1812 1345 5825 4885 6483 5462 4020 2590 5352 1877 8336 3104 6123 1616 7806 3305 4042 4865 1473 2852 2655 3212 1648 2115 6233 3888 4582 5674 486 7084 7705 7019 6567 9017 6521 4875 4978 2374 3295 7540 1833 8749 7763 6473 3895 9261 6363 7872 3814 3395 3427 2593 9569 5406 3424 6603 3229 5437 7602 6587 3241 2385 3906 5422 3097 5892 5085 3573 4598 4535 4761 6164 5600 3002 6233 6798 1023 3811 3432 8404 4226 1613 6567 5464 3533 4346 5558 5143 2333 3431 2647 2785 6496 6397 6266 7066 5110 6072 1745 3263 8188 4873 3230 3224 3890 5477 7092 6572 6571 5123 2160 3775 4983 3074 4842 5484 2443 3600 3828 2564 4815 4915 7309 6891 8477 3234 5161 679 2716 6861 4697 3441 3664 4172 7876 3498 5809 2794 8231 3414 5299 3877 7168 3946 5061 5715 3398 6098 3236 2589 5148 4374 5162 2116 5978 5707 5076 1202 4535 4365 5897 5226 5013 6978 5443 6377 3790 3772 5235 4461 4326 4439 3190 4217 5935 3799 1599 7633 6920 1342 4956 2609 337
667 8772 6765 3924 4161 3276 4874 5171 651 9397 2401 6549 5090 5344 6103 6563 7914 9425 6614 6249 5369 5736 3052 7599 5605 3325 4773 4751 3681 3482 2909 8634 7121 3844 2613 6098 7407 2365 8398 4906 4249 4245 3004 7592 4872 2842 3779 4098 5868 6647 5731 4747 5618 3771 4556 6196 7228 5958 717 5775 5683 3415 815 8313 6493 5240 1260 5624 4248 9032 3814 7241 2041 4056 2483 7561 6651 4567 7447 932 1802 7311 7707 6479 6521 4425 6781 7234 1646 4235 2073 5634 6606 7336 3477 4615 4723 0 3818 5514 4762 7941 6851 3988 3318 3874 3328 6527 3742 2391 3083 3165 4591 2385 5442 5407 7076 4938 851 3947 5080 6270 6171 8861 4412 8876 7648 5612 5386 5398 5370 4498 3642 5516 4602 7557 2664 5313 1285 1869 5195 4579 1844 2254 3250 5989 1435 4981 6334 6146 4165 1886 5504 3150 5825 6562 5881 9075 4712 3523 3384 1410 2354 3342 6450 4850 3790 5543 3842 6239 2762 3990 4725 3716 5060 7492 9527 1731 3836 6939 2111 5616 9306 3234 4529 4899 6261 8732 6190 1588 3742 9546 2232 3534 2104 3672 963 6102 1099 8626 2981 6309 6096 6991 5029 5583 7796 5241 1595 2377 3958 2879 8710 4255 3162 7427 6580 3127 5148 7118 4873 9152 6679 4450 2898 669 3137 6247 6859 5198 3121 4627 2844 3169 3113 7472 3949 4805 7067 4982 4655 3959 4727 2819 3325 8156 8039 3096 6996 1797 1602 8176 3889 2586 3121 5697 4934 5486 2179 2846 2830 1304 3929 8110 5257 7119 7644 2928 2207 6301 1586 2001 9544 6004 3012 4487 2731 6471 1739 6385 4587 3642 3893 3026 3869 8524 1185 953 4255 3585 4706 5841 6678 2215 7814 6571 4373 5601 1382 3240
3541 3925 7811 1334 4252 6005 4621 3667 6959 5296 6114 1695 7626 1614 6603 6716 2288 7293 7042 6617 2258 6158 4368 4537 510 7545 6800 3280 2358 5559 3003 4681 2708 8338 2854 5342 5043 5430 5411 7555 3780 3852 4012 8090 5638 5778 8049 2448 5392 4530 4767 4979 6033 4156 2045 5934 7343 3283 4970 9214 4536 4575 5303 5927 8367 5749 5443 7657 6571 6846 4180 4995 3156 5017 1021 4566 4843 4284 2285 2966 6787 5102 1613 3132 1811 5493 6017 3252 5279 6573 5372 4465 4299 4709 4732 4528 3780 3818 0 7096 6475 4079 4691 7781 1533 8869 5448 3986 3472 3710 3601 1957 3103 3614 2431 7038 2662 5773 6243 7405 6147 5436 4785 5105 3898 4172 2393 7455 6199 523 903 7324 2266 6846 3787 5886 7086 2967 6646 1731 3088 8309 435 4299 7586 6857 6526 4751 3880 4753 8416 6608 4694 4789 5614 4318 2128 5422 5898 1372 3111 4623 5274 6169 4053 5093 4909 8908 5637 2760 2994 883 2875 6064 970 6718 4046 8822 9760 6012 4025 5793 4649 7436 4836 4890 5829 2201 1582 4495 5121 2117 3037 2335 4830 2053 8500 2986 5948 3073 2518 2296 8104 5428 6137 3331 5655 5352 5844 1652 3070 6584 7871 7088 5314 7118 5002 4579 8768 5796 7984 3709 6590 3704 6210 3551 5571 5488 2919 2559 8890 4466 6095 2408 1622 4765 4450 4028 851 3785 3913 7463 2050 2988 7101 3371 7470 5801 6619 7751 5255 4930 4081 2490 3829 9393 4827 3542 4970 5950 3394 4513 4541 2186 6662 4076 3755 1845 5096 2165 7788 7922 2116 2725 4096 7992 8919 4043 4267 6495 5820 6220 8558 6261 5230 4909 824 4203 690 5771 7039 4888 6004 6244 7068 6200 7786 5884 5878 2761
8145 7861 9671 9141 3338 9345 1292 4657 2575 6079 4942 3508 1658 5060 3571 5983 6384 7336 5681 8637 5156 4916 5238 2994 1173 3502 8600 8013 5292 4094 4026 3344 7611 5573 4295 923 2622 2131 8041 7063 5611 3637 1835 9100 7871 5487 8666 7616 4051 7880 3666 4554 3526 3442 4061 6295 4724 6479 201 5072 3991 7182 5136 6156 6654 5985 1813 1963 3170 5842 5890 4526 7011 6357 8785 2018 4234 6482 6210 6299 4737 1165 3986 4656 3166 5028 3886 5133 2517 6701 6805 3475 7744 3656 4641 4787 2413 5514 7096 0 2835 3068 6059 392 3080 4920 4983 5579 4723 4934 4117 6504 3841 5962 3588 4857 7319 8255 7640 8427 4417 5165 7450 6191 582 7325 3621 2565 4029 6405 6667 8292 1196 4418 3089 4410 2848 4734 4425 3977 941 5220 8898 1893 8719 5075 3428 3565 8018 5665 5129 5791 7201 3235 2820 5120 5449 1025 4020 4700 5839 5160 6395 9203 5244 4004 6018 4976 3564 3194 3526 1573 4330 2832 6934 9719 4433 3850 7676 5395 4458 2162 8956 690 4736 7740 4212 7567 1862 3487 1783 4201 4478 1269 1889 4903 4024 3463 3332 8868 4062 3753 6977 4969 1140 7244 3589 4025 1781 4320 3179 5448 1409 4455 4012 5366 6767 3702 5356 4743 8034 7063 4933 4989 7166 2859 7776 1770 5842 7283 9100 5098 2563 2555 2554 3140 7727 6056 8167 6090 7747 3850 2342 7670 7516 6053 6207 4451 9004 4672 1097 7637 1597 2814 1293 5396 6587 2831 2485 4264 3282 7749 5443 5747 6131 3406 875 5324 4153 6347 3137 8271 5906 6743 5413 3532 8456 1534 6343 4838 6774 6650 4877 4939 1599 4855 6611 5673 2517 3461 1269 4992 5279 5111 6725 6013 7561 6193 3231 3077
2822 5801 6455 4021 5589 9128 2277 7386 5929 3503 2932 4087 9435 5949 4024 6920 6026 3296 4791 5601 5150 5027 4490 1810 5748 5205 7490 3626 1782 5576 3759 9146 6363 8342 5213 4221 2867 3521 5434 5181 5397 4581 5443 2803 4850 7419 7608 946 3677 8900 4791 5894 973 7860 3444 3484 4339 3886 3870 2951 3820 6632 3380 4771 6309 2438 4936 4004 4204 3386 3981 4312 5429 8127 4376 7323 2547 2668 4142 5471 4815 4320 2484 7886 8135 7281 5726 4825 4028 4335 5983 7963 4911 5190 7550 5607 8969 4762 6475 2835 0 6413 5048 6957 6123 4900 6167 4902 3581 8112 7538 7108 6160 8381 5321 7396 583 5001 2590 1287 7035 4534 4703 1932 9579 1130 1695 7910 5418 7206 3203 5824 6087 7887 3644 5370 4326 2912 3697 4889 5991 4585 5793 8595 5756 5403 3277 4675 3031 6024 1879 6369 4693 3584 1030 1957 9806 6552 2071 190 5499 5366 5388 6100 3804 3531 6906 3816 6814 3630 4771 4438 4632 3363 4899 4011 4073 3392 3654 5041 6355 2239 5495 1446 1852 6595 7973 2135 4567 5327 6188 6507 5746 4841 7278 2963 5646 8681 5363 4053 902 4087 4608 6596 6515 5051 7314 8138 4135 4840 5264 2178 5308 1161 3116 7418 2007 8147 1626 1487 1794 4527 4555 4253 3071 6750 5042 6335 2683 4048 4288 717 4337 956 2530 4516 5383 5835 5687 4125 3550 4986 4100 3979 5684 6845 820 4761 4430 4702 3093 3462 5592 2277 6775 7119 2954 5331 2596 4445 1471 6361 5580 2061 3329 8057 4752 4601 6395 2195 1257 3180 7800 6986 4529 4169 4173 5379 4342 9720 4765 4312 3496 4163 8675 4508 7985 8151 3922 5992 5225 2507 9326 3117 8508 7870 3780 7204 4666 7322
5585 3619 7831 3252 3406 6683 6909 5533 5241 5626 7490 4729 5891 6616 4617 4605 6510 5724 6503 3158 5045 3728 2199 2456 1645 7679 3824 6791 1626 4426 4282 4148 8287 6363 3223 4752 3351 4112 4888 8341 917 5272 4393 2624 1794 3501 5640 6142 4544 6017 8329 3152 3796 7750 3657 4455 2246 5732 5661 3258 7637 3582 5504 7060 5313 8354 6915 559 8025 2298 6230 4486 7010 3162 2630 3131 4273 7338 3529 4287 4919 4209 6711 7128 5529 2895 4815 4487 6339 2266 6490 4343 5305 6164 4384 6877 6424 7941 4079 3068 6413 0 3262 7992 7062 6923 5612 2534 5047 1511 1422 5031 2877 4334 5456 6271 5393 4232 4200 5291 4928 134 8941 2277 4270 4560 1491 4200 5424 3890 3139 5761 3844 9010 1741 3857 3419 7234 2071 6542 8514 5118 6285 2576 2668 5467 4292 8060 6260 2459 7281 8332 7757 5562 4994 1526 2389 5111 3914 5906 1357 3917 4878 5607 4753 9035 5093 5140 5078 3359 5445 5288 6218 7703 7969 7346 5257 2299 7009 5707 5219 5036 8585 1325 1136 8045 3484 8081 7437 3354 3229 4024 6593 8789 7379 2866 5992 3857 2669 3691 5404 5086 1032 2189 5549 4591 2417 4096 8055 7461 5457 6584 4077 7332 501 1584 4134 3416 5008 3040 4363 4678 6447 3384 5529 6764 7702 4723 5512 7216 7438 7990 7387 3363 6556 4478 5362 6966 8510 7423 5328 4686 5060 5119 6070 1337 533 5566 4974 4384 4607 9103 8502 9234 7558 2407 4616 8115 7046 2536 7248 3125 4594 8392 4893 7349 8674 4200 5532 3820 5332 5969 1831 4395 4646 9481 1998 7563 8018 5606 2941 5175 7382 696 7616 5682 5187 1275 5948 6709 8815 2017 5638 8759 5171 5746 5150 6471 2790 5202
3464 5731 4719 4654 7529 6883 4912 7394 6700 5968 6166 2462 7417 3826 4033 2583 6757 5919 5348 5812 4471 4948 3665 5455 4297 7149 4119 6873 3305 9903 8732 5495 3727 4714 2818 1525 664 1483 992 6947 5977 2960 5359 5568 4537 7624 3592 681 5451 1260 1596 2589 4133 3920 5977 2700 3136 4785 7144 7615 1246 302 5016 2121 2233 1689 6321 1912 8082 4575 2818 3827 3364 5515 2832 4745 5137 5706 2805 8541 6255 6315 5480 5723 6131 6338 6377 9519 7019 2271 4067 8005 582 3714 3709 2893 7883 6851 4691 6059 5048 3262 0 6075 3954 1347 5329 1674 3662 6450 2541 2370 4115 5498 4670 2160 3786 6408 5093 3578 4633 8130 6846 4026 3429 2996 6216 5301 2917 6384 7410 1360 3264 1773 3219 7131 4473 4935 5818 8205 761 2182 3719 7349 5377 2202 8797 8167 3581 1494 6522 6810 1550 8158 5191 7037 3456 7445 4158 7407 3891 8269 3538 486 5618 2027 4682 3613 2004 2358 5386 2079 3281 3210 3565 6391 4800 3340 6543 7000 5219 7816 3113 2208 6478 5032 1691 6021 3566 4739 4337 3080 1218 4798 3698 6266 2545 5199 9191 9192 2695 6900 3235 5954 3454 3590 7415 779 4167 7602 4126 3066 2683 6680 7466 7605 6403 8052 4480 4767 4106 2754 7291 1468 5895 9307 3879 8210 1785 6710 6639 1928 6784 4603 5084 6207 7622 2847 6431 4412 4344 5871 698 3550 4880 7350 4958 3234 3243 6695 5978 3744 5608 3674 3330 8419 6804 853 7713 7550 2975 5954 6139 4036 8345 2726 2834 6503 5314 4134 5284 6087 4501 5751 7234 7871 8913 7864 2391 3862 4635 5855 6926 3305 4235 5641 3302 8472 2938 3203 6190 6720 864 1396 4421 9042 4990 6642 5180 4938
4504 5882 5662 8040 5175 5398 3973 6195 1685 1856 5814 3287 1637 4789 4824 4758 4699 6061 5072 4866 1480 3826 5123 9344 4143 8883 2920 3342 5692 2763 5700 3518 3783 5885 8335 5786 2000 5348 6897 4042 6565 3386 2532 2980 1524 3478 6146 2503 3587 3807 5169 4021 3062 3775 5078 6533 3746 3806 3977 6276 4534 3148 7752 6519 5696 4830 1658 6676 2724 6436 7012 9088 3817 2342 3167 4813 7536 6380 1684 4183 6121 3808 3839 5174 8136 7152 969 5627 7107 5514 9653 4060 4069 3713 5044 7111 2471 3988 7781 392 6957 7992 6075 0 6178 6824 2365 3787 5612 8682 3492 3327 5533 5296 4287 6314 7313 6255 4412 6736 5401 8204 2155 6075 6121 994 6760 7515 7688 7914 7075 9472 6554 6352 7510 6069 3942 3244 8351 4313 4143 3635 8464 5542 4655 5936 3859 7629 5559 5201 5548 5781 8026 7150 4005 7259 5617 2721 2348 6739 4103 4609 9639 8986 5893 899 2870 836 909 5562 9818 6623 5924 5174 5829 3828 5333 7173 4540 1850 4624 5090 5596 2538 5436 5532 3734 5518 4198 723 2109 3584 2858 4803 9457 4483 9371 3877 5324 4378 3390 4516 8261 5239 5204 1436 6807 1890 5943 6520 4394 6888 2861 7523 867 3598 2667 4720 8667 5820 6592 3250 8523 6375 8434 5639 7163 5741 5299 3200 6867 2317 3777 8785 4196 7286 4205 3695 5892 4155 6135 3369 2044 6779 1628 7447 5457 448 4032 4519 2719 6684 4289 4754 4872 6213 6259 6360 2991 2958 3878 4923 3388 3813 2776 4475 5696 3733 5055 3661 2808 2640 6809 3366 2958 3564 1465 5290 5155 2492 6689 4698 6837 2058 4808 6030 4597 1562 7020 3286 6587 3607 4236 4776 4865 3297 1179 4692 7358 5581
5878 3078 3163 5604 4919 1675 5630 8632 4390 4049 4717 5223 3963 5452 6616 8179 3788 3237 6967 5905 6163 6326 5527 7797 1587 1797 2910 1266 9680 5551 5731 5644 815 5653 4155 780 8132 6485 5929 4479 4402 2974 3003 7285 7192 5321 4513 7750 2549 6105 4263 3893 8051 5198 3342 2955 4909 5209 2575 8233 4913 4479 6014 2589 6973 2382 3988 8518 7360 5573 834 3016 7691 4397 8188 3392 6656 2900 8518 5940 5386 2846 3965 3245 7593 1195 4689 6504 3028 2640 3085 4416 4280 2906 5687 6576 3183 3318 1533 3080 6123 7062 3954 6178 0 2704 5512 3344 7136 6686 8892 4881 2429 6756 4884 2928 1300 2984 6351 4437 6120 6493 6727 5296 5182 5403 2574 3488 5191 5616 3861 6748 4844 6774 5752 1424 4970 1307 6736 3413 3897 8787 3973 3818 4710 6772 4344 5417 5953 4979 5178 3782 4980 3991 3813 7739 5567 680 3275 5098 9213 3813 5700 2653 7406 5479 4589 4676 5905 5145 3841 3070 8496 6225 6489 3413 4986 8145 3761 5090 4347 2499 4537 4187 5619 8030 5498 7964 5230 6662 7258 1749 4996 5635 2691 6390 7883 2346 6750 3115 1989 7048 5682 5353 2098 2829 6766 3421 6867 2919 5797 2719 2227 7413 2816 4988 6137 5457 5645 2903 6442 5228 4398 7948 5477 4256 3986 7359 302 4549 5994 3751 6193 4006 3860 2357 5096 8231 4773 7448 6210 5404 3848 3728 1034 6982 5739 6507 4242 6869 8005 7050 1931 5074 1362 7970 5468 5141 3014 1575 5031 4722 5541 305 4823 8924 3522 8659 1563 2429 3446 2540 3418 6370 4516 7181 8697 2434 5540 3572 7909 6031 3890 3512 4882 5149 3213 553 4875 6148 5037 5331 3184 7343 1850 8715 3938 6246 2246 7285
7826 6034 6138 8733 4629 4661 6874 2265 8573 3739 6371 2690 2996 7239 1078 1864 6081 3437 6488 5710 5442 7129 6802 2010 4028 4273 7351 669 7284 2991 6539 4238 3081 5181 6730 5396 6945 5068 5909 4225 4532 4096 5649 5642 4981 5114 2486 6144 7849 3202 2444 5005 3157 4267 6892 6332 7172 4811 2462 4933 3025 4899 2654 5469 5907 6421 1396 7021 1554 4927 4648 6672 1698 2328 5809 5047 8329 6332 1326 7060 2712 7018 5490 7466 7157 4101 7383 7229 4382 7336 5067 7196 5440 4043 2901 6179 6724 3874 8869 4920 4900 6923 1347 6824 2704 0 2196 3153 4708 7126 3900 2215 9079 2999 4180 1867 8599 3814 6205 5710 6017 5379 3779 4327 1525 3694 8947 4964 3282 6740 7049 2144 5866 3689 6142 4443 5168 4040 2521 2711 8705 2279 6452 510 4584 6376 5669 3208 3471 5053 5842 5140 1282 4247 4753 4581 7626 4678 4485 1816 7562 5763 7054 2615 7012 5964 5987 1943 5271 7036 6024 5266 5652 4621 8915 7080 6517 8294 3709 4296 2780 3785 2751 5688 6170 5649 946 7129 3030 8348 6828 5485 4613 4231 2685 2826 8464 4582 4677 3786 280 3211 6863 3178 9640 4405 5556 5450 3448 6403 8115 4637 4243 5633 9247 3182 5859 6738 4647 1529 1918 4133 5303 3653 8384 1137 6195 2982 1481 8874 3149 5874 5522 8601 2628 9299 3906 3307 7856 5187 7491 6949 4584 4165 4603 8315 7215 5382 4586 5412 3546 2811 5283 3867 3587 6268 4976 3692 3996 3895 4545 4509 4556 4913 2861 8695 6979 8397 8964 3821 6887 4406 3785 2279 4291 4294 1679 7944 7838 8285 5152 6338 557 5326 4883 6516 4974 1522 3580 5446 634 5814 5303 6222 6906 8545 3925 4350 7790 3208
3447 4521 7558 4639 3501 4158 1848 5508 8329 2159 5133 3829 7272 4859 4533 8616 6999 5534 5584 9138 5776 2791 4969 6293 8399 7505 4649 4471 2529 5510 1588 5570 6530 1597 6444 8045 6265 6702 8648 5087 1796 6475 2846 5198 6277 3131 6284 705 5325 8230 6011 5544 3283 4127 2341 4411 5873 3778 4795 5732 8210 5233 4531 5541 2294 7049 6319 8579 1068 3939 5025 2771 8091 8366 6160 4791 4464 2929 5445 6347 2299 2354 7946 4034 4975 685 7920 5123 4663 5744 6584 2315 6999 4042 4426 7836 6559 3328 5448 4983 6167 5612 5329 2365 5512 2196 0 5996 8932 6733 5079 4674 1838 2136 4942 6325 7924 4686 3746 2603 5868 8238 3613 5315 6001 7137 3194 5908 6842 6573 5608 3892 3180 2842 5924 4714 7155 5497 4372 5538 1747 5805 4687 4195 3510 7964 6401 4748 5004 5007 7594 4569 2338 3494 3320 8526 3992 4191 8893 5907 3570 7036 5142 4987 9040 6692 8814 4141 1265 3108 1365 7882 2763 6698 5138 2688 4476 5890 6370 8049 7192 3689 880 4113 1253 1210 7225 3398 7170 4255 7428 5045 2176 4922 1002 3948 6909 4115 7680 6787 4093 2951 1821 897 5450 6064 5506 5136 8211 8039 2778 6883 8150 1790 748 1863 1757 835 7144 2477 6362 5914 3483 645 4485 7126 4107 3535 5323 7583 8618 3449 8405 694 8851 5161 5460 4628 4239 5342 5863 5141 1557 7148 4835 4248 2021 4447 4620 7323 7934 1249 3984 4789 8776 8028 7481 3253 7727 4459 1588 6118 1885 9524 4954 5481 3934 6818 7905 7586 4937 4298 8581 3667 6987 5018 2138 6704 1916 4331 6134 4153 5449 6165 3366 3870 2786 3542 4022 8725 4770 7922 4904 7192 5666 4215 8155 7512 740 7783
3215 1752 6623 6263 3058 4711 6169 2964 1604 6794 3739 4493 1835 1766 2646 587 3241 5580 7186 3354 7415 4949 5248 8545 5621 7064 9470 4158 4629 2952 6430 7314 8479 7989 4617 2652 5044 5803 4398 7104 3297 8139 1770 582 5823 8230 4087 5904 5875 1547 5046 1854 6775 1593 3853 5079 6079 8040 3816 2092 3719 7078 4849 7344 909 1139 3519 4598 2699 5131 3630 7980 3956 5085 5619 4999 6584 6064 6254 6297 3171 7554 1742 5582 4470 5690 428 4482 5693 4530 3014 5365 2115 6922 7092 3022 3022 6527 3986 5579 4902 2534 1674 3787 3344 3153 5996 0 6752 5480 4130 7838 2023 6701 3161 5093 5986 7446 1750 8752 5398 5375 6431 7501 5424 5564 7201 5477 6477 4592 5704 5845 5285 2869 4133 2314 4110 5591 3543 8406 1110 6099 6960 4687 7082 5614 5869 1047 6546 7238 5526 7638 4074 5421 4667 2988 3906 1534 3135 6019 6810 1701 3763 4534 4891 8576 3476 2891 1632 5864 3377 5032 4601 5028 3645 5262 2369 1976 4583 6088 5519 3462 2608 5428 1177 6878 7540 9855 6170 4889 9560 5662 6697 3278 5813 6034 4370 2324 6063 3399 2776 7599 2616 4767 6665 807 5752 4484 4596 6677 5773 8143 6404 7985 6360 5695 5414 5661 1918 6158 3830 2387 2879 5904 5795 1634 1736 5230 3445 5288 6449 5823 5424 5665 5178 1840 8771 3385 7509 4862 5925 6429 4264 5497 7298 5298 5950 4299 5508 3759 2971 6010 6597 6908 3094 3450 2304 5351 5433 3713 2991 5404 155 4528 1657 2199 7222 2172 835 5087 1648 3977 4490 1159 8303 4674 4679 5945 1355 3396 6121 3663 1429 5709 8319 5427 3612 5963 4804 9803 9241 6390 4809 4968 9099 4273 8867 1863 1241 951
3885 4240 8903 6246 5101 5246 9361 2389 7861 5431 4139 6255 7924 112 3836 6184 5534 5629 5907 3886 7164 1225 7102 3849 2833 5694 3629 8571 5946 6611 7075 3917 7090 5500 3436 6074 5473 5828 6214 6813 3691 7441 5165 5462 8068 7575 3424 2878 5987 1714 8331 5834 7394 4345 3983 1230 6916 6036 4895 990 7559 5969 9455 5680 6127 2480 1400 4432 4185 2811 7225 9011 2089 4783 3995 4959 6402 5093 5277 4949 3113 8227 7612 5471 7003 6089 4828 4936 6732 6294 8637 4870 5056 1623 6423 2012 4094 3742 3472 4723 3581 5047 3662 5612 7136 4708 8932 6752 0 5817 6756 6739 5888 7666 2610 7429 4845 4375 3658 7455 6947 5626 2840 2268 5016 8493 5237 6745 5415 6872 6094 4795 7136 3072 4819 4999 4440 7240 2826 2995 4993 3898 3390 5903 5435 5583 2196 3937 8591 4206 4565 5033 8834 8187 4022 6426 6711 8177 7854 4100 7680 4815 5073 6440 4687 3902 4786 7438 7269 2137 4686 5241 6846 5410 8046 6797 4012 4028 4267 3213 2490 8616 5415 3479 4988 6698 7952 2473 6378 2450 6314 1372 6057 3288 4298 4273 5874 5039 8611 6321 1808 8736 6478 9066 7441 4456 8155 8124 7881 4206 5449 2102 3746 7120 5747 1446 3012 8919 7753 6611 4479 4394 4883 8446 5291 5212 5994 3615 7527 2029 1391 6237 8092 2258 8449 2601 6107 8486 5142 7001 5851 4839 5811 3717 8233 4481 6754 4414 3294 2152 5244 5903 6698 5497 5797 5567 3549 4288 6365 2315 4821 2138 7838 2453 5421 1997 7137 7747 6136 5201 5092 3982 5512 2634 7885 6029 3165 5112 1932 7867 1694 8952 6235 3877 7965 2330 3373 8312 6432 7263 4893 5575 5004 8992 4632 1999 7191 4440 4437 6025
4265 6365 3693 4661 5859 7620 3843 6538 3073 5054 6846 4918 4244 1477 3681 6531 969 4487 694 3792 1008 2508 3514 3657 5323 9215 5165 5133 6203 2054 4565 6615 6204 5465 4320 4161 4733 6973 7441 1080 4294 6995 3092 3047 7531 7345 2985 4523 2912 8045 1604 7574 5584 4983 9182 6978 2238 5820 5996 6081 3602 2956 2560 3249 3619 6037 5935 2313 2904 8656 4717 7642 1467 2645 1466 5012 8841 969 1397 6666 6387 6987 3155 8601 3794 4384 5549 8165 5061 6507 7175 8845 5188 7501 5593 6248 1756 2391 3710 4934 8112 1511 6450 8682 6686 7126 6733 5480 5817 0 7429 1548 8825 7921 5808 2594 4369 5289 2944 7402 3325 2975 7671 6666 2836 4030 3867 5798 7177 1858 4207 3882 9066 6221 1986 6089 4993 4472 7587 5243 4750 8154 4685 7105 6506 3125 7191 3197 5303 4220 1604 4967 3892 2267 6924 5068 4989 8658 6324 7570 6582 8676 7221 1429 1319 5132 8147 5879 5862 4818 5481 5165 4793 7285 2500 5915 4229 7211 5805 8116 4241 2079 9093 5453 6805 4667 9716 6386 2425 6180 7814 5780 7532 4145 5813 8116 5501 3428 4486 6057 4648 7193 5330 5230 5217 4929 5501 8667 5491 6942 475 4650 7540 4343 3734 4418 4749 5628 5899 7426 5073 6744 4458 7506 3993 5726 4661 5388 8619 7813 1327 3114 5665 4430 4301 3520 4201 9329 1191 6142 9238 4315 3319 980 3662 8744 8321 6795 6929 5622 7483 7605 8572 2599 6419 2929 5264 7147 5423 401 474 6671 3409 3520 7956 5350 5724 8520 5511 3593 6110 6450 1324 2989 6531 7247 3690 6238 5422 5025 5702 6392 3854 6343 2981 2051 5141 4650 7324 2788 5234 7656 8142 4939 5525 7611 5570 8273 3679 8425
5265 8365 5598 5723 6843 5447 3893 4940 2997 2239 4910 7924 5347 6532 5572 5998 2139 7083 7712 4716 6741 3302 6713 4689 4244 2043 5610 3952 8358 2167 7116 6060 2189 7396 1407 4188 6007 8143 5764 7184 1561 2745 2570 6988 5771 4384 4378 4759 5778 4866 3825 6758 6987 2223 8145 5134 7757 2024 2825 719 7391 5132 4090 3200 3942 6211 5391 7916 2463 5425 4926 8121 3659 6738 6344 8270 6174 4093 5969 5644 1002 5497 4478 4981 3134 6907 2205 4709 850 4981 2671 3564 4101 3159 2131 7078 6171 3083 3601 4117 7538 1422 2541 3492 8892 3900 5079 4130 6756 7429 0 4498 5867 5988 5000 1288 7120 4137 4738 4758 6107 6150 6075 6906 7336 4144 6967 8159 7175 4174 2205 2978 6347 3867 4982 3046 8989 6732 7923 4584 5303 5774 4688 4714 4643 5187 4295 7193 5047 3053 5245 1481 7021 8945 3193 2213 3326 3789 9390 3529 1273 5618 3416 6400 6516 5942 6409 6703 5069 6563 6183 6738 3005 7473 3394 4855 4817 7453 2854 7157 1523 4482 4148 4063 4768 2450 7398 3485 5284 4338 7754 8652 6327 8358 4970 6842 5253 5823 1025 3573 5856 4135 5158 3370 6227 6006 5823 2646 7663 2573 7928 4666 8289 7092 7558 4811 4965 5814 5986 6497 930 4048 4336 6297 7959 7397 7378 3994 869 5504 8228 4374 6279 2853 2952 1212 9271 4555 6955 9584 7985 5121 2337 4265 3932 5374 4509 4898 6997 3037 7829 4048 5853 4268 7532 4129 5213 6423 7493 8096 3937 4039 5678 3776 6913 7489 1370 1488 1811 2903 2530 1003 3173 4237 2207 2962 2179 2671 1291 3387 3781 6525 5350 5830 8372 3493 5352 1905 811 8762 3340 3537 5709 1889 4193 3106 3312 3980 6676 5320
1282 3074 5333 3634 9017 2781 6028 4570 3708 3505 4883 6706 6436 6786 8428 9784 4213 5292 5218 6201 7290 7145 5145 5152 6896 1648 4623 2269 1764 6316 1536 3839 5505 1528 7004 7272 8646 883 4063 5659 3741 5874 8963 7652 6777 6169 6575 5482 3215 4408 3588 5172 9655 4991 6698 5671 5670 7048 3320 6029 5913 6319 5036 6022 4716 4007 3153 4663 5540 6742 7951 2902 1596 3175 3250 4727 3164 3958 1762 2419 2382 4360 2071 5266 6192 2987 6974 5095 4865 5489 2792 2459 3048 6082 5103 3492 4084 3165 1957 6504 7108 5031 2370 3327 4881 2215 4674 7838 6739 1548 4498 0 4032 4615 3284 6584 4353 3651 7528 6536 3272 4248 6864 2274 1941 6599 7048 6523 512 6120 6703 5077 3153 4687 3410 5378 7064 5669 6195 7273 4687 7252 5254 3784 3824 6438 6570 5126 2474 7844 6360 3321 8979 8983 4831 4697 7217 2971 3953 3933 5055 9530 4405 2139 2370 6062 4274 6666 2350 5002 5448 7671 3212 2941 6928 7220 3218 4860 5727 6074 3918 5212 4126 1310 4946 7435 5949 4439 4610 6928 2060 1425 6132 4407 3897 7528 5555 5609 4028 4990 4456 6334 3493 4560 4609 4403 2360 4652 8511 2102 1271 6930 5271 3909 1657 3932 5906 4742 3331 4833 8313 5877 1941 6344 3334 553 3022 7978 3136 7363 1829 4513 7375 3626 3354 4131 3976 5566 8349 5353 4356 7475 2547 8414 2668 5744 4721 4639 7624 3667 4950 7591 4946 4583 5773 6033 5470 3152 6359 4777 8455 4031 8153 8600 7270 6297 3502 3368 4090 4996 2173 3199 1289 3887 4000 2894 3623 6153 3062 4439 5408 9082 3290 7915 3142 2124 6943 5379 2063 5664 2773 7435 1158 5233 5812 7692 6042 7213 6864 7612
7894 5664 1344 4647 5782 5841 8318 8083 3829 5008 2744 7439 974 2610 5632 2498 5242 2743 1123 3208 6567 3304 7348 3568 5724 3085 2151 3940 4724 5189 7423 6988 6015 3676 4999 2698 8039 4965 4048 9003 1556 4954 5093 5347 3280 6701 1537 1840 4153 4088 3328 6877 7292 5973 6449 5990 4613 7447 3265 3670 8072 5279 6620 9682 5183 5394 6157 98 6648 8940 7205 8435 6449 6611 5861 6660 7014 5096 7285 4127 4773 6615 5147 7612 4461 8263 4210 5774 6796 3989 5605 4534 7667 7368 4855 7632 1073 4591 3103 3841 6160 2877 4115 5533 2429 9079 1838 2023 5888 8825 5867 4032 0 4088 8288 5333 5895 5663 5112 2595 4349 9638 5927 8217 4134 9028 5732 5716 6674 6075 7012 1735 4517 6826 6133 2238 4857 6653 6464 3256 3978 2562 2238 5006 4495 8682 2019 4472 2758 2728 5090 7104 5076 7709 3818 4404 6118 3423 5114 3480 5340 3765 6154 4008 6817 4174 3102 296 3286 4029 3724 8178 3811 2221 1119 659 4612 2764 5762 5570 5617 5802 4698 1724 2268 1270 5051 5882 6610 2556 3237 4456 3057 4568 5806 7284 8314 4454 1969 3322 3275 5634 4630 4018 5356 6078 4182 8231 5168 1573 5166 4725 2777 1507 5238 7053 3496 7257 4828 5534 6586 2771 4037 2770 3443 2659 4031 6979 6601 7481 9077 5297 4519 900 4053 6963 3119 4465 5870 5140 3928 5523 2716 6590 1910 2757 4172 5986 5086 6849 6708 6637 4633 6189 4468 879 4414 6349 4618 7281 1844 1443 6321 2429 4697 884 4148 3519 7767 1996 2305 1012 3358 3679 6819 2568 7697 3445 3880 7489 6683 3447 6206 3744 3852 2923 3069 1196 3720 6316 4145 7534 2463 5666 2588 4558 6249 5153 4131 5090
4505 5625 3965 1349 4039 3091 4883 945 9618 7268 8426 535 8448 8113 8574 6716 5491 1943 4252 6254 5497 3366 5783 3665 7385 3707 6750 8106 7444 7617 2450 8617 3971 6044 3349 5947 3652 8974 455 4648 2613 5938 1403 3315 3975 4304 6086 4503 5168 4068 4749 1879 7811 3585 5283 6430 4240 5684 4820 4098 6361 6161 2712 3478 6837 3894 3794 4618 6589 5000 3328 6918 7163 4909 3671 1190 1941 3057 8382 3511 5293 8586 4529 6029 8141 6334 5485 9535 3221 7024 3742 1684 6247 4031 881 5259 1911 2385 3614 5962 8381 4334 5498 5296 6756 2999 2136 6701 7666 7921 5988 4615 4088 0 4140 7315 8747 5546 5914 7321 4552 6085 6305 5901 5708 1779 2925 5451 4774 1816 4350 5665 7528 1967 6267 7316 5325 7453 1755 3829 5401 1821 1796 2900 7075 2122 7471 6243 6165 6838 4238 5709 6515 5838 4107 4789 1329 1981 4098 5124 5695 2566 4261 4159 2937 6300 1366 4218 5496 8035 1191 3147 1602 4360 4251 4484 1841 3449 6079 7302 4143 3525 4162 4588 2991 8258 3820 7082 3794 5734 7473 4542 4580 5585 4281 5001 5343 3718 6252 3340 3498 5796 5799 6484 7856 6116 6136 4091 5881 5565 4218 7919 2834 5992 3071 6168 5895 1558 3385 1321 338 5116 2977 5115 6950 4231 3486 3509 5804 5953 3832 4747 5902 1356 3318 8904 6204 4237 1101 7798 6076 4472 4413 4720 3842 1823 8645 4250 3715 5982 4539 4833 1202 6694 3078 1935 4506 2462 2653 5953 4654 7128 6547 5981 5105 2067 2224 4988 4223 7820 4023 3757 5755 4909 5440 4267 3559 4005 4058 8318 6937 4582 7900 3373 8516 9403 2268 3598 5414 3749 8491 4773 5771 4163 4312 7200 5707 4257 2360 2966
9283 870 6906 5001 2386 5837 6486 4226 2170 4420 8153 8449 7551 5861 2900 3791 2834 7069 7270 6537 7135 9358 2658 4997 3612 348 4825 5704 7309 9277 1438 5855 5923 4205 4877 2787 8945 7673 7417 6241 5885 2356 3595 7485 3389 4456 6831 6244 7684 4242 5686 5800 3764 5433 4798 3046 4985 7910 2997 1732 5758 1637 4913 6869 6502 9817 7697 1912 3523 4619 8800 2336 5899 1328 6964 2251 5868 3273 5417 4536 4344 4594 4791 4660 8629 4904 5213 4184 3656 4289 4952 3538 4409 6120 2869 2510 1869 5442 2431 3588 5321 5456 4670 4287 4884 4180 4942 3161 2610 5808 5000 3284 8288 4140 0 1407 8894 4555 5570 6083 2963 3020 7039 5031 6783 4931 392 2355 5115 4987 3616 7471 2170 4852 3377 4426 8070 5058 7083 5913 7820 5480 1268 7373 7961 7147 3684 4576 3363 3706 8379 5761 9046 2447 3828 6163 4475 3478 4445 4559 3076 3251 1497 4807 2115 4131 5765 1269 7331 8732 9089 7589 2625 6832 5363 4077 6250 5150 3512 1003 5091 6514 4811 5914 3274 1447 784 4601 6378 6493 3257 4714 4745 5665 3068 2832 2707 3341 6115 6557 2967 2146 5635 5187 8073 7345 1676 6788 4282 5635 5439 7024 3084 5843 2383 4726 6560 5607 5332 3702 1147 5323 2091 4456 2671 1139 3802 5649 6849 3601 5406 7638 2115 2251 4933 4487 7289 8187 6067 5477 3846 4219 4825 7794 3047 4943 9106 6093 7032 4054 7923 4185 8375 3539 5359 2504 7395 6167 7435 4933 1344 4780 4355 2987 5441 8901 3033 3828 3820 7081 1388 2836 5940 5695 3284 4314 5142 5101 2766 4057 7478 6974 3589 4111 7451 2736 2448 7669 4965 6495 3597 2260 2947 6574 6023 3222 7831 6032 4557 6231
8782 1933 5929 8544 3714 3930 2359 6755 3746 3856 3193 3629 5859 6574 5042 3341 4387 6618 3862 6055 4330 8304 2937 4500 4949 6841 7642 6394 8402 2888 7917 6906 6552 6323 7002 3601 5365 5730 7125 4661 4942 4967 5104 2054 5647 6332 6661 4709 823 1731 4383 1909 5078 6961 5059 4177 5261 5900 6118 1495 5480 6821 1002 4577 6200 6813 2724 5795 6162 8392 1462 5031 6116 7142 9189 3549 5318 3405 5581 5922 5987 6042 7235 3090 1664 3729 8689 6331 6133 4863 5552 6592 3800 5081 3344 4730 7088 5407 7038 4857 7396 6271 2160 6314 2928 1867 6325 5093 7429 2594 1288 6584 5333 7315 1407 0 4935 9713 2902 4572 5399 4523 5020 1343 4404 4490 2506 3408 3856 7288 1554 3416 3631 8253 7039 2495 3340 3840 6778 4787 2458 8814 8738 5030 3645 2243 1140 4170 3951 1746 8212 8964 1774 4128 4713 5182 916 4505 1292 4787 1146 4541 3747 2259 6977 5274 6701 4315 7440 3573 1802 6717 2702 7302 2383 7056 6173 5317 3619 6141 7457 3341 5862 5347 6475 6478 3604 2621 1673 3972 3906 4065 7621 4970 6145 4439 7631 5353 6818 3783 1012 3527 3712 2165 1930 3451 1243 4218 3455 4320 5243 7115 8772 324 4100 6200 2958 6619 2468 4346 1314 6973 4004 132 4032 4607 5195 5020 6664 6270 5962 5042 4179 1798 4773 4020 4776 8806 8092 2385 6912 4348 4791 1952 8197 5527 6229 4159 4757 8172 3918 2884 5718 3557 2350 4495 4215 2048 5422 3968 5104 3743 7859 6478 3998 3763 5163 5125 4416 7506 4908 7640 2443 4197 8428 6853 4352 8485 6148 7992 2645 3348 3735 2037 6289 6820 2134 4033 415 5735 1006 1485 1256 2175 3496 6635 5907 5263 5055 7967
5376 6271 4039 3246 5239 5376 4126 8886 4207 4629 6650 1162 8141 3178 4239 5476 4861 1556 8138 5526 7386 1316 7011 5580 2432 6157 6184 7845 3587 6083 4974 3353 7253 7223 7994 1886 1738 5145 1206 8874 5055 1768 5412 3346 4810 7472 2346 4704 6371 4610 5075 6768 3313 5553 4182 7052 5333 3482 8910 1176 1377 6273 1346 5831 5490 7515 3179 5680 3807 5350 5838 5227 6208 3541 5832 5072 9840 3739 4469 4094 5478 5291 3425 3469 7120 1249 2441 8331 6216 6692 7750 4192 5464 4289 3609 8346 1779 7076 2662 7319 583 5393 3786 7313 1300 8599 7924 5986 4845 4369 7120 4353 5895 8747 8894 4935 0 6869 7186 7512 3068 6431 3928 2135 6775 4855 5940 8003 4008 4789 6095 5414 3526 1698 5171 3035 2001 4103 7045 3730 3244 5283 4650 7515 1621 4651 7264 4654 4065 2957 1141 358 1075 6319 5423 7251 2915 1911 6500 8808 6972 8246 3099 7903 4297 1525 6251 6227 6666 2377 4878 4770 4238 3062 3946 7909 7856 2996 5655 4193 8751 4015 4719 6118 2947 4999 2881 4193 5956 2492 4448 2054 9094 908 4490 5974 4640 5216 7552 4067 8212 4291 1890 6379 5098 6766 3903 3133 7618 6463 3697 1942 5497 4611 6965 3038 8415 4691 6162 7410 6611 2470 3871 7482 3410 4070 7815 5407 2470 7122 4442 2069 7392 3973 6588 6563 6449 6876 4465 4682 5834 8229 7603 4829 3255 6841 5767 3048 907 3356 8536 2685 4530 5640 2593 8613 5759 5898 2554 5456 5465 4037 6973 3901 4859 2879 8711 1819 2557 6510 5230 6233 1791 2627 2238 5703 7871 3745 886 5147 4471 5026 4663 5738 4692 5690 1334 4206 4798 1698 3829 7546 7061 4049 6733 7501 1621 6123 2306 8487
3736 3854 3216 6165 2787 3887 6855 3198 8746 3245 5411 2934 4446 4560 4980 2785 8908 3764 4840 9011 7531 4466 4346 5669 3124 7916 7754 3551 5688 9881 3529 4085 6645 3464 4015 7008 8139 1508 6435 5078 1801 4888 5724 3963 8849 1704 5898 2710 3731 4147 2709 2890 5232 8255 7156 7906 4458 1063 7596 2908 7522 4259 803 4634 4121 3896 3281 1089 5524 2726 154 6599 3225 6234 5301 4532 7226 3857 5929 984 5782 8173 2613 5806 6201 4255 8856 4280 7038 6572 5942 5338 3847 4656 3139 1727 1812 4938 5773 8255 5001 4232 6408 6255 2984 3814 4686 7446 4375 5289 4137 3651 5663 5546 4555 9713 6869 0 8588 672 5465 4522 7017 4470 8283 7153 4811 1892 8499 5571 5557 1949 4798 6416 1469 3328 2574 6669 1262 4552 3998 2274 4131 3068 5165 4457 1215 6062 3872 3580 4636 7933 6326 1339 6601 3856 3031 4217 7434 4439 2586 6128 7296 7582 3990 6070 4215 1446 4660 963 3254 6839 2923 7516 6523 5728 4137 3722 7110 3333 2273 7556 6119 1702 8034 5963 6835 3345 4576 8183 6661 2910 8068 125 6369 1756 5685 8988 9463 1625 5668 3623 3551 6656 2640 4649 1740 7295 5146 5201 4631 5987 4054 6297 6782 5464 5935 8677 6554 7534 7510 5783 4645 5175 3588 8159 1550 4007 4943 8854 5431 2627 5799 6404 7453 4793 3740 6400 6334 2090 2796 3657 5589 6745 1941 7602 1716 6238 2621 5046 6636 5413 3051 7244 4659 6402 7423 4523 8566 8613 3461 3947 7217 4242 4519 8737 6242 2287 5335 3916 1902 5277 5102 3581 7594 6393 4906 3149 5445 6504 5323 5467 2339 4012 1961 4502 4304 6714 5006 5975 1881 5668 2152 2812 1808 8840 3643 3404 6545 5000
5984 7488 2242 2890 3320 5198 6273 4398 6146 4044 5635 2714 2736 4307 1107 5389 3372 7123 6853 3840 4138 2575 5147 3891 6652 1212 4962 4396 5876 5911 4830 8587 7157 9023 8363 4085 3533 462 8676 4642 1913 4309 3609 2401 4681 2005 5047 2959 5764 3620 5172 4382 5254 2680 3154 6693 5410 5145 4885 4073 6401 6218 5514 8031 2630 5085 4873 2697 9013 4729 4119 5990 3406 7579 2111 5539 4851 3351 3262 6389 7695 5082 3877 7251 6879 6230 4008 4471 4621 1255 3716 3827 4162 9198 3607 3032 1345 851 6243 7640 2590 4200 5093 4412 6351 6205 3746 1750 3658 2944 4738 7528 5112 5914 5570 2902 7186 8588 0 5956 5911 5179 1691 1751 2962 2846 1371 2867 9255 3194 973 4244 3890 8488 2739 4813 4295 5829 5899 7845 3635 3749 5748 6556 5309 3286 6920 2776 5884 6635 7648 6562 7860 5753 5240 3557 2134 5777 1747 5176 5069 6123 2937 3613 6437 2942 6727 2648 3371 5074 2804 4205 8531 3047 4274 1661 2945 7031 2698 2512 3971 5886 7399 5555 3348 7178 4792 5349 6957 4866 8745 3393 5688 5634 5786 6383 4379 5051 4424 6877 7145 6103 4262 4625 3275 3223 2404 4249 6036 7088 4118 7272 4433 8958 2457 4381 5467 4956 5927 5068 6521 5725 4352 3712 3804 5450 3702 8156 2745 8031 3618 6595 2732 1795 5268 7450 4305 5609 5039 7640 4621 5714 6279 7662 8233 5965 4151 7233 7516 5741 6620 3171 5503 8386 5639 971 2990 8349 5805 1822 2809 6993 3111 3153 3528 4462 5639 8235 4389 2153 5716 5439 2569 7615 3127 2301 1759 2488 3441 5404 4318 6276 4484 6396 6483 3363 3252 6906 3145 4270 4452 6439 6743 4869 471 6730 6718 4654 2450 7146
2124 6196 2162 9300 2388 5076 5024 2747 6768 8423 7160 6261 3469 2540 1132 6814 8710 6877 4973 4972 7489 4280 5965 6135 5180 5859 4770 5264 3044 4924 7641 3502 5990 3729 2429 6385 6515 5341 4528 8814 1840 4893 5090 4167 4281 6646 4250 5814 2755 1971 5009 7638 4705 4874 9838 5832 7406 777 2172 6981 4273 6614 4328 5453 5938 6157 4422 745 6262 1115 2364 8570 7617 2004 4760 3508 2042 5786 5084 5911 7892 5306 1676 1503 7750 3059 4835 2657 2914 6876 4975 5182 4948 4059 710 6305 5825 3947 7405 8427 1287 5291 3578 6736 4437 5710 2603 8752 7455 7402 4758 6536 2595 7321 6083 4572 7512 672 5956 0 6758 1611 2955 3244 4629 4984 5883 4140 2289 7039 8505 5776 8080 6376 7133 7534 4016 4561 5355 8180 6591 2638 5631 3470 1285 7868 7113 6189 5866 1054 823 7137 1637 7530 745 8496 4643 5251 9526 5631 4457 8200 4486 4353 5303 1974 4881 6269 6729 5284 6464 1092 6170 3845 4010 4245 7339 6052 2169 899 4333 3696 2274 5341 5349 981 4098 3511 8135 3083 8792 6214 4210 5715 4159 4392 3988 6303 5603 5272 5462 5377 6996 2923 6851 6780 4946 4982 7482 7702 8789 1426 2014 4689 7010 4387 4110 4153 6208 3527 5292 5156 5955 7101 6936 7694 3406 5517 4454 5934 5638 8779 6728 3511 3019 8776 4695 6104 6686 7522 1545 5186 6970 3899 3889 3434 3447 2916 7880 6162 5424 5870 6519 6769 2373 8905 573 7614 2361 2856 9564 1363 6743 4921 8169 5474 8917 1995 3676 1925 6368 1813 4107 4559 7530 5036 6012 2781 7190 7254 6988 8773 6636 4352 7890 1704 3858 4928 7942 5461 4182 6705 5792 6814 2566 2132 2880 3944 6094 5360
5430 3725 7114 4249 3822 3934 4158 732 8599 4028 4966 4223 6295 6704 6191 5038 3582 6367 3209 5125 4738 3591 3002 1137 1706 2876 7017 6381 5824 4643 5938 1886 6052 3968 2982 6678 3066 877 6828 2633 5060 4954 4520 5854 5703 4833 3389 4959 2092 6166 2062 7898 2449 4667 1619 1358 4873 3016 4551 2963 4457 5420 2027 3701 7350 8097 2558 5080 2275 3983 6808 2720 3321 2243 786 2976 2170 5104 1285 1969 4008 1860 7550 6068 5009 7599 1965 2380 5632 5725 8026 5404 5392 4334 5940 6785 4885 5080 6147 4417 7035 4928 4633 5401 6120 6017 5868 5398 6947 3325 6107 3272 4349 4552 2963 5399 3068 5465 5911 6758 0 4469 2978 2703 4811 4482 4864 4824 4553 6336 5249 7098 3642 6721 6351 4610 2070 5079 6525 4272 7519 4877 4922 4511 8633 4501 4801 6334 1444 4328 5273 5116 6541 8670 6418 6589 2017 1618 5848 5284 6235 2406 5255 2299 5442 4737 5745 4021 3730 6361 2816 4608 2675 4568 6671 4252 6666 4208 2849 3114 4657 2914 6157 6880 1493 5016 5531 5327 5456 2558 9808 5044 6416 4743 4513 7484 4367 6526 1082 4463 3739 2150 5724 2902 6380 1275 9774 8914 7718 3596 7105 5524 7519 3710 3832 3265 6275 5602 4142 7418 6140 4714 7737 4589 6071 3657 6342 4657 9102 6111 4283 4994 4984 8059 4153 5897 4587 7701 5743 4729 4642 7308 4953 3228 5055 513 3146 4443 7153 5424 4790 5487 1679 5603 4672 7234 5979 7496 3668 5555 5899 4845 6611 6279 5109 1820 4052 7965 5209 6328 4191 2381 4774 6937 5107 8092 7234 5713 6095 7716 2265 5803 171 7934 664 4913 5478 6199 5476 7792 2926 1937 9039 5067 1135 1440 3415 3517 1365 5134
6091 2151 6016 6121 5286 3537 5784 6871 8123 6931 5519 5412 1679 5979 8257 2971 6185 3417 4779 5517 5799 4342 1372 4732 2263 2997 7401 3852 4553 6685 4727 1663 5611 9306 3300 7034 5020 3858 1219 1997 6100 5551 4098 7248 3687 5716 3327 5847 1716 1148 7685 5328 3656 5755 5314 3878 4768 9404 365 2324 9590 5845 5407 2239 4326 6946 8301 3977 5116 9624 6543 3004 6539 4704 9135 6223 6710 9083 6025 5361 8394 2800 8514 4449 4833 4761 4500 7632 5823 4077 5752 7277 5851 5822 6205 3874 6483 6270 5436 5165 4534 134 8130 8204 6493 5379 8238 5375 5626 2975 6150 4248 9638 6085 3020 4523 6431 4522 5179 1611 4469 0 3344 6038 4751 9714 5048 3684 3528 4305 8678 8595 6692 1917 3658 3709 2713 5570 7642 6097 8689 7626 5923 3643 3047 5874 3050 2445 4984 6617 2775 5285 9109 2621 5267 2724 7161 5957 2735 9570 5037 7193 6266 4141 7122 4180 3912 2902 2363 4005 3253 2164 7201 3021 5591 4561 5313 3457 6120 3026 3955 4178 6951 3746 5301 3031 8136 5657 6213 5321 2850 3263 7405 7967 5477 6950 5889 1827 4551 3265 5151 8774 2413 5004 7133 5456 6958 6960 2587 6058 7284 4621 3454 1915 3116 826 8275 482 6895 3335 3632 5018 5211 4639 4724 5198 8647 4134 3094 6386 6817 6807 683 3756 5543 2965 7665 1309 2242 4073 1557 4069 4044 7629 4547 3891 3601 7177 3284 3587 4634 3669 1690 2459 3366 4761 6805 7210 5865 2003 4911 2374 8257 3991 5790 3588 3961 2482 6638 5334 5385 5197 1985 6733 5532 2956 6144 7900 3428 7345 5890 7676 4425 5134 6452 4177 8839 6191 7726 6331 6882 7003 3671 2606 5196 4914 1549 7007 5069 6329
5085 6677 3722 1911 8589 2121 6548 5933 3632 6692 6102 4108 4104 6865 2968 3512 6229 8020 4559 3833 3442 7555 4741 3358 5534 5524 6274 8271 8260 5937 5644 2892 2558 2754 4861 1914 3675 5245 3409 7063 5445 1461 1649 4841 8297 7916 5716 4618 4397 4629 2155 4930 7723 6626 6269 7091 4499 4123 7501 3915 2870 2149 2797 7942 3127 7049 3569 5637 2052 5691 8778 6164 5814 4591 4936 6508 8250 7435 4483 5834 5138 6311 1857 8101 7996 8016 1416 4575 4387 5010 7130 3087 7563 5060 6219 3629 5462 6171 4785 7450 4703 8941 6846 2155 6727 3779 3613 6431 2840 7671 6075 6864 5927 6305 7039 5020 3928 7017 1691 2955 2978 3344 0 4560 7641 6696 4708 4333 3457 2309 4500 4657 7126 5246 2223 3525 4110 4640 3847 7246 2798 4901 1463 5722 2130 1999 7054 6187 5151 4782 3499 7336 6661 4931 8576 5260 9883 5517 6253 1092 5639 3955 6554 7656 5545 6551 2364 3875 3373 8102 2968 8176 5351 6919 4877 3462 6013 4977 5296 3936 4973 5158 7763 2965 6804 8224 7582 5507 2169 5321 6629 1170 9275 4869 8372 4005 1849 4080 2625 5468 3573 7674 4330 5077 4172 6427 5629 3523 5768 8557 3411 7316 7588 5662 6020 4806 5945 3027 5885 5131 4584 6192 6493 6604 3305 8567 3238 6790 4113 5543 4335 6483 3660 4703 6154 4952 3993 8499 7021 4232 2607 5362 6856 6491 4325 7854 5457 3105 5934 3135 7490 5906 4021 6913 6754 1782 6221 2770 5178 7505 5693 5191 4249 8837 6027 1827 2470 3736 6321 2146 6790 1849 4382 1468 3811 3885 3959 1693 4182 4185 5732 5970 4942 7333 2411 3756 1809 4429 3567 2432 5183 4519 7273 6830 6255 3252 4876 8644 5309 3517
2115 3405 3708 5603 2612 6879 3944 5306 2072 9404 3112 6142 6322 2592 5836 5909 2273 9146 4375 3984 2312 6195 5641 1154 8318 2487 5441 6911 1008 5826 3790 2766 5104 7377 4662 6178 8746 4279 2429 5577 5570 5653 2891 3887 6621 7326 4148 3840 2676 4563 5166 2418 7265 3356 777 8429 364 4493 3377 4576 4912 5556 2552 5721 5842 6216 8560 7276 1020 3681 4512 4071 3116 5055 5901 6255 5311 7219 7139 5539 5435 2448 8016 2006 1080 2668 2994 6111 4181 2541 1519 4003 7068 9393 8362 7398 4020 8861 5105 6191 1932 2277 4026 6075 5296 4327 5315 7501 2268 6666 6906 2274 8217 5901 5031 1343 2135 4470 1751 3244 2703 6038 4560 0 4192 5623 4848 6811 5606 6437 5208 5318 6625 8139 3096 2823 4156 4057 3963 6789 7365 1699 7283 4819 6815 8113 5854 6448 3204 3013 4733 3574 4766 8030 5371 4539 7476 5352 7313 5822 5236 5977 6453 3756 5981 6667 3596 7148 4606 7203 6691 4024 5155 6687 3125 4963 7382 7582 1509 4792 3836 4705 1742 7805 2965 7734 2730 1840 2414 3474 3980 5087 3551 2810 7871 3481 6228 5734 7293 7890 4076 4968 5383 3746 425 3252 7318 7101 5070 4534 4425 3801 4702 4981 4131 8865 3182 4797 5296 5024 7068 9222 7992 2512 4311 6559 5413 2387 6636 6512 7048 4557 3982 3526 4782 1920 3381 2855 6940 8360 2855 3151 3216 4124 2333 3391 154 5303 3562 7333 4507 6373 6623 4355 6430 7239 8076 6482 6268 2105 8269 5773 4186 7758 895 3450 5710 8119 4597 4153 3969 5514 6714 3329 6206 4380 4816 3110 4356 1990 2027 4977 1828 2126 2903 2771 2192 8083 270 3747 6496 4718 8100 2902 6953 2590 354 4869 2039 7679
9188 7536 5734 8251 2751 8173 6971 2759 7131 4008 5828 3988 1407 7281 4187 5881 8143 3345 2460 2453 4688 3161 4196 4072 4320 8764 5250 3070 3506 6801 1380 7907 7895 5095 6219 9176 5129 6037 6430 7332 547 2946 5787 3076 1010 5726 8203 8290 1027 5477 820 7332 5227 5636 2147 5430 3347 4384 5215 3578 4757 5500 3962 9426 1522 3635 4475 8107 2673 2541 3779 7655 1940 8180 2307 3163 6275 7461 7687 6746 5203 6282 3279 5500 5764 7298 4270 5127 3752 8449 2800 5511 4015 7247 5089 2921 2590 4412 3898 582 9579 4270 3429 6121 5182 1525 6001 5424 5016 2836 7336 1941 4134 5708 6783 4404 6775 8283 2962 4629 4811 4751 7641 4192 0 4419 1777 1309 5719 6381 4974 6183 3793 8142 5732 5945 4841 6255 2816 4660 4548 3378 4473 5184 6634 7610 2959 5092 3926 4735 5716 4457 5440 6862 2195 3721 3822 9804 5505 2114 8092 4989 6123 4007 6105 5223 4571 5034 7897 8500 5886 7577 6082 7286 5344 5232 3807 3363 4964 3115 891 8800 5067 5604 4662 979 3093 5237 6321 1299 9019 4895 2036 7948 2198 6112 8710 4458 741 2919 4802 6851 5977 2917 7633 3961 3381 7672 4803 4326 6542 3731 2077 7797 4300 3768 7267 3064 3390 5771 6518 4651 8268 3774 6602 4861 4425 4724 4525 4352 5908 8176 5048 7145 8418 3907 6231 5387 7090 4624 8202 1859 7729 1516 5563 5109 1777 4591 7446 5530 2063 1103 5801 5657 2277 6450 5999 7276 3303 7399 2124 5541 4570 7625 2526 4184 5826 6536 1004 4467 5117 6419 4660 4590 3404 1940 6724 5373 4461 7566 5696 7869 5104 8134 6270 3648 5662 5298 2042 7879 5272 4295 4669 5948 6425 1410 5092 6463 4217 8986
2683 4131 6181 4484 5724 9759 7960 6877 2840 7077 334 6323 4992 3665 7182 4578 6667 8623 3332 4526 3389 1628 5178 5515 4715 5020 6770 5449 6017 6910 5573 3865 2255 6527 1134 5442 2121 3530 2811 2932 2902 6287 7276 3086 4455 3226 3225 6379 3350 5047 4261 2707 5717 3871 3500 5683 6498 5497 1198 2300 8699 2066 2652 4056 4201 2949 4122 5165 9414 5902 4905 3776 573 4212 4640 5324 1882 5164 5923 4066 1799 3449 3495 9008 1813 3958 7400 2628 3346 2088 2497 5266 5556 6318 3900 4664 5352 8876 4172 7325 1130 4560 2996 994 5403 3694 7137 5564 8493 4030 4144 6599 9028 1779 4931 4490 4855 7153 2846 4984 4482 9714 6696 5623 4419 0 7488 6634 7414 3740 8756 5099 6433 2244 8120 1373 4195 5575 3233 8643 7467 3080 3140 6762 5598 4449 3619 2988 9379 7527 8903 7874 6896 5241 3009 3769 5647 4172 3136 6057 2327 5149 6270 6276 4852 7091 7483 4899 4289 2714 5095 7045 4324 1937 4067 630 4061 4018 7237 6441 4460 7186 6405 2354 5091 6481 2775 1621 5062 6180 8032 9298 5789 579 4583 4449 1826 5445 5222 3931 7537 5119 5563 5063 4118 7362 3549 5611 1226 6363 6154 5708 4622 5621 7970 5736 7307 1364 8724 2024 8276 2674 4162 8367 731 2896 6896 2299 1865 3779 2839 4203 5152 4013 6665 1994 2759 2041 3111 3750 4773 4018 7446 6499 5350 7693 5130 1017 2373 6243 6625 7085 1193 2736 1485 5270 7849 2003 3316 2186 4346 7473 5879 9593 4215 5136 4183 4185 6597 5167 4135 2662 3415 7933 5013 3931 9638 6172 2263 4948 2756 8053 7020 6214 2838 7898 5899 9574 8020 6444 2024 2716 3827 9129 5726 6016 4248 4916 5759 7240
6430 4530 5489 2205 4661 4087 6694 6927 4865 2218 5140 6375 3782 4389 3277 6995 2143 1609 858 5854 5542 7764 4261 2852 6440 2076 3420 2835 8530 6736 5617 6560 4976 1372 8675 7006 775 4979 7523 3749 2498 4072 4212 7386 6845 5889 2456 2099 7841 6199 2705 2200 3894 6559 4217 5700 6068 4017 792 6122 5042 4632 9134 6453 2172 2013 3661 8665 3909 3977 4255 3280 6304 3371 6586 5857 5108 4131 3309 8201 4064 6688 4228 1470 3233 3470 8930 6844 5094 7807 4166 3535 6663 5194 4683 5299 1877 7648 2393 3621 1695 1491 6216 6760 2574 8947 3194 7201 5237 3867 6967 7048 5732 2925 392 2506 5940 4811 1371 5883 4864 5048 4708 4848 1777 7488 0 7930 1600 5723 1586 5507 2413 7880 3414 8389 6456 5351 4832 8209 1940 5497 4449 8390 7613 7690 6251 4797 5712 2191 5700 7423 7431 7712 4272 3659 3137 2051 2989 5737 2513 1291 1044 6328 9043 4757 6696 8641 4992 5198 5517 3667 5644 4574 8068 4343 5128 5755 4441 5169 7868 4125 3936 6988 8637 8274 6148 6507 7618 6544 2547 7048 4832 3881 7076 4427 6337 2267 3981 3363 7260 2197 5103 7996 6315 5271 6076 8173 6139 8319 5214 5435 7050 4774 5622 3645 3428 5716 4758 3863 6043 2404 3988 5307 4491 5181 4849 7063 4113 3124 8265 4630 4470 3676 5410 5995 2241 6149 6812 3961 2615 5404 4077 4938 4467 5915 7194 5392 2782 5722 5477 6261 6508 5863 5680 5139 7183 8835 1733 5089 6904 4377 6789 6780 5423 5922 4098 7725 3942 4808 7377 2513 4525 6594 5365 4462 7688 5072 6196 2518 3465 3855 5105 2883 4505 1831 6919 7697 5063 4971 5764 7363 3070 5658 7356 5967 5822 4056 5408 7382
2906 7580 5216 7386 3514 2684 5081 6758 7008 7480 2483 2723 1714 1965 4795 5015 4428 9239 4252 6432 4674 2349 7805 5715 3892 8536 6284 4910 4487 902 8116 4804 4966 7883 8312 6718 8057 4745 4584 4295 5924 3357 3276 5333 7869 4241 2387 8112 2157 5294 8676 5232 5006 8060 2298 3875 6744 6897 5044 8627 4681 6599 6358 5908 5707 5189 4745 5491 5488 6128 5893 7358 4686 8331 3710 5949 6091 5636 3958 3407 6114 9585 6349 2589 2253 4667 731 5881 2523 6940 5511 2884 4378 6852 4119 7642 8336 5612 7455 2565 7910 4200 5301 7515 3488 4964 5908 5477 6745 5798 8159 6523 5716 5451 2355 3408 8003 1892 2867 4140 4824 3684 4333 6811 1309 6634 7930 0 3135 4231 4090 7461 6792 8472 6512 4703 4838 4512 5936 3805 6676 6565 5015 6901 3729 1202 7712 4997 3995 7199 3418 2813 8559 3559 8761 3725 3070 5795 4257 4573 8283 4822 1824 3913 6225 5193 5926 4214 3477 4007 8833 3478 8059 8499 5606 8717 7919 4901 2491 2724 5058 6513 1877 9341 4494 4131 6726 5257 440 3609 3832 6784 346 4538 4488 6640 7075 5163 6346 1805 6821 7468 2729 3063 4905 1931 4570 5812 4886 5193 6977 4210 7286 4056 5927 2913 5065 4971 3373 4528 4930 1794 5100 5617 9021 3650 4508 8103 8019 7990 2058 4592 5055 6729 8006 7054 2164 5734 5461 1717 6471 4716 5441 2658 6578 5634 617 8184 4372 4641 5955 6232 1407 6320 4087 7379 5694 5548 3106 5993 2809 8452 4567 3994 6011 7649 7196 4930 4727 848 8567 6901 5068 4944 4943 3021 5575 4765 6957 2983 5111 6901 5258 3399 4725 7501 5670 4145 2158 5617 5255 4813 2569 2470 4043 4953 5562 2643 3229 7115
6493 2937 1708 2222 7152 4838 2533 2667 1219 4423 6218 2771 6543 7369 7350 7338 8813 2445 6792 1829 7330 2828 3485 4636 6248 2978 7099 2667 5910 6533 1051 4343 4229 5191 1062 4280 7338 5169 8420 5204 3070 3796 357 7143 2861 8504 6621 5530 7087 2603 7017 7831 1829 4366 3229 5298 5615 1574 5397 2256 4322 7178 2724 4336 3629 3291 5773 7703 8707 5686 6871 4803 5090 7222 5151 4992 3962 5700 1545 4315 841 7886 4988 4644 3453 3804 8947 6659 3511 4969 7292 6253 1914 5371 2191 8487 3104 5386 6199 4029 5418 5424 2917 7688 5191 3282 6842 6477 5415 7177 7175 512 6674 4774 5115 3856 4008 8499 9255 2289 4553 3528 3457 5606 5719 7414 1600 3135 0 2135 6881 2686 494 5684 8996 4408 8644 3664 6405 4457 4440 3779 5260 6130 4058 1146 8421 5291 7608 1047 4980 543 6021 8197 3427 6491 4811 3210 6174 1038 3842 5878 5973 1249 5670 6356 2367 7395 7212 4887 5907 3989 4081 5737 4295 6688 7774 8040 6054 1982 6623 8562 3830 7419 8739 4304 3176 3812 5474 5101 4887 2610 2839 3861 7221 4276 5126 2522 3048 4737 4533 4015 6377 4052 6377 6989 2292 3847 1662 6392 3231 3050 6721 6824 5668 5298 5945 6647 6230 5124 1044 6555 3602 4097 3337 8296 6588 8260 1569 3756 6894 5149 7158 4721 3296 8050 8613 6746 3670 4755 2194 6619 5943 3149 7754 7980 6267 6900 5342 2617 6363 2682 5925 2835 6169 8346 3349 2894 2509 4169 5595 5129 6650 3047 2435 3367 6260 5298 2399 3436 6506 4966 5631 5091 2573 6275 4013 7914 3999 7719 6557 311 1871 4209 9902 8599 3390 2519 6441 9077 5112 5147 1513 6905 1995 5250 2481 5274 6658 4129
4967 1984 1737 6220 2701 2835 5437 2302 8481 1187 1587 5904 2132 3521 3940 3882 5321 2296 4811 3027 4501 3862 3778 3908 4397 6200 6559 675 4665 6428 8999 3387 5020 4811 2171 3909 4267 5258 8207 766 4858 3411 3869 5439 6761 2987 7156 2291 3471 3854 3441 2121 4105 5655 4164 9256 4867 4437 6810 6408 1791 4069 8864 7620 6822 9764 7388 6236 5318 7582 3211 3549 4888 5897 3939 6645 4928 6676 6931 7094 2634 6387 6963 3264 7139 5923 6956 5595 3763 6662 3561 5205 7515 6536 4134 7430 6123 5398 523 6405 7206 3890 6384 7914 5616 6740 6573 4592 6872 1858 4174 6120 6075 1816 4987 7288 4789 5571 3194 7039 6336 4305 2309 6437 6381 3740 5723 4231 2135 0 3521 2393 5498 6525 5871 4095 7937 3377 3146 6146 3410 4528 9192 4637 3472 5419 8826 6316 8368 2485 7269 6993 5251 2554 4915 5229 6375 3909 5434 4145 3925 2047 4867 7539 7187 6602 3168 6656 8498 6254 7749 4812 5751 9418 6603 5250 8282 3030 8040 5347 5457 3754 6178 6324 2657 5204 4968 7197 6120 7349 4696 5608 5310 7614 5067 5459 6647 5367 5758 5150 1547 2777 5643 2976 4179 4350 4988 7322 8220 2329 5676 5395 5384 7522 5797 7462 5201 4556 5882 6516 1510 7229 1438 7212 3859 4877 2004 3569 6798 4963 5001 6923 7217 6323 4278 4132 3908 1612 5890 3252 2145 1991 3384 2933 4930 2858 5476 4840 3419 5589 3305 4227 3002 3048 1962 2302 2613 4078 6878 3746 1467 873 3504 2463 1634 3707 4493 5834 2910 5210 5025 5482 2724 7145 5779 3795 1018 2563 3590 3765 6467 2859 6447 2749 5127 7340 5440 6566 2700 1148 1172 1017 7168 2614 5631 3643 5154 8839 6780 5629
9149 3979 5076 2883 6520 6260 3684 5062 8627 6196 8698 7577 9045 8728 7257 6118 4978 2716 4251 7578 2212 2223 4666 4238 4914 7750 7264 4214 8462 5738 4287 5496 5416 9096 3553 4487 6638 6503 7344 4419 650 5103 7078 4831 5633 4737 5951 9204 7475 6374 8189 5437 1577 3951 3988 2222 7270 3632 6735 4729 9030 3499 2720 7035 8491 5862 3760 3405 4702 8149 6809 4070 4796 2929 3707 4693 5915 4387 4886 4283 5731 7219 3801 5835 5468 3133 3810 2141 4317 6980 5935 5135 4789 6523 6629 6163 1616 5370 903 6667 3203 3139 7410 7075 3861 7049 5608 5704 6094 4207 2205 6703 7012 4350 3616 1554 6095 5557 973 8505 5249 8678 4500 5208 4974 8756 1586 4090 6881 3521 0 6955 6180 6065 3269 7161 3881 4938 7575 5238 5346 5423 6255 5368 8092 4869 5249 6214 9193 6720 879 6099 5821 3724 2148 7015 2602 8787 3739 2219 4197 6532 3728 5402 4375 397 2190 8817 6195 5855 4132 4500 3468 6572 7927 2794 1652 5173 1225 4444 6282 5460 4677 1210 2135 5228 5947 8809 7460 4865 7237 671 1435 4658 7875 1391 4179 1641 3775 7468 7936 3025 4724 7505 3424 2966 7731 7653 5593 6413 6550 5934 5600 1317 5224 5449 5130 3646 3084 5139 2690 5931 5094 5366 4755 6035 3070 4937 5892 7904 709 6741 6585 3570 3828 9231 8049 1892 3941 6073 3212 4714 2572 5331 5721 2739 4581 298 2353 6747 5345 4598 7145 3528 7289 6636 5806 3274 4267 4194 5105 7331 3107 4344 7745 6946 4751 6639 605 4172 3938 6250 3181 5764 2917 9344 6621 5071 4313 1054 6205 3741 4301 5498 6762 3207 5168 4051 4493 2189 2853 2589 2813 3536 5746 4598 2143 5465 8560 5785
7165 2869 1914 5772 2970 3433 7280 2406 4545 8588 6985 8388 4661 6473 1586 3636 2745 6071 7959 3341 6412 4239 3271 5393 2292 4236 797 2429 2129 5507 6822 4163 3821 3545 6053 4860 1690 3767 7018 7125 4106 3213 3598 9123 7202 5799 7293 9110 1052 4502 8874 4397 8068 2909 8965 4381 5541 1643 6528 4270 5417 3974 5662 6508 6117 7092 6042 4271 1171 6620 2928 6918 5137 3625 3920 6537 6576 7573 6905 5271 7631 6803 6443 5170 6570 8503 8833 8680 3376 4415 2223 4548 8923 6765 5484 3329 7806 4498 7324 8292 5824 5761 1360 9472 6748 2144 3892 5845 4795 3882 2978 5077 1735 5665 7471 3416 5414 1949 4244 5776 7098 8595 4657 5318 6183 5099 5507 7461 2686 2393 6955 0 2367 9178 1536 6409 9081 3425 8843 7584 2784 5609 7574 5194 8150 4382 3888 4425 5423 7765 1858 6870 3252 8540 8343 2760 6373 5119 5208 3454 5600 2374 2209 4535 4037 1205 2274 9205 6409 1385 3132 5189 6860 7184 9485 4223 8543 1044 5253 8191 2740 6803 7215 6640 5546 5837 5897 7107 5411 6180 3900 5489 7934 4492 6993 4822 4787 5801 4755 2037 4177 6450 6185 2756 3140 4387 2913 1506 3415 1603 4020 5420 7719 8448 3026 5182 4177 518 4834 4793 2749 3666 5060 3407 6335 6459 1322 3035 4895 6056 7420 6705 5111 4392 7489 3905 4134 3027 3720 3687 1038 6421 5741 3531 322 5762 6147 4409 3026 7991 3508 4514 1914 3330 5044 9214 592 3917 3996 6210 2139 8633 6924 4248 4706 5573 4769 6889 5468 2245 4582 7405 6290 4810 4624 6123 4325 1485 6905 5640 1783 3719 2955 7554 5899 1467 5127 3920 3729 3875 6959 5969 2970 2602 7003 7873 4083 6369 9240 2395
5965 7633 4452 7371 5419 5187 8072 2816 4316 3293 917 4760 6160 4872 2925 5495 4273 2567 3722 6762 4940 2641 3756 5534 5353 1444 7776 7675 604 6871 5493 7223 1508 5823 3048 225 6670 9383 4130 6664 2758 7357 8508 1330 3651 2460 6248 2417 5892 5782 4529 8216 4344 6482 5376 3106 1710 3867 4480 4677 3666 3108 5715 2120 5452 3710 4584 4312 6196 4496 3214 7970 5613 6244 2296 6576 5964 2446 7630 4310 3809 3730 6058 5767 7803 8127 1952 4995 4703 4063 8312 3855 7708 7085 5185 7267 3305 3642 2266 1196 6087 3844 3264 6554 4844 5866 3180 5285 7136 9066 6347 3153 4517 7528 2170 3631 3526 4798 3890 8080 3642 6692 7126 6625 3793 6433 2413 6792 494 5498 6180 2367 0 5014 8864 3117 2699 4014 5980 5107 5628 6409 3761 7432 1177 7178 4314 8436 6600 6617 7458 9114 3668 4974 6842 5925 5640 2374 4323 5276 8574 7494 6097 4941 474 5005 4999 5735 6630 3995 8978 9147 6147 3086 2846 3880 4271 3338 5320 5327 5350 2989 4885 7904 2647 3792 4814 6901 4372 4628 7300 4252 2741 1830 7599 5300 5117 3389 6656 6696 8486 9208 5406 2959 5066 3917 2788 7842 7759 5295 4893 4981 6031 3615 7267 758 851 5418 2571 2293 5025 5271 1974 4615 5029 5014 1765 4881 4029 5314 8383 5946 6094 3626 3363 4741 5110 9343 3714 5705 3321 3373 4089 5890 8957 6963 3897 5373 1716 3188 6748 3948 5091 5245 5511 6963 9354 6766 3924 7560 6293 6175 4563 3622 5755 5118 6066 3389 8235 6379 6726 5474 6211 5467 1688 7963 877 4385 8562 689 5430 3366 5339 4234 4391 2447 8190 3620 877 5066 3535 5901 4071 3644 8727 2293 7739 7270 5432 2745
2678 8830 6800 4087 3799 5665 3208 1697 5615 4998 3107 6534 5994 8424 5192 5438 4643 4637 4789 5434 2669 4141 2517 4323 4477 1408 3245 1895 8242 5299 5171 4538 3366 7065 4345 2831 4741 5019 6773 4849 2825 1289 1781 2749 1838 2623 7599 6040 5213 6738 5446 2465 7562 7275 7299 7106 6431 7875 1509 5849 3408 6553 5460 630 2867 6053 7226 3655 6505 4191 5336 1231 6885 602 4405 8243 6251 2661 4768 791 5733 4539 4800 5015 4894 1026 4976 4404 6524 3632 3626 6343 7116 5517 5372 6811 4042 5516 6846 4418 7887 9010 1773 6352 6774 3689 2842 2869 3072 6221 3867 4687 6826 1967 4852 8253 1698 6416 8488 6376 6721 1917 5246 8139 8142 2244 7880 8472 5684 6525 6065 9178 5014 0 3317 6939 6850 1906 1322 4211 8255 6671 5600 4058 5500 5321 4953 2473 4336 6196 3595 4776 7110 3404 3659 6879 6029 8348 5371 5072 2803 3914 8431 8579 7498 7293 5353 6595 2393 4850 5595 3916 7738 2945 1836 3803 7210 5024 3817 4008 4256 7084 5079 8287 4408 5694 4493 6009 6904 3740 6991 3328 3319 3025 3758 5345 4309 4384 7038 7634 7985 6417 8064 7846 2825 3048 3540 7258 210 4036 4590 8172 1825 2564 6372 8865 5129 5656 4264 2626 3447 3547 4598 4757 6021 7517 6301 8497 6030 5796 5769 5856 5099 6356 6507 6324 8606 5723 6628 4367 2653 3068 3358 6043 1894 6180 2109 1321 3100 7361 4480 5274 7348 7034 4137 840 6207 1768 4629 5464 4975 6050 5644 3753 4171 2372 4322 1384 6159 7045 2237 855 5144 3980 4428 436 5292 3686 3915 1081 4427 7846 3430 4724 1280 5861 3568 6127 7259 6762 5564 2473 4159 2734 322 3438 8949 5274 4057 3319
8473 2514 2533 6003 4659 3099 4354 6679 4633 4520 1490 1699 6611 3954 4470 4603 2474 3098 7408 4174 5983 891 8413 5660 6958 6152 6609 3399 4207 2904 699 6238 7265 4757 5273 3242 3634 4014 5451 3708 3716 4412 3945 5324 4604 3392 3662 2461 2541 7527 4570 8211 6516 3597 5393 5555 4270 7484 1930 6923 5668 3262 7963 2639 4274 504 5022 6497 3558 6035 4237 1414 9018 2303 7344 8427 2274 6906 4555 3741 6792 1286 9177 6148 3986 6330 1060 7969 3196 7778 3841 4187 3580 6575 6902 7812 4865 4602 3787 3089 3644 1741 3219 7510 5752 6142 5924 4133 4819 1986 4982 3410 6133 6267 3377 7039 5171 1469 2739 7133 6351 3658 2223 3096 5732 8120 3414 6512 8996 5871 3269 1536 8864 3317 0 4351 5300 6010 5560 4048 3081 5395 5273 4153 5424 7537 1986 5281 4952 3222 3337 3341 6120 2710 1871 4460 6840 3132 5194 2438 5895 7307 3766 6149 6455 4287 8960 4613 6719 3949 7186 8176 6412 7234 4829 4640 3626 4426 9497 4191 2170 4407 5135 3851 7233 7273 1508 4381 1895 1790 4540 5451 6858 4916 5228 6128 4309 5573 5957 4589 7381 2688 7449 5697 4113 6106 4442 5281 9245 5483 7088 2941 4429 5102 6535 5241 5139 4774 1775 5679 6762 5099 3837 4595 4416 7921 3187 721 7617 6233 3775 3337 5681 4479 471 3337 3636 522 4078 2937 1382 7051 4138 4246 4717 909 7194 2769 3995 7006 1950 4321 8151 9471 4100 2014 8661 2134 5077 2038 3162 4647 6075 5056 3584 7608 6206 3959 4456 8137 4077 4609 8090 8561 9040 1428 4847 6057 1140 5361 3197 4537 4299 5613 6344 5368 8367 4836 5076 5111 1079 8388 2656 7653 4910 7544 7338 7391 3905 6411
9201 4838 1483 5742 1354 7920 9065 3177 7337 5046 7502 2878 4848 6739 5059 3617 2499 4809 6985 6331 6778 6748 6238 6604 3194 7462 7355 4397 7291 3056 8528 7105 8359 3112 3976 4970 6555 4481 4179 5899 4096 6333 6862 1366 4262 8081 7108 1670 4824 5058 4926 4236 9219 4360 3480 5757 8198 7718 4917 1875 1734 5433 4636 3418 5248 2520 918 4827 2238 5225 4672 2838 7877 5782 6244 3442 6808 5198 5904 5928 3025 7401 6075 7430 8349 4426 3822 2910 8254 7255 1945 1493 6663 6660 8653 2424 1473 7557 5886 4410 5370 3857 7131 6069 1424 4443 4714 2314 4999 6089 3046 5378 2238 7316 4426 2495 3035 3328 4813 7534 4610 3709 3525 2823 5945 1373 8389 4703 4408 4095 7161 6409 3117 6939 4351 0 6681 1537 5571 6405 7637 4186 3404 5302 641 6071 4425 2491 5681 3035 4985 4792 5483 7109 4827 5316 6561 1053 3842 5700 2073 5436 3882 8227 1782 7342 1332 6805 5674 7777 3115 6637 2858 6031 5506 6434 9007 3746 4928 6295 6665 3443 1701 3884 2626 5770 2972 2433 6474 5551 4506 971 7869 7112 7107 7473 4906 2258 9122 4179 2416 4855 3546 6134 3994 7118 9490 5763 4504 4990 2357 5931 7797 4785 6656 6729 3431 6291 4567 5132 6652 3524 7357 5860 3449 8833 9769 7687 6983 4865 5999 3534 7489 3827 6861 5846 6158 6640 4664 4249 4748 6107 7376 3942 5935 1220 6622 6232 3669 6100 3139 3695 2560 9220 8161 2634 5289 7307 3104 5191 7157 3760 7503 4499 2057 4336 3696 6816 5575 6463 3235 4991 3222 7487 5064 5013 5634 2491 5817 7821 6648 6875 4712 3002 5689 3950 4059 6574 8624 4819 4982 5103 8083 2493 7812 4227 6629 5202 1946 5162
2830 6669 4746 6292 4779 3357 3409 7879 4138 7426 7261 7627 3846 4471 1172 4011 9265 4144 7130 7083 5936 4305 6369 5059 8480 7532 4072 6942 5706 3288 5091 2675 6515 8246 6872 5359 740 1327 5796 6925 6864 6078 5540 4072 5759 3971 4272 3998 2141 3012 5573 5820 4565 4255 2852 5849 7720 6586 7251 7204 8627 5806 6134 4963 4730 502 3267 5793 4364 8162 4480 7153 3729 3063 8319 6175 5580 5999 7693 2809 5627 4976 4273 7129 462 2505 3156 3043 3392 6399 5989 5633 5777 3403 4414 3645 2852 2664 7086 2848 4326 3419 4473 3942 4970 5168 7155 4110 4440 4993 8989 7064 4857 5325 8070 3340 2001 2574 4295 4016 2070 2713 4110 4156 4841 4195 6456 4838 8644 7937 3881 9081 2699 6850 5300 6681 0 7144 5217 4748 3411 553 4681 6972 3953 2622 167 3397 5744 3717 4639 4273 6446 5307 4593 5842 4996 6721 2900 2408 4762 7356 6827 4011 5854 2571 5380 2865 5507 4122 7177 4024 4231 5772 9167 5918 5481 4927 6603 6022 6794 5164 139 5488 4227 5250 9388 897 4669 4786 5895 6744 6610 3552 5895 4421 6749 1870 3575 1424 6384 8025 7545 3293 6734 7312 8853 3388 5436 686 1409 7954 5816 4736 5217 5985 3049 6976 4152 7796 5648 711 7845 3810 3710 9149 9481 7288 3309 1337 3889 3226 5626 3366 6450 4510 2056 4804 5534 2756 1936 4436 2379 1125 5296 5579 4802 8809 7260 5238 7115 7799 6223 6946 5924 6270 4957 5029 6418 3849 4412 4958 4837 2644 1510 8058 9124 4765 5336 6085 9088 7909 7261 3522 6585 7488 5168 8717 5431 5584 3439 2816 2774 2391 4613 6440 4247 7295 2154 3723 8762 7542 2174 4241 3996 6390 7603 3021 5760 7152
6448 8430 9109 3084 5442 4044 7880 4965 2491 3248 8667 4167 3173 4475 8399 602 1706 5730 3993 4691 4079 3940 6756 6489 4594 3775 1978 4067 1285 5492 5156 6745 4426 1523 2621 9181 3081 6296 3345 1707 6348 4559 3501 6952 7254 5820 4724 3843 8906 4850 1184 8851 5046 7319 4825 2269 1930 4837 4997 5455 5169 3806 4294 5592 6240 4389 3887 8966 2269 3106 4101 4005 4627 4320 3023 6120 4676 4689 5316 9315 1596 4793 3675 3592 4912 6598 2307 5679 7026 2120 4926 3160 5980 4484 1830 8941 2655 5313 2967 4734 2912 7234 4935 3244 1307 4040 5497 5591 7240 4472 6732 5669 6653 7453 5058 3840 4103 6669 5829 4561 5079 5570 4640 4057 6255 5575 5351 4512 3664 3377 4938 3425 4014 1906 6010 1537 7144 0 5395 6667 4116 6379 9272 4093 7372 6363 3114 3166 4516 5945 4248 1497 3330 8055 2262 6679 3566 5462 6193 7193 4107 7026 9344 6946 8934 4888 6634 5976 3978 4628 5019 8986 7919 5555 5377 8401 3007 9603 9534 3519 9653 2167 6301 8270 5418 7905 7683 3942 7723 3137 3290 5615 3146 4294 1671 1352 4935 5272 7236 5758 3328 4005 7298 1119 4173 8252 4659 6571 4141 2402 5611 2070 818 2887 4138 3166 5405 3225 5241 5092 6480 5176 7488 8260 5754 2826 5608 2500 4015 4479 4265 8514 6678 3533 6343 4245 8070 5523 4057 3674 3513 5462 490 2743 6239 6352 3099 5887 6862 6030 783 8936 1928 904 5122 5219 4644 5531 1076 2317 1801 5301 6641 2303 4506 2945 9077 4219 7534 5934 8783 4864 4786 7428 4280 4656 5753 5506 7260 3111 8960 4622 9534 6860 1069 5323 8755 6029 2338 5655 8071 7623 8537 5285 6488 4084 9589 5959 2658 1066
7628 4881 9702 3626 7591 3920 2306 5542 7569 6254 7197 7964 1930 2337 5824 7697 7555 6910 6857 5776 6725 4031 7259 3278 5856 6981 8157 8792 2857 3313 6489 1890 4334 2732 6862 4024 5991 6138 4317 5647 3548 3961 8505 6706 6812 4812 6586 5092 7694 3853 3607 3681 4374 975 5351 2864 2594 8051 6334 4984 1861 6169 4168 6022 8405 7631 6800 6558 2505 4589 2529 7203 4487 3772 2751 1974 4827 2715 1943 1590 5599 5874 1660 8924 8989 4903 3208 4905 5259 5430 7355 3692 940 6843 6947 1877 3212 1285 6646 4425 3697 2071 5818 8351 6736 2521 4372 3543 2826 7587 7923 6195 6464 1755 7083 6778 7045 1262 5899 5355 6525 7642 3847 3963 2816 3233 4832 5936 6405 3146 7575 8843 5980 1322 5560 5571 5217 5395 0 5651 5060 4991 9059 4093 6992 7986 2418 4452 8236 6574 1495 4195 6256 4933 6154 6556 3559 8339 6579 4639 5004 2054 6666 5956 6942 9438 2841 2901 6704 2527 7888 5210 1609 6690 6607 3228 6148 3357 4982 4545 4961 7454 3805 7425 8020 6069 6305 1793 6603 5440 5151 3110 6595 7500 3928 5927 3039 2434 3333 5027 8097 5627 4078 4791 5803 7766 3425 6509 5674 4508 2689 4489 5119 3350 2869 7644 4558 3674 7259 7909 7282 7917 6945 5047 5382 6290 5975 5171 3787 3722 2460 5937 6215 6036 6557 9036 6619 2778 4375 7604 4231 4008 3338 2617 2088 6281 5049 8701 5406 4609 2782 7445 4436 719 4875 3778 2269 5727 7639 6307 5478 6868 7233 4420 3015 2636 4680 1070 3031 6714 6169 1493 7226 2152 3987 7661 6233 2155 2411 5312 6660 3778 6391 7287 9304 6135 4049 5539 3507 8557 2190 9110 3808 1952 8258 4465 6196 5118 8130 5619
1074 4647 3119 1874 5511 8712 6782 8667 3808 6764 6631 6425 7599 9457 5966 3951 997 6291 9674 4288 3632 5511 9327 7176 5517 7705 9071 8831 8608 749 3756 6068 6064 4269 2712 4478 3085 8433 7260 2779 5270 5035 4598 4415 5814 5479 7190 1939 4667 4812 3843 4627 6658 669 2958 2679 5241 8571 5179 5242 8427 4903 7401 5105 4975 2026 7190 1986 6615 3583 542 7731 5059 9698 4681 2409 3180 2672 1296 3732 2743 3890 5537 3130 4601 5029 4580 8024 7074 2931 5670 9116 8577 6603 5315 6717 1648 1869 1731 3977 4889 6542 8205 4313 3413 2711 5538 8406 2995 5243 4584 7273 3256 3829 5913 4787 3730 4552 7845 8180 4272 6097 7246 6789 4660 8643 8209 3805 4457 6146 5238 7584 5107 4211 4048 6405 4748 6667 5651 0 2507 9527 6213 6291 5017 7275 4432 3006 1944 8824 7443 6726 6872 3686 4180 4143 4743 7456 7268 4247 2100 6873 6806 5912 4428 5632 3693 6129 6942 7756 7080 3624 5203 4617 5562 8214 2540 4417 5312 7972 5065 6437 2097 7382 6140 4982 5324 8349 3853 5988 1361 7893 7389 4755 8629 5908 6726 5663 5510 5139 3551 5982 5626 2013 3386 2076 5210 3410 1954 771 8105 5091 1417 1455 4351 7907 6664 4114 1297 4778 1992 4735 6245 8852 4023 4816 5351 3822 3409 3974 5648 7498 5554 7116 2923 6129 2724 5569 6996 6972 7572 1520 5279 3054 6075 3563 2615 1039 1105 4509 3929 6276 2771 6983 5702 4466 2271 6020 2412 3170 2362 5328 6355 3128 5760 5344 3622 5832 3972 8926 878 4141 2326 5245 8358 6058 5472 5366 5292 805 2553 6317 645 5351 5842 4167 2482 8620 5364 6285 1904 6169 3911 3564 6218 3908 7943 1604 4179 499
5878 9429 4638 6004 4154 5162 4292 4676 4904 5796 5814 5490 5492 5098 3686 1480 6668 5348 3482 3836 1714 8545 3803 4295 6519 2327 320 4064 5756 3730 5912 6375 6024 4065 1554 8258 8164 6838 1932 4556 6368 6625 471 6301 1297 2311 4015 4119 7521 4137 8686 5949 5791 5017 2842 6460 5939 5418 3485 5116 1654 2626 3479 5835 1371 3395 5121 797 8100 4678 6057 1906 6694 4873 4065 5424 5543 1535 6033 9054 6026 7016 5049 2837 5762 4192 5247 6933 7326 1090 6955 3510 2637 4289 4356 3627 2115 5195 3088 941 5991 8514 761 4143 3897 8705 1747 1110 4993 4750 5303 4687 3978 5401 7820 2458 3244 3998 3635 6591 7519 8689 2798 7365 4548 7467 1940 6676 4440 3410 5346 2784 5628 8255 3081 7637 3411 4116 5060 2507 0 2770 9440 4088 3666 6174 2631 7778 7687 7035 4895 3603 7373 7615 6743 5921 3075 3965 4843 3022 2567 7888 4327 4003 4365 4746 3225 2115 5330 8216 6697 7024 3126 4001 5094 5465 4288 8194 5170 2741 6021 504 8845 3632 5680 9301 6488 2421 5024 3636 3139 6900 8013 2897 9795 5767 3090 4410 5825 5308 8946 3761 2178 3077 7139 8019 8652 3912 6071 7377 3658 5142 2574 8307 3731 6866 3212 4509 7809 5826 3401 5194 3510 4042 5970 5480 4297 4765 8927 4145 5462 2812 1700 5030 7124 1767 3139 1105 2998 7133 4311 6062 4205 584 2314 3178 6203 2289 4742 6685 5086 7599 3355 6065 1045 2877 4867 7843 5944 3803 2652 3615 2246 1972 5012 4401 1381 5567 4866 3009 4907 4672 582 5381 2948 897 1812 8052 4399 7300 4799 4978 2694 7343 5662 7451 882 6007 6610 7585 3761 5852 6281 4431 6039 4384 2976 6948 780 2989
6676 5194 4640 4725 9690 3682 4777 6665 7020 7395 7866 6372 4470 3203 7359 4354 6254 5070 1958 4106 8675 4512 4712 2451 6289 2264 2143 4278 6813 3598 7295 6516 8207 6293 2252 2110 6247 5639 4094 6194 4763 3447 5987 1101 6930 5039 5760 2149 6256 6324 6083 4416 7603 1309 4952 4154 3296 8630 446 5939 5664 5771 6351 9417 6598 6310 4726 3130 5863 3826 6047 4685 5328 5067 4777 5250 3703 3083 6863 4325 2446 4844 2131 4496 2727 6104 7759 3487 5315 2767 4202 3822 6277 4768 1683 6893 6233 4579 8309 5220 4585 5118 2182 3635 8787 2279 5805 6099 3898 8154 5774 7252 2562 1821 5480 8814 5283 2274 3749 2638 4877 7626 4901 1699 3378 3080 5497 6565 3779 4528 5423 5609 6409 6671 5395 4186 553 6379 4991 9527 2770 0 3570 7145 7484 3249 2128 5725 6892 4496 5597 5450 8721 3066 6697 5743 7036 5631 6578 4914 6892 9208 4179 5328 5469 2675 5167 5052 4703 6226 4412 823 3440 1640 1262 4314 9344 5306 3802 7389 3289 2130 2913 5925 2983 5264 5280 5428 4142 6570 6859 2131 6452 8960 7600 2388 5003 5244 3265 5671 1942 2936 5390 2645 7016 6989 4615 5329 6311 2510 5476 5758 4469 830 1348 3671 6671 4625 3432 7501 4395 3354 4500 4942 5922 5866 6055 3674 1112 2776 8981 2859 5179 7786 6900 6384 1125 2680 7933 2542 7691 4182 5197 3395 5675 5009 5755 5089 2766 4927 6911 7365 4495 4841 2961 5518 6461 6132 3980 3619 5290 4465 4343 4304 8002 5463 1858 8109 7016 4484 5167 4556 4887 7722 4154 5392 5390 4933 3451 5424 3583 2535 4917 3905 1788 3706 5654 4792 7160 3273 5717 3452 5459 5783 4465 2824 3164 4520 4473 3290
8485 3611 6315 6148 4863 3290 4421 4769 6125 7092 6167 4835 3561 6471 8866 6135 6851 5454 6665 6315 6932 1240 3210 6857 7794 6478 5943 6216 2456 3590 8851 5317 3433 4831 6196 7995 1773 5243 3153 3091 6419 9166 4097 8423 7352 2853 3046 2631 4065 9232 5545 5822 3896 4254 6176 4646 7405 8108 6697 2925 2970 5803 2212 7516 5685 4118 3098 3837 6366 4192 2784 4843 5012 6880 3033 2891 1849 499 7260 1181 6880 7301 4295 5257 4971 5839 731 4254 1636 7711 2939 6762 6188 3405 4311 4307 3888 1844 435 8898 5793 6285 3719 8464 3973 6452 4687 6960 3390 4685 4688 5254 2238 1796 1268 8738 4650 4131 5748 5631 4922 5923 1463 7283 4473 3140 4449 5015 5260 9192 6255 7574 3761 5600 5273 3404 4681 9272 9059 6213 9440 3570 0 1843 5498 6273 4573 2102 7694 3190 6942 6029 6253 6437 3896 3425 3841 5019 4890 6947 4082 4530 5833 4903 3991 3915 4520 7781 5072 2407 8031 5524 6145 4337 4324 6734 5205 2805 4271 4852 9558 3479 3077 2798 3897 5157 5212 6038 1873 2861 5472 2330 2555 5065 7933 1719 7803 4735 4326 3516 7843 3930 7564 2958 7445 7097 7649 4060 7810 5372 6429 4452 4850 3309 2327 5901 7534 8960 4801 6537 1997 9191 6132 1765 1134 6156 1439 3432 1174 4668 4608 5346 5068 4700 4227 5979 3941 4364 9570 1007 2043 2845 3320 5712 5640 4926 3954 1683 5809 6691 2083 3386 7437 5860 2017 8689 1752 6212 4154 5692 3863 4879 2077 6818 1702 389 6237 1873 4331 8723 6219 5247 1547 6791 4613 7144 5950 2282 1762 4118 4426 7003 5916 5439 6486 4290 6085 1911 8589 5181 4269 280 7947 3164 3248 2729 1599 9608 4489 4528
5124 2622 3707 6968 5690 3549 3250 3964 4894 3720 3452 7706 4098 7821 5815 1524 977 7902 4625 4322 3360 5005 6737 6672 2888 5366 5079 6187 4387 4026 2985 8445 2169 9291 7481 5310 4168 2791 4269 6711 4668 2536 7848 4597 4671 4229 4147 2470 3658 3017 6777 2858 4088 6832 7102 5743 4409 4609 5449 6713 1236 3734 5649 7000 4941 3023 3743 7512 4894 4568 6541 5428 2609 3883 8825 9240 5238 3555 7638 2797 2610 3486 8351 6808 2031 4208 8524 6987 5720 2848 5504 8972 3390 848 1589 5898 4582 2254 4299 1893 8595 2576 7349 5542 3818 510 4195 4687 5903 7105 4714 3784 5006 2900 7373 5030 7515 3068 6556 3470 4511 3643 5722 4819 5184 6762 8390 6901 6130 4637 5368 5194 7432 4058 4153 5302 6972 4093 4093 6291 4088 7145 1843 0 4623 4229 8822 3758 2770 5573 9135 3440 3631 4840 6483 5549 8938 5749 5742 8036 4245 3652 6532 4436 4837 1548 4960 3952 929 6293 1365 5500 3370 8042 5641 3616 3904 5788 807 2196 4420 7014 4605 7648 6806 6914 6993 6384 5464 1720 5937 4942 2595 4368 5200 8935 5946 3816 3366 6391 3367 3867 5543 6734 5984 4864 4846 3159 4983 3506 7247 6963 5861 3289 7529 7537 4946 5484 4022 3578 1513 4259 6807 5399 4361 4459 5018 5027 6768 7639 9171 6122 5996 6679 4584 2774 5071 5718 2594 3073 5143 7375 3596 3168 3443 5957 7611 631 5952 3732 2905 4388 3394 3911 6408 553 3993 5074 5148 6824 4527 8664 5539 1821 2262 5890 5359 2530 3330 4973 1878 2897 6252 2926 6591 5832 7933 7654 1180 6138 939 6721 6465 6063 4747 8890 4056 4202 5306 4310 6531 4962 4788 4695 5449 2787 6541 5223 6726 3538
3606 5796 4403 4735 4705 2032 4448 8368 7461 7161 7584 6220 1173 5619 4569 2375 2538 4796 5143 8773 4347 5274 7032 2253 2853 4123 6985 2713 2900 2069 4380 3983 2847 2277 6908 6643 7491 4325 7000 4530 7798 9671 5967 5306 8268 4165 1092 2091 5648 6757 8616 1108 8290 3128 3983 1861 5473 1972 7125 6584 2980 6280 3009 8539 6908 5801 4250 2719 7273 5805 4759 5332 3182 5430 5851 5419 5467 603 5506 3053 5935 4705 3200 7622 4167 3355 3721 3851 8285 6695 5408 6427 4026 3898 3907 6466 5674 3250 7586 8719 5756 2668 5377 4655 4710 4584 3510 7082 5435 6506 4643 3824 4495 7075 7961 3645 1621 5165 5309 1285 8633 3047 2130 6815 6634 5598 7613 3729 4058 3472 8092 8150 1177 5500 5424 641 3953 7372 6992 5017 3666 7484 5498 4623 0 4075 6747 6669 6008 5025 2326 5198 3378 5770 6375 2365 5342 2790 4922 4658 2544 5482 5273 4931 3415 7939 3936 6562 4697 6673 5787 7690 3916 9014 5894 5292 5743 4148 6475 6044 8182 4887 6366 2996 5489 5125 5292 6220 3867 4684 4185 8277 2021 3793 8247 3734 3099 6366 7315 5977 6436 938 6336 5135 6795 5182 5976 5683 8935 7869 2591 5649 1910 3621 1915 5191 7789 7200 3591 4889 4550 6502 9139 5160 6327 5937 4339 7043 5227 5664 2474 6439 5965 8194 4464 5475 8035 3144 3625 1889 7454 6269 7123 3849 4458 3130 4824 6044 5786 7189 1815 4426 4570 3415 4350 5308 7323 3712 8372 6387 4150 3195 6909 5182 4818 5220 5792 3464 6759 1684 6174 5862 4397 1517 2843 8245 6093 4449 2281 3826 1930 4471 4267 8625 4148 2268 5915 5302 6884 9129 4273 6779 6689 5349 2419 1323 1985 4315 2697 561
5840 4983 5160 2462 6204 1749 6037 5788 8394 5782 6807 6825 7797 2439 4466 6035 4776 3872 3672 3419 4365 5642 1849 4664 3032 4390 6774 6382 3000 4836 6160 7016 3491 7111 3172 5092 4313 7466 3051 6963 2419 7132 2978 6111 9302 4103 953 8566 2893 3494 4666 8075 6261 8709 5501 7419 5818 4485 6209 8350 4658 5650 7331 7817 5732 5276 4319 7156 1341 3372 5775 779 5213 6540 7640 4550 1160 3918 7907 4259 3802 4937 2950 9282 4955 5589 5782 5888 5034 3793 5783 3323 8359 5938 6327 918 486 5989 6857 5075 5403 5467 2202 5936 6772 6376 7964 5614 5583 3125 5187 6438 8682 2122 7147 2243 4651 4457 3286 7868 4501 5874 1999 8113 7610 4449 7690 1202 1146 5419 4869 4382 7178 5321 7537 6071 2622 6363 7986 7275 6174 3249 6273 4229 4075 0 6753 7203 4091 5907 1883 5545 3934 8350 2621 6134 5121 7064 4500 5739 1779 4912 2904 6561 5704 3271 3712 3740 5246 6386 6346 5263 1080 6977 3855 1786 4485 5451 8317 4266 3895 6261 4847 6529 7142 6092 4472 8366 5216 6975 1697 8428 1869 6058 511 1342 6135 7520 6511 5143 4419 6259 2958 6282 8370 3609 5496 9207 5715 2698 6796 5202 4838 3261 3067 7045 9120 3980 6725 8125 3952 5098 6887 7485 7201 6493 3817 2829 9109 6626 8115 5160 6588 2991 2174 6132 1496 4094 6930 1598 4441 5272 4718 3493 6676 6733 4682 3192 5340 4133 1830 6303 6952 3099 5336 6168 6981 4766 5206 3774 4955 8411 6282 4846 6004 5221 4157 5391 6072 6470 9268 3204 2908 4750 5232 3370 7902 6103 6528 3132 5605 6379 5794 3893 6683 6762 5770 6861 5107 5127 4901 5750 5393 5163 1083 3502 4234 697 1493 2155
3700 3476 6216 5993 8499 5345 5152 230 3637 7965 4805 4950 2589 1680 6661 8476 5419 4373 6308 1284 4518 8088 3456 1334 5451 8262 5085 5536 4335 5976 3025 7556 2657 4628 4004 3092 8329 6472 4831 3141 1899 3413 6542 6462 4759 2325 3378 8613 6275 6604 5428 1918 2755 2597 4155 5225 9250 5551 7178 3951 7211 5323 1702 7201 7732 7713 6977 6153 5176 6596 6701 3542 4476 5276 3517 3050 4783 4357 5902 3621 7506 9023 3796 3799 3487 5097 7061 6486 4401 6460 5598 7524 5663 4393 4391 6393 7084 1435 6526 3428 3277 4292 8797 3859 4344 5669 6401 5869 2196 7191 4295 6570 2019 7471 3684 1140 7264 1215 6920 7113 4801 3050 7054 5854 2959 3619 6251 7712 8421 8826 5249 3888 4314 4953 1986 4425 167 3114 2418 4432 2631 2128 4573 8822 6747 6753 0 7033 5359 1470 5470 3896 5032 5673 998 730 5669 7612 7671 4445 5643 3885 4431 5894 9519 4495 6268 7173 5388 6497 4907 7179 5704 4679 5951 5671 5278 5879 6017 4110 6154 1013 7704 3327 2496 3011 5356 2599 6678 2686 2344 4327 5739 6190 8594 4399 9203 4381 5220 3378 5129 2746 7971 9193 7685 2602 5066 1817 7352 4670 2955 6913 2896 581 6389 5136 6128 7441 6520 8169 4435 4139 6124 5231 8422 1997 2233 3870 3084 5788 5176 5278 5678 2269 8171 5198 6466 2670 5973 7623 6748 7360 4151 1939 1796 3440 8476 4049 4727 6091 7881 1976 4425 2013 2579 3565 5182 3292 7481 5703 2226 2449 2599 2805 4276 4102 5925 2031 3086 6844 4994 6247 3042 4702 5738 6182 7573 8236 2936 4991 7108 7379 5997 4718 2808 5158 6336 3795 4332 8781 2817 3461 6016 2054 8236 4859 5286 5385 3877 4450
5426 2328 4473 4587 2084 4850 5747 8069 496 5027 5423 5171 6932 7180 5471 2731 6302 7107 6094 6844 5488 8172 2602 5113 4807 9607 9608 8469 2027 3347 3694 4777 1815 5490 3986 6954 7058 5031 4805 3327 5796 2270 4017 1211 4670 3728 6638 3053 3987 2689 7665 1606 5230 3699 6991 4151 7024 2758 3872 2531 4064 4580 5536 5256 1465 8255 6253 2593 5741 9406 5677 8460 7013 7870 2182 2741 3948 7310 7333 4081 5309 3805 1430 2009 5569 5024 7150 6517 6904 8362 5585 3378 3094 4951 5380 2021 7705 4981 4751 3565 4675 8060 8167 7629 5417 3208 4748 1047 3937 3197 7193 5126 4472 6243 4576 4170 4654 6062 2776 6189 6334 2445 6187 6448 5092 2988 4797 4997 5291 6316 6214 4425 8436 2473 5281 2491 3397 3166 4452 3006 7778 5725 2102 3758 6669 7203 7033 0 7727 6778 4419 6872 2423 2125 6209 4239 3129 5450 6233 7608 2371 5581 600 2835 4197 2152 8157 5027 8430 1689 213 3770 3524 1122 1422 3940 1083 5779 4975 7703 7577 2831 5909 3520 2488 7767 5326 4605 2823 2975 7953 6721 5444 7264 2977 4990 5842 5129 2946 825 3369 4870 1834 4184 2658 2187 3698 2272 5734 5972 3387 6965 6203 3909 4956 4358 5080 2627 7931 9131 7712 1714 4899 1294 7373 1730 541 5164 7280 3913 4350 7132 6399 5115 2921 5014 4308 7541 8194 6860 6519 4282 4717 5104 7660 6586 9118 4382 4148 4482 4568 2145 5131 2920 2993 1097 4650 222 7407 5046 7384 5246 2434 5123 3685 1013 6811 4120 3632 2765 7369 3063 3582 6255 3546 3474 6068 9544 3911 7463 3827 4838 6007 4793 6643 3486 3684 8277 2790 4340 6154 5612 3054 4522 3619 7153 1399 2931 2569 6005
2496 1944 3910 6898 3592 9073 3785 5461 5329 5726 3338 4380 6761 8021 1904 3587 3407 3330 4986 4665 8565 8414 1894 7159 7383 3623 4482 2120 1884 2098 6466 3375 2692 4971 4970 5742 1159 3376 3544 3987 4848 6740 1793 5165 4908 3796 5321 6200 7968 7696 7161 4129 6021 2174 5280 5854 5901 7472 4295 4964 507 5084 3373 5483 3430 4176 3769 3755 1433 2223 3905 2674 6570 6731 5523 2857 5085 7596 9166 1824 4125 4609 4993 3269 5970 3443 7450 3171 5484 6799 5393 5477 2495 3469 3950 4701 7019 6334 3880 8018 3031 6260 3581 5559 5953 3471 5004 6546 8591 5303 5047 2474 2758 6165 3363 3951 4065 3872 5884 5866 1444 4984 5151 3204 3926 9379 5712 3995 7608 8368 9193 5423 6600 4336 4952 5681 5744 4516 8236 1944 7687 6892 7694 2770 6008 4091 5359 7727 0 3204 3253 5218 4286 5838 2057 6439 2906 4439 3220 3780 5384 9079 6866 5735 4222 4738 5992 4132 1840 4193 6051 2747 5151 3837 4704 8422 8175 4916 3837 4745 5527 5270 3650 7300 2473 4544 6337 2378 6343 7300 7413 8014 6002 7217 7354 7301 4858 4455 6756 2513 3877 9255 7782 4476 5403 4239 4341 8744 3603 5579 3255 3285 4741 5970 8138 4330 5294 4306 2045 5642 4164 4041 8320 6258 4861 3525 6812 5056 5446 4821 8106 1423 6254 1180 4267 1946 7822 6321 4720 7189 4836 4582 2325 7099 7057 6136 2652 3790 2631 2680 4294 3406 6722 2310 7446 4158 4115 4766 5407 4420 4682 5969 6006 6549 2056 4587 5669 8315 4993 5381 6154 3405 6596 7092 5719 8242 1883 8079 8768 5739 3728 4362 4455 4316 8056 3714 6278 5743 7240 8324 418 8053 8597 4299 4047 3866 8291 5445 6475 6328
4425 5162 6135 4887 410 6622 4994 4432 3389 6050 6498 1797 4270 2936 7123 4509 5868 6098 4731 4447 4035 6333 8483 7591 5337 3685 3813 3867 6578 664 7971 3389 6905 2666 7797 3046 7598 7137 6496 4925 2573 4304 3801 7347 3991 5546 8267 8390 4863 6949 4747 3869 2611 5607 4108 6822 2292 7825 5119 5203 8286 7322 6000 6151 2599 5616 3507 2685 4851 6787 3406 6113 1410 5954 1020 3602 5447 2884 6348 1010 5364 486 4938 4555 3116 3387 5405 3399 7784 2294 7712 2545 5370 4388 5067 7520 6567 6146 4753 5665 6024 2459 1494 5201 4979 5053 5007 7238 4206 4220 3053 7844 2728 6838 3706 1746 2957 3580 6635 1054 4328 6617 4782 3013 4735 7527 2191 7199 1047 2485 6720 7765 6617 6196 3222 3035 3717 5945 6574 8824 7035 4496 3190 5573 5025 5907 1470 6778 3204 0 448 7133 5619 6083 3380 4074 4105 5228 5008 1696 6637 4231 7975 1436 5811 7598 2100 2426 5519 1379 8667 4507 4181 5071 7792 8014 5165 3068 8303 3516 2432 2479 5035 6047 7102 843 4791 4945 3846 2267 3464 3409 4962 2149 4702 6824 5194 7202 1172 2766 2247 6671 6559 4526 7467 5660 8400 2248 3914 5010 7894 8039 5574 5320 5006 8714 1761 5953 4139 4489 3914 1752 1646 5837 7099 6386 4620 4061 5273 1833 4815 1727 5429 3336 5587 6019 8654 5653 3939 8653 5718 7277 6519 451 4021 5692 2933 5132 4454 5207 6153 4608 1853 6180 2894 8159 8069 7439 3321 910 6451 5243 4616 9142 7264 3265 4603 4508 6366 9587 4128 4979 3507 4374 5954 5674 5001 1754 5176 1999 6257 2967 2790 2704 1497 5448 4508 4913 6149 3135 4846 6609 5074 6040 4850 8197 5184 4220 4263 8394
4429 3989 1687 5403 7073 6398 4167 5153 2498 5425 5127 3765 4774 4939 873 2758 2311 6696 6661 3925 910 7374 956 7469 4978 4418 4427 3283 4939 3802 8106 5742 1952 7133 4594 6640 4521 6181 5422 1212 4954 6263 4620 3817 6244 2332 4323 6466 3869 4218 228 5602 5223 1469 5611 2502 7302 5922 1524 3724 9155 2744 7289 7436 4480 4384 4714 5517 6465 4204 6215 7899 5242 5361 4024 3071 5077 8376 4314 6881 2781 1970 4489 3609 5497 7260 5579 3332 6006 4724 2996 6550 1881 1996 2966 1273 9017 4165 8416 5129 1879 7281 6522 5548 5178 5842 7594 5526 4565 1604 5245 6360 5090 4238 8379 8212 1141 4636 7648 823 5273 2775 3499 4733 5716 8903 5700 3418 4980 7269 879 1858 7458 3595 3337 4985 4639 4248 1495 7443 4895 5597 6942 9135 2326 1883 5470 4419 3253 448 0 6427 5660 7911 4095 6913 4398 4426 3614 5192 1153 2143 3271 2067 5007 5474 1621 5187 5942 5099 5994 5712 4720 9347 6680 6250 1705 1923 4785 4166 3089 4376 8347 7738 7608 4398 4231 3985 7391 1752 391 4100 6419 3462 5807 8436 7651 6834 5058 3240 4447 4921 5552 4445 3962 6747 6228 7915 3858 6992 5379 2343 6754 8043 806 8240 3721 5647 5774 3699 3430 7358 6314 8346 5411 6131 1828 2368 5605 2264 8971 6291 4056 3986 8787 3421 4594 7129 7100 3738 7130 4852 4866 4894 6094 4404 5989 1416 3874 2817 4494 7425 4451 7077 5725 9559 5429 4448 4473 7805 5695 8592 5726 7282 1577 4340 4778 4091 2715 6206 3996 1046 1661 7235 4332 2152 4537 3485 3890 7061 3305 3528 604 7982 4848 2707 7654 9067 4476 4448 4087 6602 3077 6349 6393 4892 8128 5281 5481 3131
6778 3879 5095 7896 1780 5242 5083 5738 3510 6968 2848 6648 5038 4053 7056 7258 2908 5034 8516 4095 5544 4159 6297 4151 3981 3835 6635 3957 8608 4322 4577 4178 2497 4788 1462 6891 1885 3721 8338 7129 6849 8934 1441 846 2950 2922 8201 3492 1199 3357 7196 5819 5766 8470 4823 8275 1969 8460 5545 6986 2140 3402 4700 2388 5756 2254 6698 1724 6639 3141 9823 5278 5807 2514 3109 3899 6402 6238 8915 5784 6669 3334 3436 7480 7266 8073 5818 6407 5863 6063 3182 7590 6950 1416 6048 5121 6521 1886 6608 5791 6369 8332 6810 5781 3782 5140 4569 7638 5033 4967 1481 3321 7104 5709 5761 8964 358 7933 6562 7137 5116 5285 7336 3574 4457 7874 7423 2813 543 6993 6099 6870 9114 4776 3341 4792 4273 1497 4195 6726 3603 5450 6029 3440 5198 5545 3896 6872 5218 7133 6427 0 4347 1576 6402 5508 1622 3381 3292 6578 6993 7374 7615 3317 6830 5290 6127 5830 4329 3254 5445 3960 2890 8964 5789 5259 3153 3941 1967 1937 4630 2518 4761 903 4543 2347 4749 3874 7656 7066 4507 4602 7360 2630 5101 5528 5979 7462 8810 4149 5451 2017 3652 4529 3664 3424 6194 5244 4696 8982 2166 3259 5309 5092 2417 2103 4494 5153 1419 4215 4133 6135 3402 5129 7907 2397 3747 3931 2982 1885 5993 4179 3440 5212 2499 2654 3909 2817 5457 3345 3387 1587 6249 5403 4392 5411 8211 3528 8351 7108 7839 6899 2370 7212 6193 1997 2032 4599 3913 1190 8391 6088 3948 6054 6909 7953 9040 1977 3995 5561 3887 5701 8702 6896 2996 989 7395 4371 8245 5317 3593 5897 1619 7901 8448 5685 7239 3856 3140 6333 2206 3505 5157 6766 5992 4578 7444 3661 5003 4702
9261 5727 2676 3397 5742 4931 2791 9090 6421 5277 4518 3413 3196 2776 1698 5623 6217 4499 3643 4422 7917 4279 5886 3582 4193 9034 2890 4206 4204 5185 6782 6015 8486 5117 3276 3841 4919 4326 2845 2055 6417 6066 5670 6903 3899 3130 3429 6929 3447 7004 6302 5867 6990 3587 6596 6747 8059 6425 4876 2256 1591 4349 3475 7129 9098 5052 7257 5222 3460 6415 4454 5944 5424 6132 5073 4083 2582 6162 6878 3748 1077 3054 5741 3827 4454 4261 1474 4698 5871 8382 6174 5304 2646 1698 5701 5954 4875 5504 4694 7201 4693 7757 1550 8026 4980 1282 2338 4074 8834 3892 7021 8979 5076 6515 9046 1774 1075 6326 7860 1637 6541 9109 6661 4766 5440 6896 7431 8559 6021 5251 5821 3252 3668 7110 6120 5483 6446 3330 6256 6872 7373 8721 6253 3631 3378 3934 5032 2423 4286 5619 5660 4347 0 5080 3402 5965 9238 3179 4170 2890 4839 5866 6848 6367 4378 7132 7755 5257 1265 977 3657 3606 4182 3105 1047 2893 5884 7616 4436 2348 5600 1670 5344 8800 9285 4125 5776 6315 9194 7026 7363 4777 1217 3641 6051 3947 2842 6884 3714 3587 8183 6087 8441 5610 1655 7339 3802 6914 3658 4668 5553 1439 5353 5229 8741 6701 1247 6975 5529 5088 1043 6218 4984 4939 5573 2199 6966 3037 5706 1088 5920 7076 2505 4132 3284 7515 6455 8801 1908 4149 1409 5100 6998 7756 2839 2683 5271 6862 5275 2933 3039 2537 4596 4743 5238 5288 8399 6426 1941 6564 7091 3513 5406 1950 8751 3963 2741 3101 2889 7598 8854 3145 8431 7970 5187 3994 8614 6329 5986 5520 5201 5886 1369 8274 2493 5942 4444 3607 3761 5319 4106 5922 7210 8386 764 2145 3687 1485 4918 895
6125 3707 653 5970 5217 4668 5894 4066 3614 8349 4087 1829 3408 6437 5746 2421 6919 5866 8935 8010 7849 6896 8009 4184 2782 3403 3809 5430 5747 4913 9581 5494 7719 3070 2028 416 7274 6395 8210 4454 3676 4755 6480 3779 4370 4676 7338 8094 4614 4753 3554 7776 2032 3631 3527 7055 5177 6384 3534 6976 3672 798 5354 3073 6969 3140 5867 5360 5167 7671 8644 6973 3278 5980 3934 1738 6670 2993 6731 3653 4629 3071 4881 4459 3648 4821 8123 5587 3406 3754 7659 4719 3417 4995 4472 3774 4978 3150 4789 3235 3584 5562 8158 7150 3991 4247 3494 5421 8187 2267 8945 8983 7709 5838 2447 4128 6319 1339 5753 7530 8670 2621 4931 8030 6862 5241 7712 3559 8197 2554 3724 8540 4974 3404 2710 7109 5307 8055 4933 3686 7615 3066 6437 4840 5770 8350 5673 2125 5838 6083 7911 1576 5080 0 4851 4587 5033 4961 5949 4160 1719 4226 4449 3270 4291 3375 4437 4932 1149 5300 5019 3231 8408 3655 9296 5122 3400 6662 4808 7791 4364 8884 6992 4578 1851 3305 3696 4819 8380 2396 5987 806 1462 5194 3969 6823 8291 7558 6339 4271 4195 4528 3948 1534 3989 3452 3805 3402 5801 1463 8053 6171 6284 4944 2368 5869 8155 4853 2338 4381 5866 8080 6597 3733 4361 1384 3906 6841 5954 5235 7633 6481 4845 1514 5181 5535 8102 177 4088 6235 7805 6460 3768 1210 5119 5781 4368 8902 8180 7667 3950 2193 2257 9052 4324 6030 3109 4715 2174 5009 5030 4164 3113 1541 2203 3288 2417 5973 6726 1164 3568 1595 5573 2138 3598 8719 5812 2704 4574 2898 7004 6585 1197 9044 6523 6424 5008 3738 6044 6936 8192 4341 2652 3048 6696 3136 2913 5615 3581 3581
4216 3485 2661 3591 6709 4310 1961 7334 7150 7207 3519 3200 4895 4634 8956 2836 6747 2475 8530 3687 4218 5856 2585 5189 8892 5831 7883 5849 4877 3929 5421 6851 2165 4231 5320 8432 7300 3813 4591 4178 3898 6054 6108 5370 8160 4834 7414 6121 7884 6206 6301 4469 7574 3968 2011 4012 4951 4788 7875 8775 5160 4918 2119 4582 2260 1771 2011 8072 1809 5017 8350 6164 4714 7553 4013 6277 3773 5629 7974 7284 5118 4837 1718 3835 4590 3611 5406 5317 5696 5130 3802 4673 1706 1314 8351 3814 2374 5825 5614 2820 1030 4994 5191 4005 3813 4753 3320 4667 4022 6924 3193 4831 3818 4107 3828 4713 5423 6601 5240 745 6418 5267 8576 5371 2195 3009 4272 8761 3427 4915 2148 8343 6842 3659 1871 4827 4593 2262 6154 4180 6743 6697 3896 6483 6375 2621 998 6209 2057 3380 4095 6402 3402 4851 0 3616 5886 4007 3164 7173 5602 4118 8359 3950 2820 3328 8466 4680 5113 3060 7511 7180 5225 8523 9490 9006 4814 4286 5583 5063 2673 5012 6839 1856 8979 4565 4756 2461 955 4194 8831 203 3965 5040 6497 6386 5153 6341 6835 6131 1834 4118 7270 5875 6036 6101 6804 4652 5660 7516 4071 3261 4939 8207 7895 8322 5124 2949 2503 750 5805 4268 5669 9329 8183 4041 5326 6938 2715 2890 3026 6500 4851 3859 2895 4083 5651 6271 1971 5369 8953 6367 4681 4918 6674 6400 1063 5936 8543 5564 4148 9028 6652 7643 2145 7608 1664 1953 6758 5764 520 1786 1163 8188 3722 3212 2954 7444 3636 5479 4781 8572 8310 3796 6900 4058 2890 4674 6396 3202 4999 5736 4484 5048 3744 2984 4736 6114 3346 3536 4258 5191 9178 6224 6165 5436 1252 5789 6524 3495
7838 2082 1858 6203 4821 2574 6888 4619 3446 6229 6460 7018 2266 6066 5053 6215 4251 5738 4664 2090 8459 5998 1926 5190 1139 8329 2977 7716 8854 5790 1565 2306 2471 8095 4974 6785 5147 4779 5982 1706 3952 5876 3366 2612 6705 8470 7922 4548 4936 4443 1370 5617 4563 7671 5031 7451 6398 240 5608 3483 6802 3948 2183 4193 2531 5551 5134 3824 3754 4124 1822 7112 5457 4560 6993 2663 3732 2216 6866 6938 7539 9831 6098 4769 8482 6683 3499 6260 9050 2416 3415 5759 2333 4491 7803 3048 3295 6562 4318 5120 1957 1526 7037 7259 7739 4581 8526 2988 6426 5068 2213 4697 4404 4789 6163 5182 7251 3856 3557 8496 6589 2724 5260 4539 3721 3769 3659 3725 6491 5229 7015 2760 5925 6879 4460 5316 5842 6679 6556 4143 5921 5743 3425 5549 2365 6134 730 4239 6439 4074 6913 5508 5965 4587 3616 0 7765 5855 4589 5757 2831 1588 3677 5143 548 5398 3608 4644 4070 3650 2278 5872 5520 4207 8823 5857 5182 1387 3950 4243 4975 1936 1194 9709 3607 5541 1336 5928 4524 6294 5489 4264 2870 5934 5796 4372 4787 4724 7208 5467 6804 8212 6429 3468 1781 6272 1212 4794 6796 4525 8321 9585 7312 5262 8118 6831 861 4936 8329 3606 8668 6798 5228 4122 3947 4019 1827 5394 5945 4404 3229 4797 1361 3890 3147 2420 8089 3720 3531 3336 3800 2993 1049 7468 3962 4766 7212 4670 6333 5408 5597 5807 5903 4741 2488 1507 6816 4925 5412 4181 8348 7508 3379 1215 3107 4784 4765 1889 8096 2813 7051 5320 1792 5351 5347 4383 4287 3678 5079 4202 3586 8604 4604 6897 4837 7676 7178 4601 6821 4184 3453 4204 8639 7890 7230 7116 2620 3903 3025 4657
4372 4901 7279 5421 6261 3124 2319 5319 5175 6286 2564 7538 6254 2710 1988 2613 6116 1970 3429 5978 4276 2827 4068 3250 6683 5634 4686 2345 1048 4358 2732 4574 3956 6760 4109 7067 4128 8375 7164 5272 2074 5126 3592 2606 4310 4713 4515 3928 6893 4242 5646 7193 7012 7781 2848 7371 7695 2557 6449 4792 4428 6303 3523 4895 5553 7301 5614 2836 4527 6297 3376 6678 3152 8200 6996 532 4843 4464 4396 2334 7040 7039 3584 6611 3073 8766 3342 7062 2853 5447 5265 7976 2686 3793 3672 4480 7540 5881 2128 5449 9806 2389 3456 5617 5567 7626 3992 3906 6711 4989 3326 7217 6118 1329 4475 916 2915 3031 2134 4643 2017 7161 9883 7476 3822 5647 3137 3070 4811 6375 2602 6373 5640 6029 6840 6561 4996 3566 3559 4743 3075 7036 3841 8938 5342 5121 5669 3129 2906 4105 4398 1622 9238 5033 5886 7765 0 6330 5847 5196 3848 5883 2670 5249 4965 6548 4588 4000 5748 9474 5308 8113 5210 6340 3774 4358 3429 6741 2287 4733 6617 3277 5965 5928 3557 5206 3102 2651 2377 6794 4731 1620 4256 4902 4331 2988 5608 3315 8325 3281 5553 5539 6095 1286 7896 5634 4914 5727 3299 3660 3593 2873 4568 7521 4328 5368 601 9705 7553 6205 8509 8944 7298 9827 3816 3318 3771 5670 2043 3742 4905 3687 7566 8096 5376 7845 2554 3557 6556 3587 4782 6444 4061 351 7778 2741 4899 390 3114 2261 3228 2268 3200 8228 6847 8025 6440 5345 1074 8936 6815 7820 4085 7401 5835 8014 3266 5296 4642 4652 2301 5527 3502 5163 8926 8827 1693 4330 3189 5970 4291 2864 6255 4364 2620 7514 6071 4025 4763 6711 6689 2034 5661 7064 4440 2416 6739 7273 3744 5256
6688 6609 5784 3700 6726 6573 5822 4915 7388 9423 3333 1504 8699 4721 5426 8521 3861 4610 3139 4665 2419 4651 2414 5068 4122 7445 8629 5105 6052 8711 7092 4644 6709 8014 4354 3894 3397 3555 424 4170 3587 9713 3771 7671 3961 5007 5025 1492 5945 6983 4668 3701 7245 3057 7957 6571 2476 4010 8287 3656 5772 6440 3931 4756 5694 7100 1892 1942 4881 5608 173 6698 5336 6261 4324 5370 5495 4103 5802 5034 4660 5218 5748 1095 7224 6932 3307 2712 2867 5160 8698 4581 6037 4295 4552 4272 1833 9075 5422 1025 6552 5111 7445 2721 680 4678 4191 1534 8177 8658 3789 2971 3423 1981 3478 4505 1911 4217 5777 5251 1618 5957 5517 5352 9804 4172 2051 5795 3210 3909 8787 5119 2374 8348 3132 1053 6721 5462 8339 7456 3965 5631 5019 5749 2790 7064 7612 5450 4439 5228 4426 3381 3179 4961 4007 5855 6330 0 5213 9349 3061 3205 5112 2542 3910 6384 4101 7756 7086 2793 4663 3924 3197 5408 6394 2336 2080 3867 3813 1552 5622 3565 5924 4907 3015 6097 6759 3869 6058 5585 9496 4667 8400 5570 6009 5441 3239 5836 4350 3327 6577 6141 2412 3489 3946 2516 4499 4729 2490 5627 4492 4718 3204 2470 6390 6461 7190 5188 3846 3038 1390 5522 4978 6370 5021 4758 3313 3291 2875 8090 6623 4901 6732 7655 4380 7932 9037 7965 2689 2818 1333 1283 5860 7551 4682 4266 5114 6666 4724 5137 4487 2547 3292 3629 2783 7080 4369 2428 1943 3590 5418 7066 2777 6790 3475 4869 3592 7047 4719 1441 5223 4120 7836 7366 5900 9567 6037 2215 4682 3089 8915 3679 8466 4368 3845 3525 6283 4608 3195 7742 6886 5011 8373 5493 6940 2053 1976 5919 1669 5220
1396 3179 7358 6571 6758 4165 5515 8938 6616 5241 2574 2341 4039 6723 4983 3709 7456 5008 6260 5119 6465 5162 4660 3641 4272 4596 1695 5674 3245 2847 1850 6014 5739 5600 6374 4720 5178 5861 6937 8932 4728 3793 5421 4557 5785 5133 1220 7188 7715 6116 5512 5128 4378 4497 4178 7166 4351 552 3193 8770 6343 5594 3709 6814 2112 5124 691 2442 3914 7167 4617 5402 6133 5015 2212 6196 4465 2375 5012 9200 6474 5565 4443 6087 5650 8963 7860 2550 4854 6881 4271 4045 2189 2649 4687 4179 8749 4712 5898 4020 2071 3914 4158 2348 3275 4485 8893 3135 7854 6324 9390 3953 5114 4098 4445 1292 6500 7434 1747 9526 5848 2735 6253 7313 5505 3136 2989 4257 6174 5434 3739 5208 4323 5371 5194 3842 2900 6193 6579 7268 4843 6578 4890 5742 4922 4500 7671 6233 3220 5008 3614 3292 4170 5949 3164 4589 5847 5213 0 4861 4957 7127 6238 4274 4658 3310 3119 3049 7662 5958 5174 7999 2034 4490 6321 3675 5238 8135 5172 3589 2203 5720 5591 1233 3862 7011 5897 4271 1847 7596 4233 6232 1985 5245 6071 3040 7242 3455 9541 7217 3098 1998 7608 4757 2541 4286 2457 7034 5731 3978 6885 7574 4201 4079 8803 8805 6259 3768 3191 5963 6068 5239 4989 4447 3703 5595 2270 2762 6845 6051 4757 4903 635 2917 3120 6770 4452 442 6065 9781 4450 6753 3136 1480 3767 6972 3472 6177 6614 6074 3307 4110 4710 3118 4886 5854 2766 5180 5730 8561 7487 5315 5055 8149 7272 6795 5656 4166 7257 7917 6760 7363 3084 5342 6039 4644 7841 5158 716 8130 5009 5081 2652 4319 6408 1398 5386 8439 5067 3516 5630 2230 7173 6020 7644 6131 332 3950 3058 2842
4064 3477 5557 3701 4181 3999 5128 6680 6692 2370 3294 2105 3000 5786 6425 6016 5905 5314 4110 799 2251 7755 4096 3991 6208 5586 6778 8838 6180 5065 5276 6227 6828 6682 2269 5430 4481 6494 2771 5683 5204 7248 5076 3464 5488 3965 4933 2805 8863 7426 4699 3348 6313 5261 199 5737 2488 3685 3293 5394 4892 5493 1010 5337 4066 5765 6292 7262 2343 7395 4543 7705 8929 7082 5347 3257 6606 5360 7931 7619 6911 3902 4531 7541 3767 2226 8922 5040 6050 5821 6165 7840 5480 5740 5341 7498 7763 3523 1372 4700 190 5906 7407 6739 5098 1816 5907 6019 4100 7570 3529 3933 3480 5124 4559 4787 8808 4439 5176 5631 5284 9570 1092 5822 2114 6057 5737 4573 1038 4145 2219 3454 5276 5072 2438 5700 2408 7193 4639 4247 3022 4914 6947 8036 4658 5739 4445 7608 3780 1696 5192 6578 2890 4160 7173 5757 5196 9349 4861 0 2789 5096 6113 8118 5692 7458 9603 6253 7953 5078 5451 5707 5363 3052 6474 9435 5128 5484 8926 3352 7816 5745 6204 5627 5723 3115 7661 5475 3231 5408 4735 4494 2753 6782 9007 3355 3349 3378 5475 2493 5338 4398 5940 2514 8622 6583 1667 4741 4435 4801 6748 3628 3555 5794 7039 7837 2197 1094 5963 5386 5677 4435 7029 2256 4685 7216 3808 7222 6368 4836 5418 7170 4323 5929 7276 7680 4742 3167 6957 1199 2622 3735 7669 4983 7839 8889 5813 3851 5934 2338 6545 5830 5179 8674 4987 9222 5819 8149 4794 4997 7827 2986 4091 2835 7461 2010 5898 5910 4264 2009 3625 2601 1804 4986 4093 7226 6550 7856 2242 5190 5686 6768 8307 4687 3526 4080 5398 5737 3417 4965 8022 4520 9299 3934 3392 5614 5439 1767 4760 2177
5296 1800 5123 1417 5532 3504 5916 5918 9292 4776 4317 7123 1990 4599 4301 5604 7246 3483 1633 8499 7910 4680 4196 7029 7542 1040 2293 4379 4000 2561 8429 5093 6152 4187 3257 6268 6640 5288 4219 3726 7633 4481 6658 4064 3521 4160 6055 7762 4785 8536 4221 5341 7510 6373 5810 5559 4050 7835 2058 4106 4758 8403 4068 3913 7193 7476 1072 5706 4760 5846 6886 4073 5155 6068 4094 4577 5199 7895 9339 7782 5932 4531 5534 2815 4949 5794 4632 2689 3724 3803 7521 4408 6191 7002 4350 9614 6473 3384 3111 5839 5499 1357 3891 4103 9213 7562 3570 6810 7680 6582 1273 5055 5340 5695 3076 1146 6972 2586 5069 4457 6235 5037 5639 5236 8092 2327 2513 8283 3842 3925 4197 5600 8574 2803 5895 2073 4762 4107 5004 2100 2567 6892 4082 4245 2544 1779 5643 2371 5384 6637 1153 6993 4839 1719 5602 2831 3848 3061 4957 2789 0 5633 3271 4668 5193 6096 5470 6801 5507 6549 3188 2051 3817 3830 5352 4853 3234 4861 3068 1151 1912 7525 5512 2247 4442 6376 3015 1946 8165 6615 5484 4607 7367 8722 6002 4781 1885 2506 7143 6200 4250 8897 5385 2464 3787 6265 2793 4077 6502 9720 5224 7992 7286 6628 4791 4326 5233 7156 8560 5662 9187 6242 5949 1388 4826 3881 9883 3338 8433 2812 2142 3762 4600 3341 1339 4481 3640 7567 8904 2093 2761 2050 6415 5987 8991 3554 6042 4840 8013 2570 3414 4870 2554 5832 8009 2509 8539 5511 7332 5858 8020 2371 6925 4912 3963 6930 3703 1603 7510 7649 8335 4954 3305 8039 7655 7622 4359 1459 5904 5612 7732 2622 5115 5198 9010 5985 6557 5774 3365 6359 4128 6411 2476 3078 4827 4011 6957 5919 5353 8085
4638 4988 2165 7219 3021 5887 4857 3894 5252 3595 5213 6553 4818 3638 2792 3397 5901 8178 2548 6380 7212 4233 5414 2790 3677 5918 6200 6707 6463 5020 640 1584 5923 3069 4901 5639 5501 6216 6176 7062 2618 5241 3428 3630 7100 3630 1655 6455 7244 4747 9382 3155 1772 6408 6281 6694 3807 5978 5402 4484 8829 7002 1172 6436 5591 3357 7428 6270 4587 6475 7334 5031 656 5855 5994 7273 474 7980 7712 2259 8879 5578 4705 6784 1168 4472 6922 4923 7293 7452 4866 3946 3639 6765 4880 4126 3895 1410 4623 5160 5366 3917 8269 4609 3813 5763 7036 1701 4815 8676 5618 9530 3765 2566 3251 4541 8246 6128 6123 8200 2406 7193 3955 5977 4989 5149 1291 4822 5878 2047 6532 2374 7494 3914 7307 5436 7356 7026 2054 6873 7888 9208 4530 3652 5482 4912 3885 5581 9079 4231 2143 7374 5866 4226 4118 1588 5883 3205 7127 5096 5633 0 3286 2267 342 5780 3627 1805 5681 1492 6746 2405 7965 2527 3128 3906 6012 2055 3705 5541 7107 5387 8499 4620 2661 5438 4326 5161 6276 2004 3137 2518 5315 5484 7545 3441 1811 5049 1650 5822 7005 4876 5696 7189 9149 5059 3909 5977 8868 3295 5793 4724 4938 5505 7558 4829 7272 8799 5498 6499 1102 8078 1769 3462 6218 4253 5478 6898 5958 6857 7552 7807 5614 3026 5654 919 2088 6553 3797 4842 8038 1796 4714 2927 3862 1088 5449 5195 5755 721 6125 1725 4632 3443 4164 8740 2204 6006 5278 5232 7619 1480 3630 4326 5234 4439 1142 7146 6926 7291 4821 3796 3342 1823 7120 4372 4282 5561 642 6549 3138 4559 7620 4690 6898 2428 4994 7277 2600 5908 4025 4349 1944 9046 1637 4213 3970 4475 6481 686
5592 3638 5738 7675 5822 6453 5308 3152 5351 7488 529 4234 1905 680 8439 3083 6302 6009 5925 6723 6430 5754 5895 4907 5506 7163 2410 4854 7058 3336 7858 6729 6549 6341 7533 3986 5301 6010 6258 9471 1071 6353 1340 7862 6241 778 6971 4878 4503 714 2011 7806 5396 5457 1359 3861 4744 3869 1725 4705 6109 3543 3675 6090 5718 6483 5946 4055 4282 1136 6263 8533 5026 4549 5270 4444 2973 5722 5186 6748 4920 2356 5007 5756 7208 6263 5997 8056 6440 6705 6893 4815 5895 7346 4967 2495 9261 2354 5274 6395 5388 4878 3538 9639 5700 7054 5142 3763 5073 7221 3416 4405 6154 4261 1497 3747 3099 7296 2937 4486 5255 6266 6554 6453 6123 6270 1044 1824 5973 4867 3728 2209 6097 8431 3766 3882 6827 9344 6666 6806 4327 4179 5833 6532 5273 2904 4431 600 6866 7975 3271 7615 6848 4449 8359 3677 2670 5112 6238 6113 3271 3286 0 6959 5311 9242 5166 7455 5487 3599 7211 593 8521 1394 1153 7855 5924 6684 4725 5638 4918 7221 2413 5864 4177 4684 7693 6126 5251 7264 5005 8720 3735 3348 5977 1083 5325 5909 5798 4707 3772 6205 7173 7504 4213 3622 5923 8043 4321 1555 4407 4654 5800 777 8724 7412 3164 3401 2311 1582 4364 5175 8713 7243 3745 6336 1750 5186 5679 2675 3060 6501 8363 6463 4661 6398 3358 2994 7358 1975 4519 5373 9583 1500 3687 4823 2794 9297 3747 9000 1960 4776 5431 3572 3533 4155 5708 598 8779 8328 7546 6163 6977 6177 4619 6408 5139 7274 2026 7926 3902 4173 8411 3087 6821 7096 7400 5432 2586 4558 2138 5939 3265 3510 7097 3664 3485 3960 5021 6288 4684 6946 3459 4633 5516 7652 4615 3853 5443 7499
6621 2632 4442 5417 5253 8016 7318 6100 4383 367 6718 1145 5478 2830 8818 5064 1776 4536 4458 6306 4673 8083 2891 5479 4042 7115 293 6559 4574 5965 6193 6700 5947 4653 3010 8119 4022 7308 2880 5774 4804 8779 5393 8587 5867 4094 5611 2539 2776 6241 6209 7068 5178 4914 609 7627 3511 4240 5554 5681 6199 3876 2102 7133 3009 5353 4023 6969 3306 1485 5854 6109 6096 1274 2617 5235 2367 3450 6248 9026 6388 4283 6584 5468 803 5893 3318 6481 1665 4136 1556 5109 5274 2304 5775 5341 6363 3342 6169 9203 6100 5607 486 8986 2653 2615 4987 4534 6440 1429 6400 2139 4008 4159 4807 2259 7903 7582 3613 4353 2299 4141 7656 3756 4007 6276 6328 3913 1249 7539 5402 4535 4941 8579 6149 8227 4011 6946 5956 5912 4003 5328 4903 4436 4931 6561 5894 2835 5735 1436 2067 3317 6367 3270 3950 5143 5249 2542 4274 8118 4668 2267 6959 0 5557 3007 6740 6877 7641 5976 2944 4512 4370 4395 1010 1509 2332 2330 3451 7010 4571 1556 2460 4842 6521 8552 4854 6321 6127 2944 3857 4653 6123 5582 5781 2930 1497 5556 4057 4551 5760 6633 8709 4112 4539 4225 519 8664 3995 7026 2000 2396 2420 2577 4342 8543 2386 5036 7427 5858 4990 2227 2795 4613 5944 5541 1274 3822 3606 2173 1377 6031 3350 6896 1861 5166 6356 5618 3081 2434 5375 2965 5883 6641 4033 6620 4339 2589 1431 4918 7615 5344 4557 6385 9094 5626 9718 3743 5491 8383 8058 9672 6438 3653 8539 4839 7426 5266 4630 2614 4441 4368 5293 7982 4943 3377 3657 4176 1778 6853 3716 2546 3057 2385 5121 2654 5042 5964 2747 3906 9408 1401 4956 4591 6745 4729 3906 2809 2376 5754
3181 5658 5506 1758 1780 5861 2167 5750 4076 1866 4317 9570 5595 3005 3277 4255 6982 5435 3851 3445 3984 3050 9094 3629 6759 5580 6823 4381 7235 7873 6426 2752 7722 5706 1631 8009 4585 3486 1419 6707 4003 9045 4765 3555 7185 3644 3271 2390 1273 5372 3926 5560 1891 4176 5711 4399 2917 6464 6075 5476 7227 3604 1590 6551 6622 2965 1880 6670 4497 2310 5970 4981 9370 2580 6905 5436 5051 4172 4960 6864 8231 1756 2698 2342 6902 7022 6085 6168 7568 4332 4987 4464 7160 4170 1682 6914 7872 6450 4053 5244 3804 4753 5618 5893 7406 7012 9040 4891 4687 1319 6516 2370 6817 2937 2115 6977 4297 3990 6437 5303 5442 7122 5545 5981 6105 4852 9043 6225 5670 7187 4375 4037 474 7498 6455 1782 5854 8934 6942 4428 4365 5469 3991 4837 3415 5704 9519 4197 4222 5811 5007 6830 4378 4291 2820 548 4965 3910 4658 5692 5193 342 5311 5557 0 5031 5865 3784 7958 2639 8884 5202 3797 3783 6332 8642 2989 2725 4741 6726 3528 6371 6561 4210 8080 6727 3727 5295 8601 9722 3120 4457 4431 4847 5516 1779 5810 6169 4824 3675 6024 4770 3214 2694 1470 2410 2515 7569 3670 5675 6544 8653 3097 1543 3612 4998 6442 3665 3790 2310 4351 5048 524 4271 4390 8866 4011 6192 3438 4218 6779 6926 2626 3598 5314 5810 8722 5282 6110 7573 702 8245 1839 5366 4983 8499 5401 3958 6867 3998 6519 2591 656 4316 3054 6058 4217 5274 3456 2456 3609 6364 3753 2573 5201 3603 5164 6573 5047 7959 5471 8642 9143 6184 3380 7209 1405 2539 4537 3431 9426 6191 5693 7462 6646 7925 4190 3606 7387 5595 5970 4611 1870 7063 3102 5924 8944 4124 3385 8247
5493 6723 6074 5268 7640 2745 7773 9631 3171 5238 4804 3915 5071 1689 3888 3365 5245 3008 3212 2270 6146 4936 5578 6623 783 6015 4738 6095 4998 1665 1095 3747 4062 4970 7569 6019 3585 9326 5842 6853 5079 5490 1956 7165 5269 2845 1590 4994 7294 7818 5020 3450 5483 5877 3514 2451 5628 3245 2812 3753 5126 2018 3761 2934 3938 4556 5173 8323 6628 5590 4472 6906 4943 8468 6055 3654 3742 5331 8141 2213 7431 9011 1392 6350 8098 7603 7757 1824 4877 4108 6830 3279 5875 4350 4899 3526 3814 4850 5093 4004 3531 9035 2027 899 5479 5964 6692 8576 3902 5132 5942 6062 4174 6300 4131 5274 1525 6070 2942 1974 4737 4180 6551 6667 5223 7091 4757 5193 6356 6602 397 1205 5005 7293 4287 7342 2571 4888 9438 5632 4746 2675 3915 1548 7939 3271 4495 2152 4738 7598 5474 5290 7132 3375 3328 5398 6548 6384 3310 7458 6096 5780 9242 3007 5031 0 1131 7112 6077 5347 6958 6623 2628 2149 2722 3805 2353 4699 2248 9298 5347 9227 4588 7292 4328 1519 6252 7512 8935 5586 9341 1611 5220 7712 6088 5410 6772 4895 5127 2462 6491 5583 1918 2448 4749 5542 2731 8295 5072 1730 2271 2771 6985 8950 5916 5800 3841 5369 3830 3676 1573 4243 4578 2410 7572 4313 7527 3050 4255 2976 6122 5650 4244 3744 4423 4882 6244 4205 6055 9139 6709 3183 4541 5343 3290 7060 5626 6649 1863 4673 6266 4560 4626 3166 6431 5274 3164 3814 8433 4125 6759 1605 4419 4309 4338 1004 3158 1908 6482 9008 7257 4179 7725 6562 6594 7350 4120 9656 6215 6088 7423 2541 8744 6051 1615 998 8319 4565 4287 3061 2399 7561 4539 2928 5606 7855 2765 6806 3871 5135
5936 5113 3939 6118 4384 4030 6580 4285 7446 9146 2934 5114 7653 3949 1574 6246 6148 4147 5126 3666 1920 4729 9143 2916 1224 6428 7412 3637 7992 1478 3036 6213 5909 1127 4597 5279 7291 5962 6356 2373 2273 8557 4369 4595 3734 4762 6040 6306 5617 7051 4165 6915 4846 4965 5909 628 4637 4567 4196 8230 2985 5942 8272 4662 7689 2380 221 6245 4566 2118 8859 8074 4470 4828 1445 4443 7622 2144 2693 2671 8880 6606 3298 7058 3802 3941 5085 5815 3311 4793 3055 5426 6959 3207 4344 2245 3395 3790 4909 6018 6906 5093 4682 2870 4589 5987 8814 3476 4786 8147 6409 4274 3102 1366 5765 6701 6251 4215 6727 4881 5745 3912 2364 3596 4571 7483 6696 5926 2367 3168 2190 2274 4999 5353 8960 1332 5380 6634 2841 3693 3225 5167 4520 4960 3936 3712 6268 8157 5992 2100 1621 6127 7755 4437 8466 3608 4588 4101 3119 9603 5470 3627 5166 6740 5865 1131 0 5369 4053 3978 7653 8179 5444 4058 6138 4298 6236 6871 7729 2323 4426 3672 6589 6968 3015 6106 2950 8583 1722 9026 4438 6067 6233 6707 7435 1530 5009 3462 5463 7161 7697 5155 6695 9162 6823 7892 3353 5795 3753 4269 1993 6443 8995 3635 3177 2737 7037 1627 5088 6308 1375 7314 2609 2526 4581 2251 5068 5914 6809 4147 2054 7686 4664 6343 2837 4648 7618 6730 3684 6148 4807 2370 5431 4464 5465 427 767 7417 6760 6261 2298 6464 5973 3619 9581 7597 1665 3161 7565 4299 2590 2846 157 2978 936 8838 9158 5359 6921 5874 3876 4051 5436 3513 5490 5122 372 6024 2113 4988 7446 5737 7716 5967 7216 8571 4553 2593 3362 2974 4139 4105 5629 4432 9464 7845 6563 3478 5500 6047
5928 6215 4392 3401 3290 3529 4647 5246 6997 1784 4560 7271 6260 2196 6148 7970 1554 6226 4065 5168 2572 5427 4748 2998 6065 6258 552 4131 7869 9027 263 3591 5614 6230 2979 4365 2839 7934 6281 8321 5025 4050 5749 1799 6776 4619 9288 1971 6836 2044 5064 2476 4322 8879 3322 5011 4812 7688 717 2275 2027 7266 953 2268 1707 4883 5670 5129 4870 7076 4611 3526 6109 4718 5714 4922 2900 5237 4640 2067 362 2527 5652 7171 6855 3926 2633 4553 8815 4637 3829 6317 8435 9076 7844 8793 3427 5543 8908 4976 3816 5140 3613 836 4676 1943 4141 2891 7438 5879 6703 6666 296 4218 1269 4315 6227 1446 2648 6269 4021 2902 3875 7148 5034 4899 8641 4214 7395 6656 8817 9205 5735 6595 4613 6805 2865 5976 2901 6129 2115 5052 7781 3952 6562 3740 7173 5027 4132 2426 5187 5830 5257 4932 4680 4644 4000 7756 3049 6253 6801 1805 7455 6877 3784 7112 5369 0 3259 1699 4863 3441 4450 7243 8553 3906 6515 2406 7396 7274 4330 8399 4288 3505 4149 8135 4844 5380 3122 5362 5852 7748 4427 4599 3248 5999 6698 8212 6576 2938 2910 2449 4692 8822 5166 3926 2799 5163 5691 6690 8287 7737 3759 5486 7237 4862 4632 7293 4272 4278 270 3856 6032 6835 1678 2754 2345 1502 778 4254 6634 3258 8827 6581 1900 1009 4891 5014 1395 4526 3208 3643 6687 5763 4141 4829 7530 2025 4570 6904 3639 6401 7341 5172 4534 5373 5062 7555 3156 7351 2753 7602 4941 4237 5845 6389 6388 5813 2340 6093 4201 3300 6606 2101 5600 6156 8244 4279 774 4323 4902 3423 6792 4374 2517 3976 5108 3869 4454 3369 5314 6176 3636 6225 4405 4157 8661 4927 2763 5987
3937 2583 5197 8363 6380 1740 3532 9636 7906 4660 5766 8674 4657 6753 5290 8591 5510 5028 5051 7069 4168 4389 4505 5134 6943 5612 5257 7360 3701 2409 7474 3078 8435 4826 5914 4121 5578 4904 8649 8671 9167 2880 4528 3059 8087 8874 5834 7185 4241 5870 5725 4373 5581 5701 5634 1177 1827 3468 4490 8303 3790 5888 7874 1915 4275 6505 3057 6739 2129 2829 4886 3550 2789 7825 8870 5042 1482 4506 8554 7812 1423 2326 6515 1307 7523 6945 8464 3852 6196 4885 5152 3944 4570 3663 6825 3834 2593 3842 5637 3564 6814 5078 2004 909 5905 5271 1265 1632 7269 5862 5069 2350 3286 5496 7331 7440 6666 4660 3371 6729 3730 2363 3373 4606 7897 4289 4992 3477 7212 8498 6195 6409 6630 2393 6719 5674 5507 3978 6704 6942 5330 4703 5072 929 4697 5246 5388 8430 1840 5519 5942 4329 1265 1149 5113 4070 5748 7086 7662 7953 5507 5681 5487 7641 7958 6077 4053 3259 0 7980 5193 1051 4434 3305 3454 9227 7572 5182 6737 8216 5115 4754 3232 7959 5220 5377 5925 5679 2710 3832 7147 5004 7491 6749 5311 1652 4804 5693 4017 1226 7402 5683 4335 4507 4667 675 3707 4340 3022 9878 6355 5962 5245 3456 3027 4838 5280 9314 3854 4597 2791 3535 8412 3925 4215 7427 1938 1252 1499 5750 903 2928 5785 4248 6953 965 5134 7021 4700 8928 6055 4409 4346 6891 3726 5389 6116 5228 2391 5637 7223 3669 8315 4892 6298 5346 4962 5421 5157 4170 3044 4953 3933 4300 774 7440 1940 8446 585 7420 3028 4231 4347 5383 5047 5522 5339 1196 5132 4544 5872 6978 4734 6605 7940 3901 5648 3609 3356 3873 4088 3042 2876 2398 2590 3321 7547 1502 7167 5158
2856 4758 5546 4570 4736 3368 2689 7504 2210 2374 4440 3146 2450 4660 5688 794 2442 4035 6881 1793 4640 6820 7812 4039 2996 5987 6949 4646 3303 7979 2872 6961 3182 7533 8838 7577 3534 8050 6728 2926 4747 7573 3714 5018 6112 6759 4830 4936 8148 7117 2304 6456 7993 6004 6261 4475 5886 7094 3887 8556 9146 5603 3799 5460 6190 5162 7170 8046 6082 7247 2737 4261 4986 4081 7516 6130 5207 2915 7980 3382 5056 2680 7023 5907 4980 221 8377 7798 4920 4027 1769 7073 2947 2879 7480 4407 9569 6239 2760 3194 3630 3359 2358 5562 5145 7036 3108 5864 2137 4818 6563 5002 4029 8035 8732 3573 2377 963 5074 5284 6361 4005 8102 7203 8500 2714 5198 4007 4887 6254 5855 1385 3995 4850 3949 7777 4122 4628 2527 7756 8216 6226 2407 6293 6673 6386 6497 1689 4193 1379 5099 3254 977 5300 3060 3650 9474 2793 5958 5078 6549 1492 3599 5976 2639 5347 3978 1699 7980 0 5955 7884 2200 4978 8612 6226 7232 4894 7393 4249 4777 2797 8534 4225 5460 4053 7667 3961 4796 6960 4165 3667 3332 4930 4399 4751 4887 7802 7867 1114 1169 6697 4148 9567 5308 4058 8252 7305 3802 5536 8402 9611 2918 3358 5588 4966 5841 3981 5774 7644 6716 2774 7679 3500 3515 8973 4997 7918 5799 4584 4109 4475 6684 3449 4341 3749 2313 1714 6352 2835 6005 6433 7784 7400 7562 1011 2052 6636 7517 5600 4278 6252 5477 5368 5865 2447 3738 5238 4145 5434 5772 7793 4678 6629 3282 5775 5178 3301 4564 4558 2022 4529 4438 2880 3521 1438 341 3915 4649 8692 7785 4919 3280 5533 8534 4590 8471 5702 5056 8141 4548 7947 3652 5865 2897 6388 3058 3931 5683 5231
5305 2618 4180 5238 3935 2340 4107 7215 4646 5709 6707 4940 4393 2158 3147 5487 3648 2980 5019 3339 4954 6620 5433 5070 5640 5347 6043 7198 2511 2556 6230 8056 3667 1092 5633 3103 4646 2679 6416 4535 3021 8423 2437 4224 3035 5125 4893 4307 253 9465 5244 6575 6930 1482 7997 3603 4861 2641 8215 4123 5130 8908 7962 6058 6066 7627 3227 6504 5931 2258 2193 5597 5397 2681 4621 4135 6462 4368 3656 4250 2613 6531 3231 771 5929 4023 4993 2965 8453 5065 2205 5462 2041 3324 4912 5950 5406 2762 2994 3526 4771 5445 5386 9818 3841 6024 1365 3377 4686 5481 6183 5448 3724 1191 9089 1802 4878 3254 2804 6464 2816 3253 2968 6691 5886 5095 5517 8833 5907 7749 4132 3132 8978 5595 7186 3115 7177 5019 7888 7080 6697 4412 8031 1365 5787 6346 4907 213 6051 8667 5994 5445 3657 5019 7511 2278 5308 4663 5174 5451 3188 6746 7211 2944 8884 6958 7653 4863 5193 5955 0 2561 7742 1737 4950 7810 2188 6181 5129 7203 6738 6304 4191 3556 7702 4383 6536 4132 3478 6964 4823 4905 1314 6053 5349 4170 3476 2592 6635 7212 4549 7645 5439 7053 4690 8555 7371 1860 4603 5944 7792 9295 5529 2972 4421 9057 4234 6436 4086 3692 3666 7189 8612 6066 5446 7047 5015 3299 3919 3507 2576 3165 8278 1894 8694 4166 6196 5803 4002 8097 1802 1305 8751 4715 5097 4397 3863 7913 6830 4921 4530 4558 8340 8637 9294 6061 5532 4724 1857 6037 4180 6153 6136 6632 6095 7571 4140 4930 3274 3052 8734 1358 2585 2719 4208 9557 5023 2975 9408 4420 5653 4406 5247 3068 2416 2182 5264 4587 3653 5623 5469 8688 4992 2912 4626 8009 7750 4908 6792 3690
8470 4938 4442 4499 1411 5305 6546 2316 4158 6106 4080 8848 3052 5072 4772 4498 4541 5108 3460 6274 5818 4011 2519 2409 5926 2170 6233 4884 1943 4445 4996 2185 3306 4617 4865 4299 4019 4115 8920 4302 6435 4378 4259 3505 5314 5827 3037 7494 9339 4533 8854 4293 6542 6397 8201 6101 7190 8662 1430 4913 6818 7654 6374 6325 6245 4785 3021 4266 7167 4188 2748 4906 5291 2456 5177 4080 6299 6874 3645 8635 8543 1481 4907 8496 1600 4025 2277 5641 6043 4303 3127 8512 2385 4131 4783 4971 3424 3990 883 1573 4438 5288 2079 6623 3070 5266 7882 5032 5241 5165 6738 7671 8178 3147 7589 6717 4770 6839 4205 1092 4608 2164 8176 4024 7577 7045 3667 3478 3989 4812 4500 5189 9147 3916 8176 6637 4024 8986 5210 3624 7024 823 5524 5500 7690 5263 7179 3770 2747 4507 5712 3960 3606 3231 7180 5872 8113 3924 7999 5707 2051 2405 593 4512 5202 6623 8179 3441 1051 7884 2561 0 6555 3291 5539 7061 3622 3692 4526 4564 3319 3983 3874 7742 7608 451 3269 3376 3557 4094 5397 2340 1699 5285 4507 7271 2083 6069 2440 5608 7954 4637 3841 6165 3322 7108 7500 6616 3398 1628 1964 6467 7630 8277 4123 2207 5919 7215 4671 5172 8222 2889 5098 6039 5635 2009 5390 5477 9357 5044 4734 6975 6958 5927 5083 7203 6319 7302 7525 4963 5878 4743 5321 2297 4112 2493 5930 4742 9733 5601 7528 7059 6426 2951 4648 4967 2670 3394 5534 7617 6404 6593 9120 6486 2924 5298 4639 1849 8565 4056 4046 2664 7271 3892 1990 1937 4342 1930 3541 5898 5171 7606 3026 2072 5293 5085 1963 2886 5544 7447 4906 7007 5275 5220 6463 6109 6915 7794 2146 4732
5465 6124 6261 3529 5000 2413 7263 2739 4975 6337 5979 5131 1516 9299 5495 4947 4587 6805 7641 5015 6667 3200 8541 4844 7795 353 4711 2842 3802 3255 5475 5357 3699 7021 8680 974 2474 4466 5906 5216 4267 3030 1340 4485 6851 7047 1443 6817 1429 5574 3531 9667 3009 3561 4459 2646 5447 1909 4685 3383 3948 5755 4743 5866 8206 4785 8222 6332 5414 5103 5569 4234 3865 4881 1034 5784 7088 7073 3906 4760 3618 3135 3146 7736 5219 2685 6111 5243 7045 5745 5796 3169 8425 6218 5813 7167 6603 4725 2875 4330 4632 6218 3281 5924 8496 5652 2763 4601 6846 4793 3005 3212 3811 1602 2625 2702 4238 2923 8531 6170 2675 7201 5351 5155 6082 4324 5644 8059 4081 5751 3468 6860 6147 7738 6412 2858 4231 7919 1609 5203 3126 3440 6145 3370 3916 1080 5704 3524 5151 4181 4720 2890 4182 8408 5225 5520 5210 3197 2034 5363 3817 7965 8521 4370 3797 2628 5444 4450 4434 2200 7742 6555 0 1444 8801 5548 8208 2886 4935 7042 631 5123 4945 5881 2112 8164 4770 7340 3716 1204 3855 7664 6272 7794 4502 2495 1340 2548 7221 4858 4230 5582 3671 3707 3987 2364 6891 4422 3596 4334 8687 6215 3318 4128 8595 4941 3238 5195 2974 5731 3751 3609 5321 7554 4924 5956 8898 4906 7950 2051 5923 6537 9484 2108 8023 5218 1131 5765 1550 3234 7476 6015 6677 4739 4366 1856 1523 6776 6959 3517 2675 6371 5414 6535 5522 5591 1673 5131 8332 8527 7380 9291 5154 5586 2088 6851 7153 2861 7505 6612 4949 7195 7628 5307 8348 3081 1324 6111 3481 6852 7220 6310 2617 6389 6882 6163 2834 4685 2544 7463 2205 3222 3285 5093 2735 3662 2651 6602 4372 6757
7420 3298 2413 7077 5379 365 4576 4352 3814 7410 8124 5080 6278 4301 6060 3363 5883 4571 6332 2397 3146 3160 807 2773 4003 6412 9410 6632 6608 5979 8097 6472 6724 5521 6673 6735 527 2095 5710 9541 2103 2895 2502 5441 6340 7647 4547 3515 5130 3042 9236 2301 5181 3921 1478 2342 2822 4700 4493 4441 5535 5845 4547 5002 4047 3256 3316 7082 4650 1020 8058 4963 5565 4701 5150 3487 6530 8112 2169 4017 5791 5763 4030 2723 6203 970 3407 4324 4833 7488 6770 2870 4600 5046 5547 605 3229 3716 6064 2832 3363 7703 3210 5174 6225 4621 6698 5028 5410 7285 7473 2941 2221 4360 6832 7302 3062 7516 3047 3845 4568 3021 6919 6687 7286 1937 4574 8499 5737 9418 6572 7184 3086 2945 7234 6031 5772 5555 6690 4617 4001 1640 4337 8042 9014 6977 4679 1122 3837 5071 9347 8964 3105 3655 8523 4207 6340 5408 4490 3052 3830 2527 1394 4395 3783 2149 4058 7243 3305 4978 1737 3291 1444 0 5500 5182 3320 5143 8057 6266 1573 3237 6166 2064 2478 6123 840 3602 2800 6223 8138 7574 5010 4537 1885 7643 5719 3700 1427 7146 3698 6595 4824 5955 1708 4763 3357 625 9473 5887 4094 7018 3476 8407 2011 4758 3790 5781 4299 4679 3258 5498 6553 3023 7565 8522 1170 2158 5644 7266 2659 3192 1387 5385 2843 9061 6528 1821 3779 5877 5530 3861 1747 3923 4091 7669 3478 2378 3560 1216 3405 7955 4332 4143 4270 7334 5064 4449 6266 5550 3125 4255 4099 1140 3124 2483 8957 4936 6493 7219 676 6755 7114 5470 2694 1488 9092 1852 8173 6437 7591 4869 5082 4504 8984 5072 4047 2066 5814 4453 4525 2770 4440 4043 1911 5142 4992 4675 3649 3830
7608 6733 4724 2764 2614 2717 8643 4772 6671 8545 5744 6476 5177 8476 7325 6021 8639 3983 1838 3702 1354 5364 7890 5218 7983 3758 4648 1115 1663 5099 5917 4443 4560 4184 6545 7693 3553 4191 9430 2423 4878 7675 883 3872 3482 3462 4171 4432 4286 2070 2883 5971 3911 5813 8440 7442 1351 5762 6433 5333 5657 4340 3275 6514 5623 8642 5755 2209 3801 5171 2461 883 4548 5194 7755 6209 1059 6052 4576 5349 7326 3804 6619 5075 5144 5785 3089 4248 971 2421 4716 958 3840 3503 7862 7150 5437 5060 970 6934 4899 7969 3565 5829 6489 8915 5138 3645 8046 2500 3394 6928 1119 4251 5363 2383 3946 6523 4274 4010 6671 5591 4877 3125 5344 4067 8068 5606 4295 6603 7927 9485 2846 1836 4829 5506 9167 5377 6607 5562 5094 1262 4324 5641 5894 3855 5951 1422 4704 7792 6680 5789 1047 9296 9490 8823 3774 6394 6321 6474 5352 3128 1153 1010 6332 2722 6138 8553 3454 8612 4950 5539 8801 5500 0 8046 7203 7655 2184 7500 2990 5324 4582 4797 1217 4202 3745 3979 5625 5022 5460 5078 6961 6345 4457 1808 2544 7403 4394 5312 4528 3937 4876 5294 8247 3503 2629 7622 9294 4849 2618 4038 3792 3969 4820 4206 4420 1569 5862 5753 3812 5615 4806 5274 5480 765 5520 1170 5678 5827 6264 6163 5420 3669 4533 4015 4834 3667 3127 4833 4070 6087 6225 5314 4757 7209 4237 3466 6386 4418 6314 6634 5675 2228 4051 1697 3769 8999 5113 6203 4137 3323 5178 5141 8993 2777 8700 3681 5344 7879 1305 5552 5117 5289 5549 6220 3306 3307 4596 3831 5932 1740 7132 1262 5280 5544 6002 3835 6147 2876 7271 4315 6972 8504 6470 5124 3000 4799 2079 4700
9106 4129 5978 4725 5292 5408 1503 4941 5445 755 3950 3561 6270 2986 4690 4288 7480 4655 7649 7729 3253 7745 5288 3299 7623 2192 5190 1023 8690 5780 4816 3607 4498 7528 2048 4768 5765 6699 3340 6220 3709 4983 3736 4094 8786 7359 7644 7321 5665 4642 6124 3438 1110 5374 2362 5232 1074 5319 4134 7567 6662 2049 3217 6563 9151 4116 4894 5859 7008 7809 5343 1769 7352 6024 5543 8683 4389 6544 9094 7808 3477 8817 8131 9402 1711 6110 8705 6815 793 6855 2150 5378 5895 3138 6564 5931 7602 7492 6718 9719 4011 7346 6391 3828 3413 7080 2688 5262 6797 5915 4855 7220 659 4484 4077 7056 7909 5728 1661 4245 4252 4561 3462 4963 5232 630 4343 8717 6688 5250 2794 4223 3880 3803 4640 6434 5918 8401 3228 8214 5465 4314 6734 3616 5292 1786 5671 3940 8422 8014 6250 5259 2893 5122 9006 5857 4358 2336 3675 9435 4853 3906 7855 1509 8642 3805 4298 3906 9227 6226 7810 7061 5548 5182 8046 0 6731 8464 4944 6680 6346 8395 6007 5060 3654 9852 3900 5931 2906 1441 4054 5615 5955 4376 5323 4864 5256 3891 4627 5776 6818 5658 4212 2961 2475 7482 5430 3672 3165 3523 2679 3330 6398 3948 2460 5485 6533 5285 2347 3226 6094 6932 4200 8367 6648 7368 2747 7960 5311 5439 6038 5915 7928 5298 7686 3204 5203 7072 8849 4547 9012 5645 4813 6834 2739 5531 5600 1325 3451 4119 5743 3365 5529 7183 4325 1588 5005 3949 2850 4489 7004 5657 2883 5504 5192 5994 4720 5813 6533 4186 5247 5494 5222 4134 9389 6771 6234 3973 9593 2481 5011 5070 4660 5378 2888 5696 8695 6847 7844 8798 6620 4465 7154 2821 5610 5454 6625 2843 9077 9171
4875 8167 4163 4154 7703 3258 261 9170 1782 4738 6699 2565 4508 1309 8527 7604 1340 1535 4272 3804 3049 6057 5646 2403 1849 3656 1906 6630 4297 6636 2572 6665 2215 4314 4964 7314 5040 3808 4691 7729 5382 4641 5103 7007 4855 4113 3312 1883 8929 6452 7241 6642 5637 2122 5533 8531 5574 1735 6970 4535 2154 5505 7623 5764 817 2178 4752 6170 7077 1904 462 6539 9731 6349 2867 1622 6955 3403 5898 4673 5035 3549 5646 4184 4779 4121 5858 5224 8622 4676 5060 7523 8029 3928 4888 3246 6587 9527 4046 4433 4073 5257 4800 5333 4986 6517 4476 2369 4012 4229 4817 3218 4612 1841 6250 6173 7856 4137 2945 7339 6666 5313 6013 7382 3807 4061 5128 7919 7774 8282 1652 8543 4271 7210 3626 9007 5481 3007 6148 2540 4288 9344 5205 3904 5743 4485 5278 1083 8175 5165 1705 3153 5884 3400 4814 5182 3429 2080 5238 5128 3234 6012 5924 2332 2989 2353 6236 6515 7572 7232 2188 3622 8208 3320 7203 6731 0 2971 3016 6625 4720 4348 6239 7259 4447 6397 6402 4751 5358 4235 3790 5024 5238 3098 6042 2973 782 4597 9424 7312 6227 7859 5167 7753 6017 3162 2135 6003 5143 3690 4889 5862 7310 7061 2432 3337 4011 1394 2263 3520 5146 6916 5910 460 7824 3425 3432 4175 3833 5745 3325 3848 7480 4268 3203 3898 6871 2751 7005 5519 4812 6754 2207 8257 3121 313 3152 7849 9373 5080 6561 6428 6800 6272 6477 3966 5945 5340 3143 3253 5197 5043 1522 332 3007 4690 3280 6476 1644 4978 2063 4576 5480 3314 5409 6412 7186 4839 4173 8095 390 5789 3404 4922 7456 6935 5209 2153 9450 4413 7546 803 7138 7282 6557 5768 4884 6806 3316 4529
2565 5463 6546 3893 7953 2560 5188 7443 3614 6406 2248 2223 8210 2362 2722 2497 5235 5909 7628 3710 2428 5256 5371 941 1789 5601 1242 3714 993 6143 5466 5998 1883 5304 1971 5603 2539 5643 5459 4357 5094 2270 8531 3568 5138 1035 4932 5051 4683 5559 2769 7437 4953 3367 666 7247 3700 4926 6730 1545 6385 6787 3764 6604 3230 5717 4017 7480 5509 1887 7226 3961 3050 2423 7732 5512 3701 5443 6682 4668 4986 3626 5090 1606 926 4659 6496 4895 4946 3955 6198 2392 7430 4983 3451 2365 3241 1731 8822 3850 3392 2299 3340 7173 8145 8294 5890 1976 4028 7211 7453 4860 2764 3449 5150 5317 2996 3722 7031 6052 4208 3457 4977 7582 3363 4018 5755 4901 8040 3030 5173 1044 3338 5024 4426 3746 4927 9603 3357 4417 8194 5306 2805 5788 4148 5451 5879 5779 4916 3068 1923 3941 7616 6662 4286 1387 6741 3867 8135 5484 4861 2055 6684 2330 2725 4699 6871 2406 5182 4894 6181 3692 2886 5143 7655 8464 2971 0 5423 5247 8734 3912 8012 4235 2282 7167 1288 1733 4728 5556 6579 7605 1464 7882 1603 3938 1952 1015 6367 2990 8109 750 3815 4295 6206 3694 4577 2917 3164 4273 7437 5293 4704 853 8940 5056 7039 2717 9152 4865 3459 2653 3416 4272 3111 2809 6451 3624 6299 5109 3484 9560 1544 2277 9806 1063 5242 7136 2212 7560 8846 3342 5973 4922 3294 7715 5249 2422 2947 5191 3319 2444 5454 8217 5995 7017 2069 3665 6962 3463 6418 4037 4289 8243 6671 6820 4986 2522 6009 1990 6536 4763 2124 9727 5744 6298 6954 3806 4051 2938 4882 8928 2267 6049 1800 373 6586 7379 4120 6226 8438 8797 6854 327 4314 3652 8041 5657 2884 9118
4049 7224 2061 3573 3691 6518 5818 6216 5183 3487 7573 7095 6158 5110 5163 3468 5524 6799 5979 4990 3635 4684 6672 3431 6534 2501 7371 2431 4761 4670 4271 5108 3977 1481 3718 5875 4978 8246 4219 788 2375 2708 5785 6935 5031 5746 4542 4842 3569 7387 7144 3135 5903 7454 5421 5911 7103 7936 2620 8453 4480 3283 5298 1090 8767 3985 4265 6727 5067 8177 5643 7079 4122 7246 4541 5948 6961 5573 5641 9088 7608 5093 4018 2664 3617 2163 407 2915 6969 3676 4152 5388 1249 3731 2438 3543 2385 3836 9760 7676 3654 7009 6543 4540 3761 3709 6370 4583 4267 5805 2854 5727 5762 6079 3512 3619 5655 7110 2698 2169 2849 6120 5296 1509 4964 7237 4441 2491 6054 8040 1225 5253 5320 3817 9497 4928 6603 9534 4982 5312 5170 3802 4271 807 6475 8317 6017 4975 3837 8303 4785 1967 4436 4808 5583 3950 2287 3813 5172 8926 3068 3705 4725 3451 4741 2248 7729 7396 6737 7393 5129 4526 4935 8057 2184 4944 3016 5423 0 9659 9534 5127 4153 1837 5933 8293 4893 3341 2941 4296 3756 4412 7316 6611 4691 3877 4449 6766 2339 2945 2013 6735 4868 6042 5270 6174 5380 8599 8465 6572 1533 1463 6783 1580 1852 8533 6444 2708 4334 4022 8588 8032 4491 5407 6819 6411 4023 2278 4887 3201 3481 6306 4782 4529 4880 5128 4123 1182 5912 1870 4927 7706 5106 2447 8774 6308 7520 2066 4401 5033 1905 9598 6880 4819 2459 5926 6060 6298 3435 5794 7069 6153 7442 4765 2693 4958 1253 4551 3454 2824 3952 3115 6380 8171 4269 6188 3616 1942 6678 6242 5070 7032 6710 5382 5891 3128 3755 5994 9682 8966 4221 7315 3775 5712 4566 1948 8172 5670 5867 6904
6546 8515 6507 5656 7260 7227 7761 9463 6975 1317 2090 3605 5199 5384 4904 7452 9350 5044 4999 3232 2477 8284 3136 5799 6621 1843 5487 2559 1495 4277 5613 3809 3820 5451 4113 3845 5227 5275 2677 6390 7563 4794 2089 6470 9443 6252 3501 3684 4221 8735 6416 6665 6536 3504 4685 7365 4885 2727 5795 3648 7933 2132 4121 8521 4027 6789 7351 8941 6480 6220 6410 5173 6854 6749 7198 3232 5707 5342 5764 5094 6158 5115 5800 7463 2548 8592 6217 2937 4334 5239 7828 5661 5911 2784 1044 6951 3906 6939 6012 5395 5041 5707 7000 1850 5090 4296 8049 6088 3213 8116 7157 6074 5570 7302 1003 6141 4193 3333 2512 899 3114 3026 3936 4792 3115 6441 5169 2724 1982 5347 4444 8191 5327 4008 4191 6295 6022 3519 4545 7972 2741 7389 4852 2196 6044 4266 4110 7703 4745 3516 4166 1937 2348 7791 5063 4243 4733 1552 3589 3352 1151 5541 5638 7010 6726 9298 2323 7274 8216 4249 7203 4564 7042 6266 7500 6680 6625 5247 9659 0 4803 2139 5736 7550 4549 2298 5576 4107 2583 615 5878 3892 4240 8776 1566 2375 8229 6435 9281 2475 6123 2831 3647 5227 5121 5895 4138 794 5956 5293 5202 4158 2995 3503 3236 8537 7968 6930 4277 1658 2987 4761 2213 1038 6342 5537 5469 5218 5152 6437 5668 7780 4145 1260 6843 3513 4147 5736 8091 2865 6194 4981 3516 8772 5107 3681 4542 4502 3753 2396 7275 6429 8333 5197 6151 2779 5178 4799 7535 4909 4147 5304 3134 5553 2586 7367 6546 6601 5872 5033 7695 3086 5529 6656 3166 4860 4910 1850 8891 4734 5814 4855 3202 8207 3885 5985 3510 8952 6448 3965 1000 3929 1395 6243 4951 5988 3900 7179 5717 4290
6950 4293 7754 2006 6045 6621 7034 5177 7057 8442 5971 5002 5013 3799 759 2714 3219 3704 4602 8223 4790 9024 4712 5889 7351 3480 7970 6455 4470 1913 3834 7685 5051 4506 6423 5566 4515 6480 4725 7480 3683 8094 7118 3880 4556 7863 6732 6371 1692 6592 6446 3167 5487 4453 4426 3503 9474 4680 8767 6621 5348 2232 5001 1941 5447 5056 6438 5199 2777 5098 8827 7065 7889 6227 6188 4750 2864 3464 5072 6155 5156 8231 380 6498 4690 5991 3959 6480 1598 6984 3947 3988 5331 4550 2715 6792 5422 2111 4025 4458 6355 5219 5219 4624 4347 2780 7192 5519 2490 4241 1523 3918 5617 4143 5091 7457 8751 2273 3971 4333 4657 3955 4973 3836 891 4460 7868 5058 6623 5457 6282 2740 5350 4256 2170 6665 6794 9653 4961 5065 6021 3289 9558 4420 8182 3895 6154 7577 5527 2432 3089 4630 5600 4364 2673 4975 6617 5622 2203 7816 1912 7107 4918 4571 3528 5347 4426 4330 5115 4777 6738 3319 631 1573 2990 6346 4720 8734 9534 4803 0 1783 2454 2887 6189 5059 6470 6305 7878 4084 6002 4311 6623 5538 5065 8783 5044 7224 1206 6083 5726 3249 6007 8751 6813 5664 1085 3812 7459 3159 3849 7343 3492 6898 3491 218 4152 2561 8606 5095 4155 5207 6640 5718 6538 7945 6492 3990 5199 2462 1997 5066 5830 7585 6438 5440 4158 4907 8722 4336 6665 4603 5839 7364 3390 3794 6498 8875 3083 6429 1624 6174 6880 4738 6393 5340 3867 6952 9362 5165 6243 7323 4561 6298 2344 7020 4567 5566 1064 2109 5328 2862 9490 9127 5729 5231 3063 1970 4420 2204 4301 2023 4275 7667 5446 7131 4471 7452 4592 4664 3653 2218 4166 3968 5644 6139 3745 3686 8353 5293
7169 3689 5862 9269 4934 2409 5396 1637 3179 5841 7749 1655 4726 2712 5672 3283 6454 9892 5108 5827 2278 7167 7420 6817 1924 2261 2818 4374 8846 6730 2956 5363 3071 3472 6442 3708 4985 2581 3169 6221 5941 5917 3479 4236 4713 3377 4546 2356 8059 4357 7255 3874 3143 7437 7359 4256 4227 5766 3311 1516 9339 8279 6169 6159 5792 2836 6675 2017 3020 4912 938 4962 6690 4157 6467 5092 5498 3003 6641 4811 2769 6236 1214 5147 5110 2681 3187 4140 2814 4079 3734 6394 8754 1419 8646 447 3097 5616 5793 2162 2239 5036 7816 5090 2499 3785 3689 3462 8616 2079 4482 5212 5802 3525 6514 3341 4015 7556 5886 3696 2914 4178 5158 4705 8800 7186 4125 6513 8562 3754 5460 6803 2989 7084 4407 3443 5164 2167 7454 6437 504 2130 3479 7014 4887 6261 1013 2831 5270 2479 4376 2518 1670 8884 5012 1936 3277 3565 5720 5745 7525 5387 7221 1556 6371 9227 3672 8399 4754 2797 6304 3983 5123 3237 5324 8395 4348 3912 5127 2139 1783 0 5216 4878 8559 8012 6410 5400 6658 2115 4845 6428 5058 5223 3564 3480 4958 749 7690 4314 5018 487 6960 1693 1930 5429 6382 4422 4253 5152 4612 7383 4976 2630 4793 3820 4120 6126 3607 8480 2531 3914 506 1388 7385 5535 969 5241 4915 4972 7641 2248 4557 7089 5668 2152 7577 5915 5847 6223 1723 6003 3623 1257 4302 5068 2837 5461 3325 7929 3639 6374 5146 2438 5414 6127 2410 525 5804 7301 3918 1448 4186 1749 4018 2384 3976 6668 3998 7290 1883 4817 4479 2184 7108 4922 5676 1062 4658 5956 7031 5092 8133 6375 7786 2392 3976 6509 783 5572 5342 5516 4725 6361 4750 5631 8489 5224 4001 2404
3649 4993 8400 5076 5108 1131 3131 6444 548 4303 4877 1119 3872 6346 4676 4725 9222 4517 4690 4217 565 2408 1764 1922 6463 5476 6885 7336 6925 5974 5706 1748 7902 3002 6973 4095 6763 4375 1168 1195 3339 7825 2808 2350 6705 6187 5584 6227 7974 4958 3342 4489 6847 4026 8165 6664 3194 2807 6635 3661 7823 3681 1788 2967 4452 6002 6340 1698 6473 6753 5195 5479 8712 2718 5117 5387 3149 8316 7901 5276 4729 7876 5236 4540 4300 4935 5982 5408 4670 4917 5287 6297 8376 2185 5611 3885 5892 9306 4649 8956 5495 8585 3113 5596 4537 2751 880 2608 5415 9093 4148 4126 4698 4162 4811 5862 4719 6119 7399 2274 6157 6951 7763 1742 5067 6405 3936 1877 3830 6178 4677 7215 4885 5079 5135 1701 139 6301 3805 2097 8845 2913 3077 4605 6366 4847 7704 5909 3650 5035 8347 4761 5344 6992 6839 1194 5965 5924 5591 6204 5512 8499 2413 2460 6561 4588 6589 4288 3232 8534 4191 3874 4945 6166 4582 6007 6239 8012 4153 5736 2454 5216 0 3884 8210 8046 3128 4754 6397 1181 4539 3149 5248 3392 1662 6486 6368 5484 3519 8534 3344 4843 8538 6013 1920 4595 2520 3569 2108 7556 4855 5410 8004 3905 3371 5845 5495 3161 8239 6778 4239 4047 6640 5972 5747 3075 4944 4799 6185 3631 4357 4776 3575 2732 5479 3465 4530 3195 5169 4718 728 1114 4593 6622 5159 4608 1903 6962 2759 4851 5528 4472 2375 8914 4223 4132 5735 4254 8996 4278 3480 4853 2126 4760 6713 6154 7071 3222 5971 6568 843 5859 4766 5512 6865 6813 3410 3406 2357 3914 4897 5400 9171 7795 7704 4758 4098 4796 4621 9240 124 5377 2649 2161 4028 2087 5618 3623 4391 3261
6770 7499 5603 5865 3783 7524 6075 5404 3617 5053 7737 4634 3302 5326 6532 2397 3082 4090 5237 7867 1974 7649 7952 2401 4432 6381 7492 5842 4411 5414 3299 3734 3504 7296 5839 2171 5874 2072 2527 5759 4512 3998 4392 4518 3060 2601 7267 4183 2987 4017 5088 4961 6079 9112 6941 4247 6342 3392 4485 5359 5787 4315 6463 3139 6134 3694 2764 5111 5580 4293 3080 6705 5988 3846 5771 4506 8062 4145 3844 3557 7681 4591 3573 2766 2484 4611 3095 3327 2610 5259 5353 4436 4649 6533 5018 1783 5085 3234 7436 690 1446 1325 2208 2538 4187 5688 4113 5428 3479 5453 4063 1310 1724 4588 5914 5347 6118 1702 5555 5341 6880 3746 2965 7805 5604 2354 6988 9341 7419 6324 1210 6640 7904 8287 3851 3884 5488 8270 7425 7382 3632 5925 2798 7648 2996 6529 3327 3520 7300 6047 7738 903 8800 4578 1856 9709 5928 4907 1233 5627 2247 4620 5864 4842 4210 7292 6968 3505 7959 4225 3556 7742 5881 2064 4797 5060 7259 4235 1837 7550 2887 4878 3884 0 8028 7899 7565 5816 5719 7881 7003 6717 7893 5997 1644 4801 5227 5643 3872 2858 2905 2366 4176 3778 7892 6693 6553 3597 3443 8396 6281 2896 6009 5440 5713 3992 3580 8584 7112 9527 8527 4437 1607 7588 3780 4179 4225 3444 2297 9188 1181 7080 4419 6573 4882 7770 5571 3267 6406 3504 6335 42 5511 4879 2680 5182 7224 6517 702 8059 4803 4779 5766 6947 839 3198 6690 4019 4985 4873 3853 1386 5511 6800 7807 1861 2529 3723 6913 4757 7110 3325 3688 5210 8023 5361 5241 3668 4943 3706 5560 4327 6907 4039 1423 3496 6713 3084 7197 5847 9316 1961 4355 6221 6192 5297 3583 7187 8573 8882
5897 4520 6503 1882 4612 6536 3732 4636 6296 1625 6497 2620 7481 6520 4367 4955 4400 4636 3827 5543 3002 5546 4785 7343 704 4811 4378 2565 8249 7790 4756 2528 7324 7462 2537 3063 1027 4799 5531 4881 4949 2379 7841 5259 6903 8421 3392 1741 1149 5376 5807 5205 1478 5881 6146 7168 5621 8889 4989 4126 6686 3204 4257 4022 2941 3852 1799 6142 1805 4264 6130 8320 5643 9155 4005 2950 3718 4006 7534 2334 6615 6367 3651 2599 5737 7011 5889 8658 2534 4948 5702 3893 3776 7497 6593 5281 3573 4529 4836 4736 1852 1136 6478 5436 5619 6170 1253 1177 4988 6805 4768 4946 2268 2991 3274 6475 2947 8034 3348 5349 1493 5301 6804 2965 4662 5091 8637 4494 8739 2657 2135 5546 2647 4408 7233 2626 4227 5418 8020 6140 5680 2983 3897 6806 5489 7142 2496 2488 2473 7102 7608 4543 9285 1851 8979 3607 3557 3015 3862 5723 4442 2661 4177 6521 8080 4328 3015 4149 5220 5460 7702 7608 2112 2478 1217 3654 4447 2282 5933 4549 6189 8559 8210 8028 0 6250 4860 1572 3962 8464 1295 1666 7777 4566 5364 4435 4508 8093 5458 1594 2788 9778 4369 6626 7541 3817 2598 2370 7537 5283 8768 2719 7263 7283 2417 2798 5708 8934 7516 3525 2720 3597 4835 4854 1940 5785 4451 5308 2716 6817 5828 4443 2244 4131 8082 8146 6352 8250 4644 3200 5444 7425 2613 428 7166 6359 5895 6029 3127 2231 1426 2885 499 4560 5724 6345 3582 5057 6899 4493 6782 3421 1226 6065 6654 6628 7485 4101 7333 4735 3945 7237 9775 2696 5250 1412 5598 4845 4824 5471 1656 8500 6906 5062 5213 1500 5769 5694 6313 3132 5118 5857 5073 9739 5012 3820 5055 4817 1281 2726
3079 8567 5715 5713 4403 5203 6095 6513 5655 3483 6466 3534 4968 3239 4878 2792 2971 5450 4791 4461 6519 4778 1738 3818 5902 4848 193 6849 4403 5001 7130 6854 8682 6553 3901 5684 5458 7605 1873 6698 6390 2359 2735 5859 5724 6348 4479 4586 4447 1575 6563 3515 3454 7982 6446 2480 3624 7031 7069 5253 6262 5979 3004 6020 3943 6548 6586 6489 4367 2528 5541 2552 3819 3404 4964 1146 4288 3949 3355 5767 5013 5298 2749 3601 6519 5337 2864 5825 7246 8417 3994 3393 1071 7124 6418 3196 4598 4899 4890 7740 6595 8045 5032 5532 8030 5649 1210 6878 6698 4667 2450 7435 1270 8258 1447 6478 4999 5963 7178 981 5016 3031 8224 7734 979 6481 8274 4131 4304 5204 5228 5837 3792 5694 7273 5770 5250 7905 6069 4982 9301 5264 5157 6914 5125 6092 3011 7767 4544 843 4398 2347 4125 3305 4565 5541 5206 6097 7011 3115 6376 5438 4684 8552 6727 1519 6106 8135 5377 4053 4383 451 8164 6123 4202 9852 6397 7167 8293 2298 5059 8012 8046 7899 6250 0 4726 656 8992 4477 6691 4120 7731 3969 3656 4997 7004 3630 4756 4013 8284 1518 9671 4946 3165 6356 9189 7244 3973 1061 6047 5072 6558 7470 7453 2616 2209 5666 2526 1968 8505 5246 5649 4547 5937 5922 6039 5746 8795 4205 8412 3981 4699 4768 6485 2416 3599 4363 4380 6189 2362 7261 3837 4529 1585 4257 5043 4748 8426 4849 2482 3487 6619 3852 4393 9920 6057 4657 4196 3417 4280 7243 5179 8596 4682 8188 4744 5471 8826 1013 2279 4945 5890 1444 3329 6237 4912 5929 5862 310 5929 7995 5096 6087 2292 5001 5112 5342 6232 6438 4828 7450 5342 4092 4008 8121 2922 6322 4577 8440
3185 5202 3701 5333 2925 4123 5011 7090 7582 5140 2210 7340 5674 4441 3764 1934 7373 8457 3712 5797 4356 4029 5591 7625 5923 5235 5120 7281 3718 5473 7921 8287 7175 3116 4773 4439 5564 5896 6037 3362 4516 3584 7763 3930 7437 4675 6737 3834 4401 5398 4392 3156 4582 4594 5614 4935 3915 4326 5769 1614 3944 6079 6817 7387 6640 2441 4440 2743 8252 4304 7363 4119 4925 4316 5303 5406 7958 5781 3146 2512 1928 9000 7622 7272 6175 4441 7574 1462 3304 3381 1589 6426 4790 7448 3925 2166 4535 6261 5829 4212 7973 3484 1691 3734 5498 946 7225 7540 7952 9716 7398 5949 5051 3820 784 3604 2881 6835 4792 4098 5531 8136 7582 2730 3093 2775 6148 6726 3176 4968 5947 5897 4814 4493 1508 2972 9388 7683 6305 5324 6488 5280 5212 6993 5292 4472 5356 5326 6337 4791 4231 4749 5776 3696 4756 1336 3102 6759 5897 7661 3015 4326 7693 4854 3727 6252 2950 4844 5925 7667 6536 3269 4770 840 3745 3900 6402 1288 4893 5576 6470 6410 3128 7565 4860 4726 0 2145 797 3134 5067 5178 1590 6226 8712 2502 4217 4200 6586 2442 1093 4916 993 8834 5511 2482 6521 4282 4267 3277 7155 4974 1048 8453 3724 4699 893 7219 2986 5309 7118 6036 446 7649 1421 8600 3940 2818 5489 7368 4982 7708 5246 2458 5277 6336 3958 2696 8404 5893 1924 1461 3508 4288 5640 6650 7131 3410 6692 8232 4074 4597 3843 4390 3666 4931 4714 7116 3993 6705 2948 4663 4823 8770 8574 6271 4695 7509 5648 6345 3103 6729 4290 6006 3572 6500 3698 447 4527 5482 2613 3732 4989 5751 4599 5292 6286 3434 6654 1701 3742 5960 6045 4215 3618 5089 3376 6308 6200 3749
8726 4818 6656 5900 5386 4955 3121 8069 7581 9733 6707 3428 4246 5029 6156 5368 9206 6781 3876 4273 5089 4144 3243 3199 4233 4103 3038 6756 3070 7906 6740 4491 3086 2228 5946 4718 2149 7655 6777 6731 4226 7812 6459 7686 5191 3571 3426 3151 3561 3724 7054 5941 8713 1473 4528 4776 8365 7197 5137 3867 1392 7247 1905 2215 3006 1271 6148 7780 6246 8718 5731 4946 4825 3453 6847 2166 3857 3264 1853 3472 9020 3018 6839 4828 3043 5929 6326 3099 5796 5529 4075 2398 7695 2782 8331 6711 4761 8732 2201 7567 2135 8081 6021 5518 7964 7129 3398 9855 2473 6386 3485 4439 5882 7082 4601 2621 4193 3345 5349 3511 5327 5657 5507 1840 5237 1621 6507 5257 3812 7197 8809 7107 6901 6009 4381 2433 897 3942 1793 8349 2421 5428 6038 6384 6220 8366 2599 4605 2378 4945 3985 3874 6315 4819 2461 5928 2651 3869 4271 5475 1946 5161 6126 6321 5295 7512 8583 5380 5679 3961 4132 3376 7340 3602 3979 5931 4751 1733 3341 4107 6305 5400 4754 5816 1572 656 2145 0 5292 9177 8468 6500 7406 4486 3622 5661 8295 9351 5540 3992 3717 1057 2099 7153 8225 2991 5705 7360 6708 1992 3972 7751 3392 8169 4597 6751 6437 7629 7156 3565 474 4388 3131 7349 6358 4399 2864 5362 3271 6960 2628 4816 6218 3512 5548 6997 7780 241 4540 4229 7922 7937 7517 3164 6012 2719 5354 8335 4607 2270 1945 3263 7460 6703 6327 3102 5412 5462 6203 6004 7528 9084 2311 6788 2948 5529 5217 2877 7753 6199 5110 4905 9588 4530 6060 6078 7688 1246 7735 7435 1124 3849 3522 1726 4945 5932 6341 4883 3980 1661 5728 5190 6852 2116 2796 5417 5290 4256 5999 5423
3559 5553 5177 3626 6596 7820 3364 1806 3704 8218 6819 370 8007 1881 1401 1287 1093 6725 5910 4699 4819 6933 3812 3274 1379 3363 6532 5287 6972 6963 3560 6863 5474 4551 5059 5049 4795 5455 3641 5237 9393 2295 5484 6930 6947 4862 8322 8513 2793 4005 2084 7223 5222 4456 3885 5084 5462 5978 4402 5329 5285 5125 6826 5108 5568 7308 919 7519 5050 5987 2841 7837 3829 1702 6556 1170 6012 7820 5156 5063 7416 4545 4598 6184 4283 8043 4876 4769 2821 2828 2890 5120 651 7005 7157 7616 6164 6190 1582 1862 4567 7437 3566 4198 5230 3030 7170 6170 6378 2425 5284 4610 6610 3794 6378 1673 5956 4576 6957 8135 5456 6213 2169 2414 6321 5062 7618 440 5474 6120 7460 5411 4372 6904 1895 6474 4669 7723 6603 3853 5024 4142 1873 5464 3867 5216 6678 2823 6343 3846 7391 7656 9194 8380 955 4524 2377 6058 1847 3231 8165 6276 5251 6127 8601 8935 1722 3122 2710 4796 3478 3557 3716 2800 5625 2906 5358 4728 2941 2583 7878 6658 6397 5719 3962 8992 797 5292 0 6354 5491 6897 2528 4612 5891 8825 7248 5641 4676 6654 3890 2303 5179 6152 3021 4250 4461 6273 8551 8187 3825 6632 5266 8488 4442 1948 6880 2253 5537 1957 5203 6382 4509 6923 3396 7405 1912 5426 3824 1087 265 3277 2006 4169 4197 6990 6333 3903 1562 1130 4345 5319 3846 6006 7944 2718 5352 5108 4777 6557 2993 4223 5084 5485 4696 6277 7433 9004 3752 3711 4588 4465 7452 7165 7186 4542 7801 4605 1543 4717 6834 4564 2741 3594 3352 5088 6804 5161 6843 1922 4780 6348 4633 8911 6403 5621 895 4416 2326 4592 1339 7139 3105 5958 3862 1251 5120 1289 1513 3868
7187 5998 8323 3961 7029 3636 3260 5831 2373 5765 9190 7839 5723 5399 3879 5639 3940 5272 1564 7874 7028 4648 3813 4650 4025 4865 4478 8208 4742 5796 7221 8056 2737 3347 4715 7605 6429 4237 6711 3644 5900 2714 8633 3334 4349 3813 6162 6567 6036 9180 1772 1572 428 4493 2762 5031 1742 6970 933 4783 8989 1602 7953 6563 4928 2695 5936 1119 5119 5309 8269 3944 3366 4735 2787 1563 5884 3818 1355 6552 4160 4608 3827 4757 5063 8122 5991 5448 4749 7162 2973 4177 1006 7016 2663 5335 5600 1588 4495 3487 5327 3354 4739 723 6662 8348 4255 4889 2450 6180 4338 6928 2556 5734 6493 3972 2492 8183 4866 3083 2558 5321 5321 3474 1299 6180 6544 3609 5101 7349 4865 6180 4628 3740 1790 5551 4786 3137 5440 5988 3636 6570 2861 1720 4684 6975 2686 2975 7300 2267 1752 7066 7026 2396 4194 6294 6794 5585 7596 5408 6615 2004 7264 2944 9722 5586 9026 5362 3832 6960 6964 4094 1204 6223 5022 1441 4235 5556 4296 615 4084 2115 1181 7881 8464 4477 3134 9177 6354 0 5918 5109 886 3457 2968 3157 5854 2090 5567 8886 2056 3633 7801 4145 2317 6456 4557 3277 3204 2842 2316 4026 4805 6797 5706 5243 6602 7978 3573 8810 4133 6806 7208 2470 6851 5085 5773 4159 4012 4761 5816 3946 2054 3902 4591 5604 4177 8690 9352 3212 5560 6481 5963 2496 4555 4637 1711 5537 5094 5202 3407 1151 5201 5941 4904 6040 6152 2585 2320 4477 4951 6940 7124 6385 3595 2836 6032 4692 2027 8285 6917 1903 2323 4136 7695 8408 6878 2008 7061 7333 2541 7238 3555 4030 6899 7352 7636 5068 3816 1553 5249 1746 4675 8376 6928 2533 3997 7031 5422 6607
4951 5278 5303 9845 4627 5220 6746 1619 4435 6670 2136 4311 7013 4202 5786 3156 4040 1525 1538 6233 6986 1733 6412 1955 3053 6889 4343 1387 5421 3100 4040 3472 7407 7348 5233 6700 3726 3293 5188 2586 3259 7205 979 4467 8341 8565 5770 5645 3716 6988 5842 7016 4178 1757 4237 8591 9002 4816 4940 6290 5463 3515 5548 5360 4485 5569 9516 7878 4134 2079 2374 6555 2335 6132 7220 4287 5512 4075 4041 2904 8005 1056 5531 6001 6950 1363 4295 2542 6854 2432 3840 5442 4556 5158 7141 5400 3002 3742 5121 1783 6188 3229 4337 2109 7258 6828 7428 9560 6314 7814 7754 2060 3237 7473 3257 3906 4448 6661 8745 8792 9808 2850 6629 3980 9019 8032 2547 3832 4887 4696 7237 3900 7300 6991 4540 4506 5895 3290 5151 1361 3139 6859 5472 5937 4185 1697 2344 7953 7413 3464 391 4507 7363 5987 8831 5489 4731 9496 4233 4735 5484 3137 5005 3857 3120 9341 4438 5852 7147 4165 4823 5397 3855 8138 5460 4054 3790 6579 3756 5878 6002 4845 4539 7003 1295 6691 5067 8468 5491 5918 0 4654 6786 6396 3439 2012 8760 7444 4092 3648 3682 7483 9051 1132 1263 6893 4648 4947 3670 3497 7910 3608 2412 7928 3377 3438 5882 5357 4912 7522 3319 3124 3849 5563 8725 4424 4350 5939 5746 3464 6723 2065 6443 5011 4537 3267 4847 4484 2377 311 3711 9221 4401 9578 6739 7652 5523 5143 6707 6411 6341 7748 3772 4696 2915 2716 3694 4409 3511 2628 4041 4907 5839 9555 8095 5717 2998 5626 2880 1580 3880 6475 7133 2243 3559 5852 8542 5678 5560 4710 6772 4798 5028 5119 4566 6865 7910 7587 2659 8212 6758 3902 9335 5816 7328 4846 3165 8819 6855 5166
6030 5077 1212 1302 4914 7373 8095 6280 1372 1500 6336 5636 2281 4974 5327 4642 6694 5264 3130 5274 4785 4508 3106 2838 3447 3002 6349 7429 7831 3059 1344 4891 4022 4356 2053 2117 4056 2995 6458 1166 5043 2505 1013 3885 5655 3154 6521 4509 7153 7343 6853 5202 4181 5308 6490 6994 5886 6646 8036 1613 8050 6144 3280 7574 5536 7233 2519 6014 3654 713 8554 6418 3826 1839 4237 5990 6177 2178 8079 7710 2872 6450 7531 1130 6701 5420 2069 9075 3526 4815 3319 3725 896 4700 4637 927 6233 9546 2117 4201 6507 4024 3080 3584 1749 5485 5045 5662 1372 5780 8652 1425 4456 4542 4714 4065 2054 2910 3393 6214 5044 3263 1170 5087 4895 9298 7048 6784 2610 5608 671 5489 4252 3328 5451 971 6744 5615 3110 7893 6900 2131 2330 4942 8277 8428 4327 6721 8014 3409 4100 4602 4777 806 203 4264 1620 4667 6232 4494 4607 2518 8720 4653 4457 1611 6067 7748 5004 3667 4905 2340 7664 7574 5078 5615 5024 7605 4412 3892 4311 6428 3149 6717 1666 4120 5178 6500 6897 5109 4654 0 3101 1770 3822 5964 2740 8610 7115 5247 5280 4593 7982 7903 3720 6271 7499 4414 5443 5926 6380 5106 2272 5342 4200 3294 3063 2501 2051 9179 6128 8773 6132 1495 6584 4222 8800 9042 4832 8518 5792 5395 2206 6205 8861 2829 6109 5461 2340 5259 7336 2539 4368 4305 4240 6049 3864 5441 5174 5705 7572 7388 5124 8741 5331 5498 5100 7831 6024 8818 884 7149 4647 5133 997 8144 8243 4333 8009 6287 2663 3367 7337 5431 4871 6744 7517 3701 5485 5708 5681 4738 4590 5677 5272 4992 5615 3983 7328 2663 6839 861 5738 5577 4275 6006 454 7197 4369 6580
2597 6304 5141 1661 6057 570 7360 3934 4711 4829 3596 7840 5121 6057 3959 4880 4218 5381 3259 4317 6966 3479 5317 6454 6103 1226 7782 6959 3239 8234 6586 5401 8293 3745 5214 4691 6960 6790 2735 7786 3088 5114 5843 4873 7248 3411 5426 3644 4407 5883 4362 2271 2641 1022 3180 8050 8244 3039 5155 2165 6188 6353 3546 3098 1538 5269 5362 5964 5844 4927 5458 5822 8349 7790 5189 3084 5229 3477 4452 1452 2346 3115 9197 6252 3246 1415 5857 8097 6769 4331 5796 7713 8617 4629 3252 7159 6798 2232 3037 4478 5746 6593 1218 2858 4996 4613 2176 6697 6057 7532 6327 6132 3057 4580 4745 7621 9094 8068 5688 4210 6416 7405 9275 3551 2036 5789 4832 346 2839 5310 1435 7934 2741 3319 6858 7869 6610 3146 6595 7389 8013 6452 2555 2595 2021 1869 5739 5444 6002 4962 6419 7360 1217 1462 3965 2870 4256 8400 1985 2753 7367 5315 3735 6123 4431 5220 6233 4427 7491 3332 1314 1699 6272 5010 6961 5955 5238 1464 7316 4240 6623 5058 5248 7893 7777 7731 1590 7406 2528 886 6786 3101 0 3566 2241 3098 5124 6557 5134 2715 5132 3725 3449 4974 7576 5450 1813 8331 7927 4094 2643 3132 4949 6185 5287 3545 5221 6448 3296 5912 3022 5647 5537 5738 1650 3802 4697 5833 5363 2532 2411 2275 1707 3524 7787 6025 5146 1224 4750 4947 6282 6701 3782 8502 6723 2418 4390 6894 6298 5141 8343 4643 3348 906 6233 6159 9198 5027 6529 8335 7846 4715 4379 3946 4195 8763 5102 6750 3391 5018 2482 4786 6388 4658 3269 7932 4545 3964 7748 1801 4924 6343 4469 6318 7238 7701 6973 8709 3419 6264 4981 7425 3905 5251 8132 5763 5078 4167 5081 5337
2352 5659 6991 6058 7759 5491 3396 6173 3188 4345 3677 5913 5227 4057 3477 6097 6645 3414 6908 5123 3607 9656 2611 5345 5081 5895 4149 4961 7441 5223 6847 6576 7223 8515 1850 3208 6562 1657 7744 3925 4949 3285 1186 5324 5357 3175 9773 5266 5954 7354 3064 3597 5568 5803 4884 2341 4184 3054 7503 4848 3730 8701 6719 4353 3669 2440 8460 5575 7064 5044 4241 4153 6886 3650 2141 4342 3358 7897 6726 8118 3596 8947 7072 8290 5215 2067 6889 7679 1421 4657 7158 2382 6705 2699 5001 2992 1023 3534 2335 1269 4841 8789 4798 4803 5635 4231 4922 3278 3288 4145 8358 4407 4568 5585 5665 4970 908 125 5634 5715 4743 7967 4869 2810 7948 579 3881 4538 3861 7614 4658 4492 1830 3025 4916 7112 3552 4294 7500 4755 2897 8960 5065 4368 3793 6058 6190 7264 7217 2149 3462 2630 3641 5194 5040 5934 4902 5570 5245 6782 8722 5484 3348 5582 4847 7712 6707 4599 6749 4930 6053 5285 7794 4537 6345 4376 3098 7882 6611 8776 5538 5223 3392 5997 4566 3969 6226 4486 4612 3457 6396 1770 3566 0 6663 1045 7235 3332 5563 7496 3966 9085 7918 6786 3613 7019 1684 6501 6351 5229 1441 6150 6812 4634 5869 3464 5901 5353 4565 3986 4301 1098 9029 4054 4225 6183 4180 1460 162 5109 4717 2532 1507 5627 5694 8638 5944 4238 5559 2986 6201 3770 4181 3031 5202 2446 4327 1282 1840 1855 5219 6521 5646 5462 5142 7572 6786 6180 4495 7356 3438 6349 5385 6074 2648 6633 6048 7689 4842 6554 6165 4635 5782 7344 4070 6036 3057 6063 4298 9010 3627 4553 5298 4396 7615 8784 3770 4510 5204 4156 8556 635 3056 2279 7183 4120 4231 2375 6380 2630
5939 2708 5927 5369 5654 3403 2583 6181 3325 9246 4826 8882 5390 5547 7546 7848 7434 7234 6051 1460 4045 4197 6020 6877 4696 8176 8417 7485 4565 2445 6598 3871 2080 4073 3139 3652 3852 6130 8586 7576 4549 6408 5780 3326 5707 2985 4223 5737 3134 5075 6268 2482 8840 8192 3315 3916 5833 7255 3343 5170 3594 7757 6369 2956 2801 2616 2187 3080 7402 7896 6560 5064 6024 3723 4768 3989 1995 4654 4464 4750 6142 1623 6334 5143 7359 1982 4259 4226 4606 4626 6386 3469 4922 5916 8696 4488 3811 2104 4830 1889 7278 7379 3698 9457 2691 2685 1002 5813 4298 5813 4970 3897 5806 4281 3068 6145 4490 6369 5786 4159 4513 5477 8372 7871 2198 4583 7076 4488 7221 5067 7875 6993 7599 3758 5228 7107 5895 1671 3928 8629 9795 7600 7933 5200 8247 511 8594 2977 7354 4702 5807 5101 6051 3969 6497 5796 4331 6009 6071 9007 6002 7545 5977 5781 5516 6088 7435 3248 5311 4399 5349 4507 4502 1885 4457 5323 6042 1603 4691 1566 5065 3564 1662 1644 5364 3656 8712 3622 5891 2968 3439 3822 2241 6663 0 4824 3836 5616 3631 6658 3927 966 3780 3860 5195 7012 5675 4650 7378 5907 3998 3315 1990 8862 1829 2757 3084 6792 3948 1571 6724 6263 5016 6502 6232 4231 2066 6471 3725 9831 5089 4505 5732 4047 3122 3093 4347 3910 4655 6922 2596 4439 4838 5816 8439 5266 2821 7305 3307 3716 3325 4991 7006 4907 7236 3100 5457 5682 5706 6394 1364 5594 5193 3090 3491 5423 4947 4729 5691 3110 2610 4922 5762 5233 5436 2794 2609 2490 6011 2094 2961 3491 5178 5858 2025 2932 2350 5383 4511 5928 2905 3077 5820 1498 9026 2955 5256 5538 6468 2355
9529 9140 1138 3766 2643 7989 1933 5589 8060 5772 6910 1435 4832 6068 3932 7202 6532 3645 5701 4783 5846 4201 4937 4544 4383 3360 5715 6805 2977 6295 5294 8278 6518 7339 5785 5741 4423 5791 3593 6521 5217 5685 8050 4378 4258 8311 3772 5599 3526 1263 5973 1628 4108 2773 8815 6567 3937 2323 5607 6321 6703 5784 2721 7319 8816 4126 5379 5859 5244 9049 1583 4945 6561 3354 2730 6127 4900 7224 6564 5576 7550 6736 8337 5389 6646 3102 2146 3549 759 5227 8697 7924 3750 6203 5377 5635 3432 3672 2053 4903 2963 2866 6266 4483 6390 2826 3948 6034 4273 8116 6842 7528 7284 5001 2832 4439 5974 1756 6383 4392 7484 6950 4005 3481 6112 4449 4427 6640 4276 5459 1391 4822 5300 5345 6128 7473 4421 1352 5927 5908 5767 2388 1719 8935 3734 1342 4399 4990 7301 6824 8436 5528 3947 6823 6386 4372 2988 5441 3040 3355 4781 3441 1083 2930 1779 5410 1530 5999 1652 4751 4170 7271 2495 7643 1808 4864 2973 3938 3877 2375 8783 3480 6486 4801 4435 4997 2502 5661 8825 3157 2012 5964 3098 1045 4824 0 4866 4271 7661 3078 4944 1891 5100 6055 6863 1898 7696 3215 6205 7215 4957 4034 5888 3050 3276 7302 3028 5601 7547 799 7680 8810 6347 4575 5408 4964 5733 6634 6459 8220 5083 3786 3134 5110 6996 2907 4289 3860 4926 4500 4751 6091 4882 2122 4262 2235 1530 2289 5530 4832 3237 2801 6824 978 5309 5202 5634 3065 3571 2890 6467 6200 4988 5719 7309 1671 2075 5748 6522 4545 6365 3478 7486 4305 5784 7911 6341 1039 4200 4511 6908 5315 6476 5736 7033 5192 3531 5517 5329 2178 4205 7167 7378 3371 1772 2216 7237 3232 5683 6282
2635 5393 6432 7489 6102 4766 4404 1822 2644 3944 2187 6574 4477 5088 4401 3880 5269 6143 5656 5408 2319 4340 5879 3708 5022 4875 4541 1452 1707 3059 7024 7649 5351 6821 6142 5321 5524 6511 9503 6119 6204 4886 5274 2891 7376 8885 4345 6167 8347 2743 3167 1132 1751 5983 4750 4971 5203 2637 9705 2684 4820 5020 4933 4245 2340 6619 5397 4813 7819 3481 2491 7827 3545 7393 1728 5247 4227 7559 1988 4201 505 7096 5689 9793 5958 6006 7755 755 2157 200 6365 6292 5882 7315 2779 7326 8404 963 8500 4024 5646 5992 2545 9371 7883 8464 6909 4370 5874 5501 5253 5555 8314 5343 2707 7631 4640 5685 4379 3988 4367 5889 1849 6228 8710 1826 6337 7075 5126 6647 4179 4787 5117 4309 4309 4906 6749 4935 3039 6726 3090 5003 7803 5946 3099 6135 9203 5842 4858 5194 7651 5979 2842 8291 5153 4787 5608 3239 7242 3349 1885 1811 5325 1497 5810 6772 5009 6698 4804 4887 3476 2083 1340 5719 2544 5256 782 1952 4449 8229 5044 4958 6368 5227 4508 7004 4217 8295 7248 5854 8760 2740 5124 7235 3836 4866 0 5943 5274 2272 6280 5116 5086 176 3047 7413 8645 4229 3332 4271 5204 4648 4925 3040 8114 4301 4554 4325 1351 3150 9269 6351 5112 6366 6191 3560 2609 1531 3675 9314 1576 5600 6898 5226 8630 7541 3924 3647 4026 3554 5997 5231 1733 4524 6614 2699 6470 3700 4985 1291 7643 5757 1680 6352 7838 1626 5221 5079 7262 4860 5813 6237 6039 2393 5372 2153 6442 3585 8118 5357 6987 6996 5719 2468 8106 4406 4317 1248 4301 5277 5660 3240 2948 4608 6443 3864 2631 538 6037 5994 5756 8677 4845 5347 3608 3730 3962 5797 6753 6628
5353 3829 2712 3864 6319 6676 4813 2867 5532 3958 5105 4004 1513 4194 7494 7360 5262 5562 8042 5403 2474 6479 5843 4494 6867 5740 4927 1446 3682 5756 4612 9034 7340 4712 3764 7735 1140 8075 5455 5345 7105 3692 3582 5853 7915 8161 5580 3301 6853 6035 5603 3012 2930 7243 6919 7383 3361 5683 6101 3704 7705 2626 3765 2082 8168 8190 6713 3091 6843 2539 4445 3274 7264 6667 3183 4959 4739 8199 7441 1854 2567 7662 6410 5142 7431 4353 2016 4176 3625 3704 954 5884 3778 4152 5966 4643 4226 6102 2986 3463 8681 3857 5199 3877 2346 4582 4115 2324 5039 3428 5823 5609 4454 3718 3341 5353 5216 8988 5051 6303 6526 1827 4080 5734 4458 5445 2267 5163 2522 5367 1641 5801 3389 4384 5573 2258 1870 5272 2434 5663 4410 5244 4735 3816 6366 7520 4381 5129 4455 7202 6834 7462 6884 7558 6341 4724 3315 5836 3455 3378 2506 5049 5909 5556 6169 4895 3462 8212 5693 7802 2592 6069 2548 3700 7403 3891 4597 1015 6766 6435 7224 749 5484 5643 8093 3630 4200 9351 5641 2090 7444 8610 6557 3332 5616 4271 5943 0 4791 5948 4285 4128 1568 9585 7832 7289 2763 7472 3044 3839 4422 2592 6457 4929 6564 4284 2388 3804 9909 4905 3674 7158 3586 7290 3045 9213 8388 1730 5521 4426 3851 3985 4011 5453 3559 3485 4800 2825 5163 3820 7404 2546 2969 4073 484 6936 5358 3622 5190 1674 5835 6362 4769 1096 5243 1043 3445 5087 6708 1833 7514 6237 6016 5673 1341 4608 6803 8562 5673 8217 4019 9424 8500 2619 8651 6789 9100 6750 4970 7320 5362 3431 5875 1527 4494 5525 6826 3153 5854 4636 8680 1584 2791 6347 3500 4476 4618 7338 4027 7022
3804 6125 6028 6924 2875 7388 2740 8032 3949 8227 4588 5403 5673 2870 4769 6868 3234 6053 5778 5193 5405 5425 2947 6541 7284 4342 5235 6559 1847 7196 7629 4566 3167 5618 2132 3278 5169 4487 3188 5365 5107 3973 2909 369 2830 3461 3804 3600 2615 3896 2749 8106 5425 8402 4294 3754 8046 804 4735 6248 3357 3634 3916 6003 5214 3715 6473 5098 4904 7003 5856 5142 7781 2802 3092 4762 8192 3103 4467 1794 8394 6291 3896 4236 5992 4047 6289 5508 3591 4007 6432 9133 2738 2755 5034 3848 1613 1099 5948 3332 5363 2669 9191 5324 6750 4677 7680 6063 8611 4486 1025 4028 1969 6252 6115 6818 7552 9463 4424 5603 1082 4551 2625 7293 741 5222 3981 6346 3048 5758 3775 4755 6656 7038 5957 9122 3575 7236 3333 5510 5825 3265 4326 3366 7315 6511 5220 2946 6756 1172 5058 8810 3714 6339 6835 7208 8325 4350 9541 5475 7143 1650 5798 4057 4824 5127 5463 6576 4017 7867 6635 2440 7221 1427 4394 4627 9424 6367 2339 9281 1206 7690 3519 3872 5458 4756 6586 5540 4676 5567 4092 7115 5134 5563 3631 7661 5274 4791 0 3343 8652 4792 2704 1772 2260 5887 4574 4301 1573 4404 7747 4366 4700 6954 5941 2083 2734 7807 4902 7686 3764 2330 2964 2647 4806 1754 4040 5686 6420 1621 4346 5388 8269 5287 3052 6117 4998 4117 3473 2296 1593 4978 4169 6061 8458 5219 6194 5810 6282 3799 6839 4693 4426 6446 5519 8109 5987 3699 8636 7669 4973 4829 4353 5258 6258 6318 7271 4572 4602 4679 5995 7959 8341 4008 2559 6430 2763 2831 7445 3139 6574 1707 2404 4258 1635 6987 2146 8690 3612 6335 6751 739 5850 1761 2264 5889 8265 2018 4369 779
5667 5302 4837 8323 2383 9013 5579 6572 8247 6709 3962 5955 4797 9096 7444 6115 3150 2523 5404 2469 5209 2532 8029 6941 3224 7615 2060 2458 3871 6071 4566 2414 5700 3615 3694 8739 4157 2233 3833 5231 3955 3316 1792 4210 6683 2584 3608 2882 7084 4024 7703 2677 8779 4062 8842 5313 3499 1573 3587 6583 4023 5973 8049 3055 4036 7960 821 3901 2843 5723 9290 9200 2265 5641 1469 5654 7864 2892 1051 2679 6824 6845 3037 5918 2719 2324 4833 2045 6535 6194 2577 5057 659 4228 4765 8209 6567 8626 3073 8868 4053 3691 9192 4378 3115 3786 6787 3399 6321 6057 3573 4990 3322 3340 6557 3783 4067 1625 6877 5272 4463 3265 5468 7890 2919 3931 3363 1805 4737 5150 7468 2037 6696 7634 4589 4179 1424 5758 5027 5139 5308 5671 3516 6391 5977 5143 3378 825 2513 2766 3240 4149 3587 4271 6131 5467 3281 3327 7217 2493 6200 5822 4707 4551 3675 2462 7161 2938 1226 1114 7212 5608 4858 7146 5312 5776 7312 2990 2945 2475 6083 4314 8534 2858 1594 4013 2442 3992 6654 8886 3648 5247 2715 7496 6658 3078 2272 5948 3343 0 1901 1058 871 1547 7378 6210 3343 4965 7313 3020 6645 3408 2786 5033 7081 2741 6098 3066 4385 3551 4786 3860 5150 2158 6629 8077 6055 4207 6177 4495 3778 931 6772 4899 3609 5730 7994 5447 7189 6241 4272 6412 8338 9356 1850 7506 707 8401 5981 6702 3846 8170 5054 7429 5803 4430 8569 6260 5636 2909 4565 4717 7904 8164 6980 5333 7972 2403 5620 4595 1470 8479 7022 7068 3053 5573 5643 6642 2858 4653 1945 1609 8380 8549 2432 1634 4540 9391 4487 5029 5178 2841 5161 5543 4497 7222 3793 4910 4399 3711
5809 3124 8122 7878 8898 7190 6278 3963 6747 5520 6164 3455 6340 9169 5877 2897 5927 5530 5273 5147 7874 2332 6257 4293 3541 5044 6089 3549 6780 5382 4971 7204 2789 5397 6753 1023 6363 7976 2247 7390 4732 4490 5499 8345 9229 5965 4139 2401 1534 4246 6502 5655 2293 1951 6235 1884 3581 5063 741 5899 2973 4920 3383 2556 7621 1173 2164 3244 6798 6915 2392 5333 6236 3870 3700 3773 4525 3402 8554 4281 3712 3960 5542 2490 3925 7497 6611 3421 6073 3953 5806 1869 5364 5940 4782 4508 5464 2981 2518 4062 902 5404 2695 3390 1989 280 4093 2776 1808 4648 5856 4456 3275 3498 2967 1012 8212 5668 7145 5462 3739 5151 3573 4076 4802 7537 7260 6821 4533 1547 7936 4177 8486 7985 7381 2416 6384 3328 8097 3551 8946 1942 7843 3367 6436 4419 5129 3369 3877 2247 4447 5451 8183 4195 1834 6804 5553 6577 3098 5338 4250 7005 3772 5760 6024 6491 7697 2910 7402 1169 4549 7954 4230 3698 4528 6818 6227 8109 2013 6123 5726 5018 3344 2905 2788 8284 1093 3717 3890 2056 3682 5280 5132 3966 3927 4944 6280 4285 8652 1901 0 6180 5634 5740 3138 4487 3321 6333 5438 4605 1047 5970 6825 5633 4757 8008 4509 4647 3645 1683 6693 3101 2769 5838 7827 2948 4829 6459 4545 5006 5252 1804 6043 3312 3911 2394 4594 5979 5323 2647 7137 5273 5621 8135 2369 5419 2192 567 4445 3373 2728 7120 8332 2715 7326 5658 4420 802 6736 8063 5105 1888 5217 6772 8700 7401 3444 6116 5758 3993 4180 5621 5640 6744 4990 7291 7567 8543 5014 3304 7941 5780 6948 4727 2989 1229 7296 7669 3716 3014 6090 5260 6521 3534 5569 6550 1049 8610 3200 1132
4875 6340 3194 2318 8192 1624 3007 5202 7589 3903 6550 6527 2038 4305 5899 1063 7026 5679 3667 2396 2579 3472 4771 1916 3204 3775 4506 2273 7188 7552 7298 5084 2882 7135 5260 8013 9620 3091 5723 3279 5857 4517 7221 4384 2601 6159 3437 3285 2497 3248 4520 2116 9245 6029 5857 7699 4231 4404 2256 2723 8111 5915 6032 3253 5121 2979 3439 6100 7723 4401 3698 3430 5035 2418 7085 5090 4284 5663 3328 4865 5963 4626 6087 8549 4569 4606 5878 1512 4197 2905 6030 8021 5404 2486 6654 3318 3533 6309 2296 3753 4087 5086 6900 4516 7048 3211 2951 7599 8736 7193 4135 6334 5634 5796 2146 3527 4291 3623 6103 5377 2150 8774 7674 4968 6851 5119 2197 7468 4015 2777 3025 6450 9208 6417 2688 4855 8025 4005 5627 5982 3761 2936 3930 3867 938 6259 2746 4870 9255 6671 4921 2017 6087 4528 4118 8212 5539 6141 1998 4398 8897 4876 6205 6633 4770 5583 5155 2449 5683 6697 7645 4637 5582 6595 3937 5658 7859 750 6735 2831 3249 487 4843 2366 9778 1518 4916 1057 2303 3633 7483 4593 3725 9085 966 1891 5116 4128 4792 1058 6180 0 6481 3402 4312 2516 4980 6070 4335 2689 8154 5654 7068 8176 8463 4648 1150 3360 5655 4983 7762 7638 8004 2248 6045 569 4331 5107 963 7108 7396 3799 3115 4168 3657 6689 6130 5957 4314 5817 8605 4981 3111 5745 7958 4984 1453 5229 2776 5842 4747 1527 4893 8462 9184 5749 5152 2769 6830 5371 6788 6104 2025 3642 7745 2333 1801 7202 2774 7345 856 5179 2371 4869 3693 6269 5155 2432 4689 5414 6191 8181 4528 6498 5547 3886 6236 5913 7152 4716 5727 4290 5817 8672 5433 2870 7391 1409 8153 1696
2228 4352 2259 4714 2038 4059 7295 7629 5914 8755 5709 3473 6934 5275 4268 3428 5558 6947 3400 2058 5089 5688 1365 5298 4712 5461 7064 3006 3626 3854 7839 9821 5264 4466 5650 1042 2414 7082 6172 3126 5127 4849 3265 4942 5901 5442 6997 3930 5205 2399 4670 2784 5097 2299 4562 1880 2941 7936 3856 8627 2326 5804 4903 6740 2466 4830 7304 1259 3228 7445 2256 6742 6136 4293 8612 5385 4147 6299 602 4238 2321 6127 3925 5295 5123 5343 7493 8098 1496 5648 4125 3945 3152 4482 2556 4753 4346 6096 8104 6977 4608 1032 3235 8261 5682 6863 1821 2616 6478 5330 5158 3493 4630 5799 5635 3712 1890 3551 4262 6996 5724 2413 4330 5383 5977 5563 5103 2729 6377 5643 4724 6185 5406 8064 7449 3546 7545 7298 4078 5626 2178 5390 7564 5543 6336 2958 7971 1834 7782 6559 5552 3652 8441 3948 7270 6429 6095 2412 7608 5940 5385 5696 7173 8709 3214 1918 6695 4692 4335 4148 5439 3841 3671 4824 4876 4212 5167 3815 4868 3647 6007 6960 8538 4176 4369 9671 993 2099 5179 7801 9051 7982 3449 7918 3780 5100 5086 1568 2704 871 5634 6481 0 5987 1994 5812 5105 8645 1875 4890 3207 7393 2186 4283 2933 3242 2660 5868 3950 2867 4595 6422 1665 5099 4342 1824 5575 4103 1067 7252 2793 7846 9571 5157 7154 7151 5140 2837 5645 3484 6366 4075 3120 4445 4690 5409 1575 3249 2112 5036 2548 5302 5746 3651 5338 5597 5353 4817 6902 7612 5513 8150 5866 6915 4263 2492 4029 2591 7026 7231 8197 3325 3345 2456 1702 5096 7973 3529 5446 9034 7297 6255 4535 5046 8399 6206 6868 3339 5285 4837 3962 3214 4050 3176 7352 3486 1198 6353 6961 8090
2545 2331 5126 6251 1268 4089 7044 1909 4467 1726 8920 8063 2807 6534 6212 7826 5521 5310 5134 4780 4315 4130 3838 5891 4935 8884 5320 6434 8254 4808 6473 3033 8137 6375 4895 8280 3530 7623 4285 2575 7932 2513 1049 8195 5144 7466 9316 3975 6623 5537 7478 7736 6361 2061 8518 6699 3265 5007 5682 4018 6755 3376 5272 7451 7141 6505 8192 8226 4973 3463 7601 2011 2856 8430 3286 6565 4841 4089 7619 2470 4356 6292 5383 4768 8333 4275 1189 2903 4288 7699 4837 4654 7577 8840 5749 3768 5558 6991 5428 4969 6596 2189 5954 5239 5353 3178 897 4767 9066 5230 3370 4560 4018 6484 5187 2165 6379 6656 4625 2923 2902 5004 5077 3746 2917 5063 7996 3063 4052 2976 7505 2756 2959 7846 5697 6134 3293 1119 4791 2013 3077 2645 2958 6734 5135 6282 9193 4184 4476 4526 4445 4529 5610 1534 5875 3468 1286 3489 4757 2514 2464 7189 7504 4112 2694 2448 9162 8822 4507 9567 7053 6165 3707 5955 5294 2961 7753 4295 6042 5227 8751 1693 6013 3778 6626 4946 8834 7153 6152 4145 1132 7903 4974 6786 3860 6055 176 9585 1772 1547 5740 3402 5987 0 3738 2673 1931 2979 4360 6790 3832 4182 3759 4156 9131 3571 8214 7835 4463 878 7470 7669 1788 8607 7417 3090 2958 4195 7079 3830 3350 5281 9705 2710 5332 5402 7850 7375 3064 7076 2633 4239 6017 6323 5463 7971 1741 4242 5398 4362 5340 6030 955 2716 6728 4374 4472 3784 2895 4550 6813 8861 9102 2701 4030 5431 6176 5439 5172 6483 8880 4725 5626 8052 2435 7532 5233 5103 5268 6339 7084 2482 6659 7296 6863 5415 4170 5482 2871 5235 4616 4555 8619 9673 3619 9042 7121 5437 6233 1126
8800 6090 5386 4817 4680 5918 7500 5375 7824 2185 4145 8620 3811 5071 6113 4111 2163 4781 6394 2633 5033 4571 4477 1250 8048 1523 5336 2214 7962 9096 7267 4130 6239 4949 9201 1598 4531 7050 5408 7354 3742 6883 6255 5478 7025 8486 7365 6014 5352 4360 1804 8325 7385 5823 1025 2598 5360 2846 8857 2577 9449 3775 5046 8117 6872 7598 2249 8320 5711 3900 5131 4674 6344 992 5911 6194 8017 4549 3045 4779 1002 4946 3284 1977 3958 8519 3891 2416 3372 4993 3659 3702 6368 8761 4531 5889 5143 5029 6137 1140 6515 5549 3454 5204 2098 9640 5450 6665 7441 5217 6227 4609 5356 7856 8073 1930 5098 2640 3275 6851 6380 7133 4172 425 7633 4118 6315 4905 6377 4179 3424 3140 5066 2825 4113 3994 6734 4173 5803 3386 7139 7016 7445 5984 6795 8370 7685 2658 5403 7467 3962 3664 1655 3989 6036 1781 7896 3946 2541 8622 3787 9149 4213 4539 1470 4749 6823 5166 4667 5308 4690 3322 3987 1708 8247 2475 6017 6206 5270 5121 6813 1930 1920 7892 7541 3165 5511 8225 3021 2317 1263 3720 7576 3613 5195 6863 3047 7832 2260 7378 3138 4312 1994 3738 0 4584 1687 1627 1826 1240 8559 4600 4355 7385 2923 4600 1759 1894 1113 4703 5537 5333 4092 6196 4736 3782 1982 6094 2494 4583 7664 4735 8288 3794 6530 9075 5114 7054 8464 5176 2202 8317 1756 1789 6125 878 3573 4086 6960 6884 3127 4088 3153 6790 2755 3922 5263 6999 5208 7041 4613 5218 2993 2274 4461 3686 5706 4077 5114 1698 6222 5450 2138 8809 4518 1044 5366 5045 3038 1816 3003 5570 5304 6979 3217 6084 3664 1040 5748 3869 5313 5651 8757 824 9145 7809 6439 2886 3837 3739
6790 9019 2919 3133 6744 6402 3299 3513 3579 5430 7238 5863 4920 5881 5676 2610 7898 7125 2222 1414 6100 8381 6820 5312 8386 5301 2514 8366 5995 2429 3911 1518 4645 5260 1085 3079 5961 4323 864 4025 8210 6984 3939 6793 7032 4306 7627 5584 4846 7101 5909 7440 1432 3993 3467 4756 4748 8810 4725 5300 5938 3198 3307 4523 4803 8036 5872 5574 3361 2291 6905 7335 5005 5111 6314 1377 7392 3407 6653 8849 6820 6146 3997 6406 5957 1771 598 7662 6813 7127 5696 6433 5567 4618 7148 4617 2333 5583 3331 7244 5051 4591 3590 1436 2829 4405 6064 807 4456 4929 6006 4403 6078 6116 7345 3451 6766 4649 3223 6780 1275 5456 6427 3252 3961 7362 5271 1931 6989 4350 2966 4387 3917 3048 6106 7118 7312 8252 7766 2076 8019 6989 7097 4864 5182 3609 2602 2187 4239 5660 6747 3424 7339 3452 6101 6272 5634 2516 4286 6583 6265 5059 3622 4225 2410 5542 7892 3926 675 4058 8555 7108 2364 4763 3503 7482 3162 3694 6174 5895 5664 5429 4595 6693 3817 6356 2482 2991 4250 6456 6893 6271 5450 7019 7012 1898 7413 7289 5887 6210 4487 2516 5812 2673 4584 0 4455 4415 4286 7324 4137 3501 5050 1446 8137 4367 4421 929 8172 7824 7528 4721 2841 4221 1880 3476 5237 4246 3260 5287 5879 5356 6433 2174 5717 5717 8206 4408 3967 6220 8668 6689 8624 5505 8420 9107 6167 5080 4889 5829 4541 6765 7610 2179 6067 5573 7698 5055 2635 8070 5630 6459 7109 6604 6648 2892 5059 633 6456 5177 5770 4359 8657 7656 2914 7003 4405 7145 4281 4112 3459 2770 5105 6716 2325 718 4425 3486 3549 3856 4899 7050 6073 5093 7547 2920 3870 5173 4533 4659
4038 6812 984 7360 6093 7862 4119 6315 4273 4131 2774 4331 5428 4776 4114 8014 2768 1511 5512 7143 1453 7112 4961 7509 8643 5388 7104 5175 1745 4298 6437 4909 5194 3888 9867 1799 5567 4480 7193 3958 8234 3815 8014 8875 2155 2584 2454 3850 5036 1711 4452 3945 4540 7669 4381 6875 6361 6227 1077 2154 3762 2959 6347 5354 3422 4308 3738 1862 5896 5818 3090 5568 4373 5422 6208 9264 2199 4542 6439 4080 3279 5571 2966 3855 6897 2642 5569 6272 8215 4980 9604 6305 4552 3552 5910 4962 3431 7796 5655 3589 7314 2417 7415 6807 6766 5556 5506 5752 8155 5501 5823 2360 4182 6136 1676 1243 3903 1740 2404 4946 9774 6958 5629 7318 3381 3549 6076 4570 2292 4988 7731 2913 2788 3540 4442 9490 8853 4659 3425 5210 8652 4615 7649 4846 5976 5496 5066 3698 4341 8400 6228 6194 3802 3805 6804 1212 4914 4499 2457 1667 2793 3909 5923 519 2515 2731 3353 2799 3707 8252 7371 7500 6891 3357 2629 5430 2135 4577 5380 4138 1085 6382 2520 6553 2598 9189 6521 5705 4461 4557 4648 7499 1813 1684 5675 7696 8645 2763 4574 3343 3321 4980 5105 1931 1687 4455 0 6307 2152 6526 3884 5090 5609 4858 6193 1897 5739 5924 8089 8807 768 6539 4781 4866 5302 5810 7066 6577 4558 5387 3356 7214 1195 5801 5730 2928 5975 2985 5408 6567 3273 8910 5163 6303 4506 1652 6207 3671 544 6677 4535 2741 4121 6990 2413 6949 5816 4859 3911 2515 5601 7426 8082 5997 8695 4371 7249 8031 4705 2677 9150 5705 7785 5918 5680 3117 5541 6930 8152 1539 7356 5820 4883 5120 6910 3177 6278 2124 4345 6450 9072 6925 5979 5628 5472 2730 6602 5731 9376 6290
4636 8726 766 1405 4226 1937 5138 4866 5316 2051 6202 5774 5922 7642 2330 6119 7458 3114 5977 2395 5906 3895 6957 6587 6725 5766 7377 8152 2144 3198 1542 4355 1086 6785 4171 6906 3931 3224 5113 6577 8174 3499 4004 2138 9674 7562 7196 5766 4384 6634 8582 4650 559 4127 2975 2662 3513 6173 713 5961 5349 4625 6611 3979 4555 4618 5966 3266 3936 4147 4759 3752 7249 4122 4884 3543 6299 4706 1319 4453 4770 3342 6484 3808 5181 6177 4921 4183 4539 3892 7644 4195 2025 5483 5020 441 2647 5241 5352 4025 8138 4096 779 1890 3421 5450 5136 4484 8124 8667 2646 4652 8231 4091 6788 4218 3133 7295 4249 4982 8914 6960 3523 7101 7672 5611 8173 5812 3847 7322 7653 1506 7842 7258 5281 5763 3388 6571 6509 3410 3912 5329 4060 3159 5683 9207 1817 2272 8744 2248 7915 5244 6914 3402 4652 4794 5727 4729 7034 4741 4077 5977 8043 8664 7569 8295 5795 5163 4340 7305 1860 6616 4422 625 7622 3672 6003 2917 8599 794 3812 4422 3569 3597 2370 7244 4282 7360 6273 3277 4947 4414 8331 6501 4650 3215 4229 7472 4301 4965 6333 6070 8645 2979 1627 4415 6307 0 3004 7571 4490 7717 2890 6563 6928 8062 4379 6339 4656 4702 4527 4733 2072 4782 6154 7578 4037 6441 6051 8842 2895 7081 8362 1660 1556 8206 3125 5759 5923 5309 7184 5004 5485 5258 3602 2938 7059 1294 5147 1389 3280 6068 4454 5725 3937 4439 3927 7953 2896 7551 6277 706 3819 6767 4293 6221 4188 4568 5296 3041 7581 7855 6065 5261 6919 4518 7759 6258 4052 6167 5245 4658 7869 4631 5975 3846 5951 2397 5787 5647 3561 5206 4000 3848 6780 8893 2834 5209 3329 2860
5511 5036 9117 4889 5404 4039 3585 3259 4443 4788 1913 3999 6465 5530 4675 6257 1350 1432 3926 8907 1380 4585 3370 8614 4605 4510 5840 4961 6804 4064 2196 6148 5552 3250 5053 6490 4878 5343 5550 4227 4894 6992 3512 5686 3021 6011 7513 2429 2601 7588 1529 4176 2046 160 2253 7256 2498 1762 6208 6769 3368 7628 1683 8452 4330 6448 5658 4081 4998 7765 2775 1681 5523 1743 9064 9184 5870 5112 2943 8197 4168 2732 4451 8856 3228 8256 3350 2685 1178 4448 6193 1864 6419 6526 3080 5947 2785 1595 5844 1781 4135 8055 4167 5943 6867 3448 8211 4596 7881 5491 7663 8511 5168 5881 4282 3455 7618 5146 6036 7482 7718 2587 5768 5070 4803 1226 6139 4886 1662 8220 5593 3415 7759 210 9245 4504 5436 4141 5674 1954 6071 6311 7810 4983 8935 5715 7352 5734 3603 3914 3858 4696 3658 5801 5660 6796 3299 2490 5731 4435 6502 8868 4321 3995 3670 5072 3753 5691 3022 3802 4603 3398 3596 9473 9294 3165 5143 3164 8465 5956 7459 4253 2108 3443 7537 3973 4267 6708 8551 3204 3670 5443 7927 6351 7378 6205 3332 3044 1573 7313 5438 4335 1875 4360 1826 4286 2152 3004 0 7275 188 5694 4342 2693 4066 242 3581 8505 9120 2708 6674 2368 3894 6892 3608 8468 6459 7684 3516 5455 5100 3784 4574 4122 8603 4308 2864 5020 6417 3607 4070 2015 6899 3128 5932 8624 5495 5385 2206 7679 8448 5647 5759 2759 5249 978 3729 3077 7006 1733 5045 5192 9484 5970 4765 988 4593 7718 3126 3812 3185 6139 690 1008 5917 5186 5150 3442 5890 4057 1161 5962 3234 2652 5398 8206 5088 2864 5194 1909 3680 7229 8293 4569 2746 2930 4656 4887 2825 4627
3138 5584 5105 4056 6008 4469 6615 5417 5578 5444 6570 7216 8266 7339 4229 5123 4588 5102 9713 4684 5994 5718 5152 6375 6146 8133 7793 4350 5719 3186 7528 5593 3968 4686 6153 6619 2127 7886 5474 6750 3838 4432 5840 3353 2589 3113 1230 4746 2148 8661 8142 3199 7388 5847 1123 1482 3791 6802 1141 580 2603 4355 8513 3598 4932 4962 7018 2903 3966 6365 2938 6223 4790 9819 5526 3073 4922 1979 3254 3640 8875 6733 5353 5028 3978 7771 3726 6078 2724 4465 5234 5779 5737 666 3867 5838 6496 2377 1652 4320 4840 7461 7602 6520 2919 6403 8039 6677 4206 6942 2573 2102 1573 5565 5635 4320 6463 5201 7088 7702 3596 6058 8557 4534 4326 6363 8319 5193 6392 2329 6413 1603 5295 4036 5483 4990 686 2402 4508 771 7377 2510 5372 3506 7869 2698 4670 5972 5579 5010 6992 8982 4668 1463 7516 4525 3660 5627 3978 4801 9720 3295 1555 7026 5675 1730 4269 6690 9878 5536 5944 1628 4334 5887 4849 3523 3690 4273 6572 5293 3159 5152 7556 8396 5283 1061 3277 1992 8187 2842 3497 5926 4094 5229 5907 7215 4271 3839 4404 3020 4605 2689 4890 6790 1240 7324 6526 7571 7275 0 5843 8721 3373 3933 5578 5133 1880 2785 2052 6672 6630 5195 3026 6028 8838 9173 2968 4037 3465 4396 6173 6012 3146 7050 6003 7843 3753 6048 5780 4475 4176 8580 5520 2682 4745 1721 5314 7041 5299 2852 4934 5654 6481 4153 3406 6312 5547 8939 4426 5147 4129 3968 5382 4231 4865 5971 4552 3972 4958 3322 4760 9565 4753 1060 8244 7978 9658 1065 2781 3748 6727 6824 3664 5814 6199 6187 5354 1804 5740 2475 5289 7439 4730 4481 5971 6123 3162 5390 8024 3713
6134 3454 3940 4150 1731 5325 5957 157 5960 8546 7837 3010 5836 4087 3554 3587 7074 3399 2492 6374 8047 3457 860 1794 5777 3915 2160 8166 5476 6367 4371 2036 5763 7186 2091 5907 2585 4859 4878 7196 3231 3006 6299 1854 2861 5981 8455 4191 3233 5740 737 6061 7904 1203 2954 7544 3959 2271 4866 5596 2182 6748 8726 6641 7077 4331 6449 3278 1991 7405 4428 7151 4152 2875 4366 1653 6418 6715 5728 4732 9241 2648 7782 4808 5517 3167 1383 3060 4303 7763 6276 4602 2416 6054 6943 1896 6397 3958 3070 3179 5264 5457 4126 4394 5797 8115 2778 5773 5449 475 7928 1271 5166 4218 5439 5243 3697 4631 4118 8789 7105 7284 3411 4425 6542 6154 5214 6977 3231 5676 6550 4020 4893 4590 7088 2357 1409 5611 2689 8105 3658 5476 6429 7247 2591 6796 2955 3387 3255 7894 5379 2166 5553 8053 4071 8321 3593 4492 6885 6748 5224 5793 4407 2000 6544 2271 1993 8287 6355 8402 7792 1964 8687 4094 2618 2679 4889 7437 1533 5202 3849 4612 4855 6281 8768 6047 7155 3972 3825 2316 7910 6380 2643 1441 3998 4957 5204 4422 7747 6645 1047 8154 3207 3832 8559 4137 3884 4490 188 5843 0 6513 4922 3941 6233 6711 6311 6234 3373 4515 2820 456 5739 3909 4910 2207 5500 5074 3782 6372 4032 6604 5320 5181 4352 6782 4518 4056 6702 8633 7723 1106 3016 6257 5759 5183 4920 3486 4496 2160 4918 3524 5755 5556 7442 2493 9069 3714 5041 5212 4656 5258 7862 2142 1524 3022 4503 1292 4860 2973 3281 4492 3243 4647 4511 5172 8128 4926 4690 4148 3336 9020 5878 9684 4634 2135 7761 7059 4987 4225 7668 1309 6001 5295 5872 6701 4335 5146 5494 3903
7508 2731 5735 3492 3163 3717 5339 1971 2808 4309 6467 1740 1149 5327 4994 4676 3092 2986 4959 6281 6927 792 8390 5362 1619 1730 4403 4509 3699 6444 5505 7329 4810 8882 992 8038 4585 7893 6193 6285 6858 2994 4509 2576 5512 6687 3507 4304 3295 4473 956 7340 6358 4694 7112 8221 6328 4772 7451 1506 3304 6109 2669 6406 4541 4844 3737 1765 3351 6643 5831 4899 6650 7393 2653 3843 4589 7939 5859 6037 4509 3052 3157 5075 5022 4196 1414 3126 5100 6496 4349 2949 6690 6475 7289 4821 6266 2879 6584 5448 2178 6584 3066 6888 2719 4637 6883 8143 2102 4650 4666 6930 4725 7919 7024 7115 1942 5987 7272 1426 5524 4621 7316 3801 3731 5708 5435 4210 3050 5395 5934 5420 4981 8172 2941 5931 7954 2070 4489 5091 5142 5758 4452 6963 5649 5202 6913 6965 3285 8039 2343 3259 1439 6171 3261 9585 2873 4718 7574 3628 7992 4724 4654 2396 8653 2771 6443 7737 5962 9611 9295 6467 6215 7018 4038 3330 5862 5293 1463 4158 7343 7383 5410 2896 2719 5072 4974 7751 6632 4026 3608 5106 3132 6150 3315 4034 4648 2592 4366 3408 5970 5654 7393 4182 4600 3501 5090 7717 5694 8721 6513 0 6245 2865 4367 2908 3880 1440 3157 4828 4027 4847 8000 6818 3683 4014 4601 6344 4633 4524 6179 6667 4939 9050 5865 1897 2716 5151 6544 4386 3891 647 7913 5232 8667 5017 6371 4239 6044 6786 3317 9454 2900 4805 7211 5584 6533 4178 5858 5079 8746 4098 8418 5013 8010 5418 7905 2782 1379 2185 3095 5233 1368 3834 5792 1371 412 4618 1148 7456 6611 5948 6413 3537 8698 7880 6666 4246 5543 3722 2879 4899 4119 4836 4277 4324 3983 4803 1460 3231
4294 2455 4301 4665 5956 3357 5773 6841 6176 5608 4314 7261 2913 4560 6236 7707 2980 1636 4500 1387 9794 5097 2775 7243 3150 6493 3593 8645 4516 9111 8367 4565 4282 9150 4268 3842 5557 5853 3268 6805 5495 4164 2547 3225 1606 5667 3360 4726 842 6159 3942 1452 2414 1575 2882 4738 5299 3317 6844 7108 4450 6374 7781 6160 6684 3435 5762 5781 4640 2142 8813 5096 7907 3621 1582 5005 2311 6516 5251 1540 7361 3901 7337 5424 4626 2459 7010 4728 1815 4444 5204 7209 1587 4805 4689 2998 7066 8710 7871 1409 5308 4077 2683 2861 2227 4243 8150 6404 3746 7540 8289 5271 2777 2834 3084 8772 5497 4054 4433 2014 7519 3454 7588 4702 2077 4622 7050 7286 6721 5384 5600 7719 6031 1825 4429 7797 5816 818 5119 1417 2574 4469 4850 5861 1910 4838 2896 6203 4741 5574 6754 5309 5353 6284 4939 7312 4568 3204 4201 3555 7286 4938 5800 2420 3097 6985 8995 3759 5245 2918 5529 7630 3318 3476 3792 6398 7310 4704 6783 2995 3492 4976 8004 6009 7263 6558 1048 3392 5266 4805 2412 2272 4949 6812 1990 5888 4925 6457 4700 2786 6825 7068 2186 3759 4355 5050 5609 2890 4342 3373 4922 6245 0 3465 7991 6175 2793 4786 4936 8242 3606 4763 8880 479 9605 8995 8254 6237 5804 3090 5326 7055 5150 2886 3094 5712 4754 6040 5981 5019 2209 1656 4846 3491 6286 4540 6494 1267 5670 3713 2023 3442 4921 8184 4365 7964 7879 7565 2628 3152 1438 7020 4447 4328 3616 7171 3018 4580 5793 4882 4352 3485 4691 3508 3005 5271 3892 5308 6955 7587 3407 4221 1777 7980 4333 4608 4838 4490 6222 2714 4213 5481 5701 7219 5060 4250 6504 6160 4031 5025
4594 8805 5003 7020 7869 6125 3143 4586 6725 3983 7537 6936 6301 4460 3586 4632 1622 7379 5517 2081 9194 3952 3625 6220 1474 1908 3444 7352 8330 4061 8225 3861 2736 7308 9122 4695 2226 2798 8025 8546 8776 6471 4761 3226 4529 8562 7975 3132 5295 3892 5709 3604 6934 6363 7107 6621 6516 4241 5285 3093 3424 4125 4946 8368 5852 3960 5167 6038 8007 8031 5259 7725 6604 4341 8513 2300 9444 8897 4247 8940 5456 9858 3276 6029 4750 5416 6966 4581 6603 5315 5642 1554 5649 4649 3787 5575 5110 4255 7088 4455 1161 7332 6680 7523 7413 5633 1790 7985 7120 4343 7092 3909 1507 5992 5843 324 4611 6297 8958 4689 3710 1915 5662 4981 7797 5621 4774 4056 6824 7522 1317 8448 3615 2564 5102 4785 4736 2887 3350 1455 8307 830 3309 3289 3621 3261 581 3909 5970 5320 8043 5092 5229 4944 8207 5262 7521 2470 4079 5794 6628 5505 777 2577 1543 8950 3635 5486 3456 3358 2972 8277 4128 8407 3969 3948 7061 853 1580 3503 6898 2630 3905 5440 7283 7470 8453 8169 8488 6797 7928 5342 6185 4634 8862 3050 3040 4929 6954 5033 5633 8176 4283 4156 7385 1446 4858 6563 2693 3933 3941 2865 3465 0 5850 3006 2759 5541 5667 4808 4630 2255 3507 2642 9466 668 126 4283 4486 4568 8119 4585 3616 4308 8363 4273 1291 8613 4957 760 4720 8428 877 5264 5004 4729 6479 4767 4628 5659 6617 4758 8079 3768 4145 7965 7454 7727 2022 4597 4203 1711 2759 5543 6781 1357 2509 4917 7753 5051 3753 5009 5364 3494 4704 7545 4911 3529 5175 7319 5149 6721 5259 7862 2898 3863 2250 3140 6860 3418 3125 3193 2505 2734 4066 5259 1945 4557 669 2359
5117 8096 2755 5020 5148 6315 3815 6425 6376 1088 7045 5771 3694 3578 7210 4714 5169 9145 1121 3781 5116 6160 4267 8957 4169 5005 5896 7117 1048 4387 6139 5460 5709 4004 6850 6656 3483 3703 6435 7010 3098 1864 3381 4311 6787 3530 5710 913 3210 3576 5744 7073 3743 5028 2858 7296 6335 8063 2603 3718 4687 7247 1735 6386 4821 8082 5362 3455 6697 4484 2871 5062 9092 5699 6810 6041 4684 3990 3158 8206 6827 5572 1749 7519 6686 2619 8202 6651 5449 7015 3294 6768 3904 4006 6984 4809 6072 3162 5314 4012 3116 501 7466 867 2816 9247 748 6360 5747 3734 7558 1657 5238 3071 2383 4100 6965 6782 2457 7010 3832 3116 6020 4131 4300 7970 5622 5927 5668 5797 5224 3026 7267 6372 6535 6656 5217 4138 2869 4351 3731 1348 2327 7529 1915 3067 6389 4956 8138 5006 806 2417 8741 2368 7895 8118 4328 6390 8803 7039 4791 7558 8724 4342 3612 5916 3177 7237 3027 5588 4421 4123 8595 2011 4820 2460 2432 8940 1852 3236 3491 4793 3371 5713 2417 7453 3724 4597 4442 5706 3377 4200 5287 5869 1829 3276 8114 6564 5941 7081 4757 8463 2933 9131 2923 8137 6193 6928 4066 5578 6233 4367 7991 5850 0 5738 528 7951 4399 4911 8952 5369 4037 8394 7764 2856 6713 6302 7133 6595 7859 4057 4584 6038 6739 3978 6211 8985 4036 5863 5183 5824 5656 2501 6053 4777 5143 7633 6665 2838 2707 330 7903 5783 5515 3377 8091 5526 2393 6405 5995 9383 4046 5634 6044 6355 3339 6155 8690 7336 3524 5577 5061 5040 8197 4095 2072 3423 2429 8086 8133 7175 6445 4225 7340 5192 4528 4980 6888 2858 6140 5339 4845 3931 2972 6722 2834 3112 9290 8294
8799 2745 8596 5478 5492 6022 3453 3372 2430 4137 1697 6155 4778 3320 7921 5878 7892 5717 4586 9106 7478 7988 6113 4729 6085 3536 5019 6863 3328 6337 6481 7051 6435 3131 4775 7983 2442 8187 2078 4693 3794 6921 4422 1247 3792 2723 3466 4808 1709 3649 7244 4593 4223 2334 3042 3614 5745 5489 3471 6977 790 4383 4996 5183 4595 6621 5535 7780 4809 6376 1231 5048 5010 3540 6380 4952 8264 4792 3770 4118 6944 6462 5531 7252 2590 4211 4369 7125 5123 3871 6650 2158 5343 5885 4158 2462 1745 7427 7118 5366 7418 1584 7605 3598 4988 3182 1863 5695 1446 4418 4811 3932 7053 6168 4726 6200 3038 5464 4381 4387 3265 826 4806 8865 3768 5736 3645 2913 5298 7462 5449 5182 758 8865 5241 6729 5985 3166 7644 7907 6866 3671 5901 7537 5191 7045 5136 4358 4330 8714 8240 2103 6701 5869 8322 6831 5368 6461 8805 7837 4326 4829 7412 8543 4998 5800 2737 4862 4838 4966 9057 2207 4941 4758 4206 5485 3337 5056 8533 8537 218 3820 5845 3992 2798 2616 4699 6751 1948 5243 3438 3294 3545 3464 2757 7302 4301 4284 2083 2741 8008 4648 3242 3571 4600 4367 1897 8062 242 5133 6711 2908 6175 3006 5738 0 7375 6628 6830 5793 6062 1755 7129 6851 3977 3070 4396 8808 5268 5710 4047 4399 5723 5378 5621 4597 5144 7806 3315 1405 5896 4496 7746 6095 5804 4842 2539 7177 7316 6053 5709 7727 2068 5346 7371 3236 7720 4314 4811 4426 7840 2663 3655 7669 7318 3925 3766 6864 4029 4373 1966 6041 4066 6169 5531 427 6283 9089 2536 3803 6704 3995 2548 9413 4157 6921 3335 3423 8858 4412 5478 2453 3165 7217 5322 5160 4775 987 7205 5210
3491 5974 3490 6272 4839 8876 6693 2474 6379 7345 7775 7182 1154 4491 4649 583 8326 2792 3282 1238 2017 7856 3421 587 4795 2536 7308 7093 4974 5029 3422 7215 7102 7195 5067 1463 3180 4250 8509 2448 4891 8936 8780 2852 3186 2976 7082 2819 5593 8023 2793 1040 4188 9110 1246 3943 5848 4419 5606 7871 3346 3661 3763 6124 2578 5791 3068 4991 4437 3588 5404 7078 6876 3891 4896 5104 9489 6717 6257 4641 5188 8119 6857 2555 6206 4133 1331 7024 3502 5685 2903 1569 5717 968 5709 4011 3263 6580 5002 6767 2007 4134 6403 2667 6137 5859 1757 5414 3012 4749 4965 5906 3496 5895 6560 2958 8415 5935 5467 4110 6275 8275 5945 3182 7267 7307 3428 5065 5945 5201 5130 4177 851 5129 5139 3431 3049 5405 4558 6664 3212 6671 7534 4946 7789 9120 6128 5080 5294 1761 3721 4494 1247 8155 5124 861 601 7190 6259 2197 5233 7272 3164 2386 6442 3841 7037 4632 5280 5841 4234 5919 3238 3790 4420 6533 4011 7039 6444 7968 4152 4120 5495 3580 5708 2209 893 6437 6880 6602 5882 3063 5221 5901 3084 3028 4554 2388 2734 6098 4509 1150 2660 8214 1759 4421 5739 4379 3581 1880 6311 3880 2793 2759 528 7375 0 7060 3774 7827 2586 7201 5954 6616 6978 3862 4077 4785 2112 4918 2684 3260 4341 5930 5080 6956 3810 4360 7528 5000 5438 7000 1729 5561 4963 4693 5524 8260 741 5131 6250 1731 5309 8300 7673 2451 6331 1036 3584 6798 3845 6817 3289 5099 3113 7195 3869 8848 2982 6391 4414 6312 652 8353 7990 7615 9005 3488 1869 4788 6236 5949 7832 7598 2081 5249 6045 7994 2631 1904 6040 6562 5556 7471 5322 3731 3527 4902 4153 4002
1993 5921 4307 6281 6332 4994 1550 3852 2145 2063 6335 1818 5211 3774 648 2512 4918 3622 5664 3629 1206 7478 5450 5330 8054 4847 2876 1634 4873 5623 4521 4035 8299 4565 4270 1334 3805 738 5049 5334 8133 7144 8043 2803 5438 2274 7547 5599 4758 3725 4243 4229 3420 5170 5171 8848 3363 3772 3041 3138 7358 4339 6057 5091 7247 4461 4841 3254 6237 830 7665 5828 2834 4123 5831 5639 1370 6749 5003 6063 2621 8687 8819 977 6311 5777 4936 1630 7715 1307 1749 6209 6085 2514 8077 2314 8188 3127 4579 3702 8147 3416 8052 4720 5457 6738 835 5661 8919 5628 5814 4742 7257 1558 5607 6619 4691 8677 4956 4153 5602 482 3027 4797 3064 1364 5716 4971 6647 4556 3646 518 5418 5656 4774 6291 6976 3225 3674 4114 4509 4625 8960 5484 7200 3980 7441 2627 4306 5953 5647 5153 6975 4853 2949 4936 9705 5188 3768 1094 7156 8799 3401 5036 3665 5369 1627 7293 9314 3981 6436 7215 5195 5781 1569 5285 1394 2717 2708 6930 2561 6126 3161 8584 8934 5666 7219 7629 2253 7978 5357 2501 6448 5353 6792 5601 4325 3804 7807 3066 4647 3360 5868 7835 1894 929 5924 6339 8505 2785 6234 1440 4786 5541 7951 6628 7060 0 4764 6384 2455 3325 6561 6234 1002 5159 2748 5755 6919 6624 5034 6323 4195 5940 4668 7200 9152 1470 8335 8007 4855 3618 8060 4640 3870 9529 4580 1545 6124 6020 6560 1133 2409 8847 4089 7800 5469 4519 5559 6366 5155 6013 2391 6194 3024 9283 6020 1673 5122 3034 5224 6536 7102 6663 2447 2250 5543 2380 5058 4163 6583 5092 8143 4648 4076 5127 6211 5133 9528 5013 2324 5139 5720 7956 7148 5452 4077 8056 3494 4681
4244 4492 9590 5565 6332 5164 6310 4223 4934 4123 1481 9204 540 5432 2965 2675 9474 4367 4032 3227 6344 3959 4771 3771 2520 5359 1556 3642 5291 6029 666 4939 7798 268 6360 1323 761 7449 3288 5320 6482 6273 6201 5744 9023 3708 8512 9118 5293 5221 633 4989 4265 2224 7035 4362 6397 9575 5419 1086 9280 7454 4758 3366 8245 6909 7950 5504 3273 4606 5218 4682 8553 5856 6878 5905 1223 3082 5275 7351 3769 9178 8107 2123 4246 3735 4103 8888 4961 1741 3950 6522 7120 4917 5647 6500 4873 5148 8768 5356 1626 5008 4480 8667 5645 4647 7144 1918 7753 5899 5986 3331 4828 3385 5332 2468 6162 6554 5927 6208 4142 6895 5885 5296 3390 8724 4758 3373 6230 5882 3084 4834 2571 4264 1775 4567 4152 5241 7259 1297 7809 3432 4801 4022 3591 6725 6520 7931 2045 4139 5774 1419 5529 2338 2503 8329 7553 3846 3191 5963 8560 5498 2311 7427 3790 3830 5088 4272 3854 5774 4086 4671 2974 4299 5862 2347 2263 9152 4334 4277 8606 3607 8239 7112 7516 2526 2986 7156 5537 3573 4912 2051 3296 4565 3948 7547 1351 9909 4902 4385 3645 5655 3950 4463 1113 8172 8089 4656 9120 2052 3373 3157 4936 5667 4399 6830 3774 4764 0 4498 4502 5205 2189 9319 7381 6524 1359 6266 5604 6155 1978 4416 7295 5436 8938 4429 5016 6502 4872 2017 3678 8772 3972 6137 4300 7821 7451 5592 993 7158 8763 5607 2755 6581 5142 5681 4610 5251 4892 3653 7237 6049 2965 4846 6111 6114 6284 2684 4663 6099 2903 5138 4666 5058 4765 8602 6348 1796 6689 6780 3933 2654 5070 6340 8490 3078 9228 7775 5579 8840 8084 2654 2608 5139 4463 4415 7251 6321 2589 6283
6292 5834 6305 5414 6004 3152 3073 893 2775 2064 7397 5609 4639 6343 8485 4903 5065 4440 4932 5016 4515 4337 3334 4708 3189 4464 3912 5481 5219 8221 4575 3900 7402 3362 5798 6308 6143 7613 4871 8170 4728 7832 7758 5734 5584 3752 4820 6317 5733 3803 2613 5634 8551 6785 4303 2669 6287 4985 651 417 7728 4860 6677 3246 8725 6357 9715 6524 3615 3788 5710 4648 6667 6642 6014 5056 7283 7429 1273 4603 3061 5704 6194 4700 2195 2084 7062 4458 8478 3799 4122 2573 6070 4623 5309 5444 3230 7118 5796 4743 1487 3040 4767 5820 2903 1529 2477 6158 6611 7426 6497 4833 5534 1321 3702 4346 7410 7534 5068 3527 7418 3335 5131 5024 5771 2024 3863 4528 5124 6516 5139 4793 2293 2626 5679 5132 7796 5092 7909 4778 5826 7501 6537 3578 4889 8125 8169 9131 5642 4489 3699 4215 5088 4381 750 3606 6205 3038 5963 5386 5662 6499 1582 5858 2310 3676 6308 4278 4597 7644 3692 5172 5731 4679 5753 3226 3520 4865 4022 1658 5095 8480 6778 9527 3525 1968 5309 3565 1957 8810 7522 9179 5912 3986 1571 799 3150 4905 7686 3551 1683 4983 2867 878 4703 7824 8807 4702 2708 6672 4515 4828 8242 4808 4911 5793 7827 6384 4498 0 4331 150 9573 3831 7217 7913 6329 2637 868 5700 3411 5517 6185 5888 4815 4863 4998 3336 5764 2279 1686 1114 5566 3211 5313 5739 5480 4912 8224 2045 1095 6312 2224 4053 6713 5962 5854 5150 8047 3907 6941 7946 4103 6688 3538 3461 5941 2715 7039 4253 5716 3926 7609 5006 8311 7907 6518 3901 3042 6102 4543 2098 6317 4397 4990 995 6387 6762 8529 4955 4255 7728 4748 5376 8789 2369 6838 4192 8237 5818
3731 9803 5341 5305 6131 6377 5404 7197 6612 2367 5048 7684 6770 9488 8011 5069 7164 8147 5720 3507 2782 4300 4191 7598 135 5416 5042 5010 6728 6264 1544 1719 3838 8460 6871 5574 4208 7520 4816 4730 4193 6106 8840 3126 3320 6830 2709 1841 6037 7556 5491 2918 7959 5940 8354 1599 6944 2210 2567 8841 6479 5433 2813 2898 7986 5916 2156 4456 4980 7397 7252 3118 6389 1564 5800 8564 8583 7693 7649 5486 5473 4057 3615 2485 3662 824 6954 5269 5589 7017 8396 6415 3821 3071 2885 5963 3224 4873 7984 8034 1794 4363 4106 6592 6442 1918 6362 3830 4479 5073 930 8313 6586 338 1147 1314 6611 7510 6521 5292 6140 3632 4584 7068 6518 8276 6043 4930 1044 1510 2690 2749 5025 3447 6762 6652 5648 6480 7282 1992 3401 4395 1997 1513 4550 3952 4435 7712 4164 3914 3430 4133 1043 5866 5805 8668 8509 1390 6068 5677 9187 1102 4364 4990 4351 1573 1375 270 2791 6716 3666 8222 3751 3258 3812 6094 5146 3459 8588 2987 4155 2531 4239 8527 2720 8505 7118 474 5203 4133 3319 6128 3022 4301 6724 7680 9269 3674 3764 4786 6693 7762 4595 7470 5537 7528 768 4527 6674 6630 2820 4027 3606 4630 8952 6062 2586 2455 4502 4331 0 3399 1504 6122 7769 2512 5146 6953 5896 8823 3310 8078 8712 6059 2720 3207 2468 4479 1805 4913 7930 6477 2693 6519 6265 1851 6223 6378 4533 3766 6378 4313 3116 2138 8812 4676 4947 3910 1350 3728 9127 5060 7177 2072 3312 6645 1877 3544 4499 5739 6897 1202 6435 2542 3523 4037 3926 5653 7354 5498 843 8084 7047 8426 1693 4717 3542 4676 5713 5257 4557 5311 5366 2282 7650 5830 3195 7418 3570 5251
5431 8949 7236 5025 5435 1995 2379 4721 6119 3247 5429 5583 4892 5773 7027 8010 3845 6145 8467 4510 5424 2700 6268 5386 4020 8436 5091 3582 7793 4480 8446 6239 6643 8432 1842 5675 5405 4009 3493 5175 4193 4497 4171 4710 7222 2090 4580 3297 5650 2481 3388 6575 4931 4351 4097 3996 6513 5391 6231 5716 3917 1830 2324 6347 1863 4742 8131 3453 4947 5193 6823 4603 3493 2413 2144 5975 2978 8444 2165 5738 9592 5453 8067 1336 2763 5076 2448 7075 4555 1575 2013 3861 4702 5184 9574 6608 3890 9152 3709 7063 4527 4678 2754 3250 5228 4133 5914 2387 4394 6744 4048 5877 2771 5116 5323 6973 2470 5783 5725 5156 4714 5018 6192 9222 4651 2674 2404 1794 6555 7229 5931 3666 5271 3547 5099 3524 711 5176 7917 4735 5194 3354 9191 4259 6502 5098 4139 1714 4041 1752 7358 6135 6218 8080 4268 6798 8944 5522 5239 4435 6242 8078 5175 2227 5048 4243 7314 3856 3535 2774 7189 2889 3609 5498 5615 6932 6916 2653 8032 4761 5207 3914 4047 4437 3597 5246 6036 4388 6382 6806 3124 8773 5647 1098 6263 8810 6351 7158 2330 3860 3101 7638 6422 7669 5333 4721 6539 4733 2368 5195 456 4847 4763 2255 5369 1755 7201 3325 5205 150 3399 0 1291 3106 4831 8238 3922 4512 3004 4832 4875 3983 5547 6040 3165 358 3804 3636 1455 4072 8508 4832 3837 3202 5723 7752 4694 5496 5830 6586 4697 3683 2877 710 4750 5705 6435 5725 5022 3762 3756 1126 8027 6166 6188 5199 6351 4894 2104 5231 656 607 2161 6177 3738 2467 2852 6840 5532 8058 6337 7731 4199 4298 4815 4040 8209 6733 4117 5323 5273 7470 6282 5678 5220 4770 718 6588 3509 7100
3955 5401 3513 6587 3563 3867 3803 6732 7431 2631 8033 5872 7484 4248 4911 6622 3304 6755 3213 3950 5396 5683 3830 6165 4958 5287 4190 8363 6298 2640 3995 4566 5351 5789 5761 3913 8802 4658 5161 7793 7004 3035 6629 8669 4099 3381 6189 4505 4252 5960 965 8830 7556 2366 5171 5868 3317 7447 5314 6107 3207 7602 7903 3544 2254 7482 5269 2138 5807 2496 6535 4831 4542 2093 4944 4968 4885 4511 9246 7135 7759 3197 6493 2662 5211 3282 8232 8792 5421 9187 6000 1108 9564 6919 3197 3272 5477 6679 6590 4933 4555 6447 7291 8523 4398 5303 3483 2879 4883 4458 4336 1941 4037 2977 2091 4004 3871 4645 4352 5955 7737 5211 6493 7992 8268 4162 3988 5100 3602 1438 5094 5060 1974 4598 3837 7357 7845 7488 6945 6245 3510 4500 6132 6807 9139 6887 6124 4899 8320 1646 6314 3402 4984 6597 5669 5228 7298 4978 4989 7029 5949 1769 8713 2795 524 4578 2609 6032 8412 7679 8612 5098 5321 6553 4806 4200 5910 3416 4491 2213 6640 506 6640 1607 4835 5649 446 3131 4509 7208 3849 6132 5537 9029 5016 6347 5112 3586 2964 5150 2769 8004 1665 1788 4092 2841 4781 2072 3894 3026 5739 8000 8880 3507 4037 7129 5954 6561 2189 9573 1504 1291 0 6201 4314 4089 4722 5758 4134 6069 7080 4493 1719 5826 8662 9329 3089 2211 7777 4323 5134 4445 4848 6990 5825 9769 4424 5254 3440 1571 8553 6077 2621 5725 3418 4876 7596 1999 4985 6936 4799 6042 3400 2677 3561 4843 2213 7764 3854 3183 6213 3544 615 5873 8159 1897 3563 9324 3387 2108 6177 7095 7696 7785 6806 2553 4846 9576 3788 3107 7899 5367 5138 8993 9032 3905 2642 4759 2172 6585
4666 2315 6430 8377 5201 4822 2235 8973 6650 8005 6871 3850 5761 3242 6146 4655 2147 8434 7828 3182 1101 8733 8458 4824 3780 9259 7483 5101 3985 8116 6327 2250 9304 8696 5752 5979 3879 2921 3448 6861 8726 6383 6180 4607 3303 7016 4473 2279 4174 2574 3097 4677 6743 5045 3162 4075 6397 4969 6118 3987 3317 8503 3158 6922 5090 1592 2492 6185 5201 5608 2866 2382 5936 4708 3199 3802 8855 5414 3974 6735 5591 3234 5133 2543 6999 4811 2823 3543 4133 5480 7281 7194 3563 8824 1858 4063 7092 4450 3704 4989 4253 3384 1468 6375 7948 3653 645 5904 8446 7506 6297 6344 2770 5115 4456 132 7482 5175 3712 7101 4589 4639 6604 2512 3774 8367 5307 5617 4097 7212 5366 3407 4615 4757 4595 5860 3810 8260 5047 8852 4042 4942 1765 5399 5160 7485 5231 1294 6258 5837 8346 5129 4939 3733 9329 4122 9827 6370 4447 2256 1388 3462 7243 4613 4271 2410 2526 6835 3925 3500 6066 6039 7554 3023 5274 8367 460 4272 5407 1038 5718 1388 5972 7588 4854 4547 7649 7349 6923 2470 5563 1495 5738 4054 6502 4575 6366 7290 2647 2158 5838 2248 5099 8607 6196 4221 4866 4782 6892 6028 3909 6818 479 2642 8394 6851 6616 6234 9319 3831 6122 3106 6201 0 2968 6617 2382 8097 9755 4042 6178 5403 9306 4492 6406 5173 5546 6217 3207 1007 5416 3340 3292 3276 3965 8132 2561 3324 4778 6568 8869 2690 7874 8076 4145 6791 5284 3076 3358 1070 674 2422 3973 3716 4325 1906 7587 7891 6234 6319 6145 4479 2747 7018 3342 4456 5465 5744 4838 2581 6754 5038 3682 6672 5452 6011 4112 3497 5330 3703 4022 4741 4435 3046 3732 2681 2451 3161 2293 7517
9075 4308 6934 5233 4758 5651 4368 1885 5899 6534 3211 4626 2334 7883 6147 3118 3733 2457 3458 8465 3912 4910 5695 5511 6661 6978 7817 2426 1586 3644 4877 6382 3606 5274 3724 4307 4917 2011 4841 5456 4518 7549 3029 2887 8743 4253 8631 5942 4959 346 5030 9021 7033 4067 620 5690 4993 4436 4092 1107 3359 7724 4051 3660 2402 7324 8895 1770 6995 1534 7040 4286 4703 1414 2515 5981 5782 8169 3403 6672 5133 4227 6917 5917 8391 3180 6557 2879 8965 4171 6859 5543 1110 6985 5576 4511 6572 2898 6210 7166 3071 5529 5895 8434 5477 8384 4485 5795 5291 3993 7959 3334 3443 6950 2671 4032 3410 3588 3804 6936 6071 4724 3305 4311 6602 731 4491 9021 3337 3859 4755 6335 5029 6021 4416 3449 3710 5754 5382 4023 5970 5922 1134 4361 6327 7201 8422 7373 4861 7099 5411 7907 5573 4361 8183 3947 3816 5021 3703 4685 4826 6218 3745 5944 4390 7572 4581 1678 4215 3515 5446 5635 4924 7565 5480 6648 7824 3111 6819 6342 6538 7385 5747 3780 1940 5937 1421 6358 3396 6851 8725 6584 1650 4225 6232 5408 6191 3045 4806 6629 7827 6045 4342 7417 4736 1880 5302 6154 3608 8838 4910 3683 9605 9466 7764 3977 6978 1002 7381 7217 7769 4831 4314 2968 0 7381 3461 3526 6968 3380 555 3468 6337 6063 2706 8338 4712 7712 6013 1387 3221 4126 7467 2406 5049 8268 3123 1870 5490 5193 5019 4369 9081 6549 5638 2157 3497 8278 5509 2935 2249 7124 6198 7268 2987 5843 4422 3817 6205 3376 4532 8692 4675 4698 6317 5523 3296 5335 2565 5261 4740 8028 3855 6449 4948 2241 3575 4898 7652 6002 6714 6257 7624 5862 4541 3872 8360 6494 5239 7562
6451 8514 8448 5104 5329 3843 3882 1645 4758 9003 6437 6506 5293 1782 6765 4837 5407 354 5815 6923 2776 4370 674 1580 6102 6206 3167 3963 4467 6805 4695 5435 6933 7367 2647 297 1717 2735 6946 2121 4514 1980 6455 7393 6034 5389 7592 7986 8068 5637 2187 7884 6690 2583 4928 5230 4229 3576 1385 4881 706 3074 3020 7393 6144 3386 4687 1529 4626 6079 2084 7927 4299 1775 4466 8738 4438 5908 7790 3442 5691 683 4285 2945 1718 2448 2908 2201 1258 7512 4601 6222 5343 2171 4912 7431 6571 669 3551 2859 6750 6764 9307 5639 4256 1137 7126 1634 5212 5726 7397 553 2659 4231 1139 4607 4070 8159 5450 7694 3657 5198 8567 6559 4861 2896 5181 3650 8296 4877 6035 6459 5014 7517 7921 8833 9149 2826 6290 4816 5480 5866 6156 4459 5937 6493 1997 1730 3525 6386 6131 2397 2199 1384 4041 4019 3318 4758 5595 7216 3881 4253 6336 5541 8866 4313 2251 2754 7427 8973 7047 2009 5956 8522 765 7368 3425 2809 6411 5537 7945 5535 3075 4179 5785 5922 8600 4399 7405 5085 4424 4222 3802 6183 4231 4964 3560 9213 1754 8077 2948 569 1824 3090 3782 3476 5810 7578 8468 9173 2207 4014 8995 668 2856 3070 3862 5159 6524 7913 2512 8238 4089 6617 7381 0 8555 7875 8363 3532 7739 4309 5108 4239 1684 4820 5559 4466 3675 5720 7422 4951 3029 4568 4994 4598 3790 3613 2272 5448 8815 4421 3094 2972 3380 2867 2716 3186 3219 1969 6869 6425 7186 3757 4337 3967 3634 4527 6144 5181 8428 9383 3106 5967 5013 2976 4465 4614 4858 7218 4938 5981 5069 1550 9780 8894 6130 2251 4255 2401 3805 1708 7535 6291 4033 7537 3082 2692 2792 1916
6101 3622 4439 5750 7045 3831 2310 5882 2899 2663 5159 864 6273 3327 1103 5958 3832 6046 4043 4558 7791 2908 4236 7025 4879 7874 6523 3650 6753 6035 4496 7575 3779 331 4611 2695 7820 2075 4536 3664 3895 8300 872 2907 4033 6415 6600 1497 4851 1027 7661 7653 8987 6184 3718 4311 8109 7824 7439 7923 3754 2724 5639 6750 8044 4887 2893 5204 4974 2433 4749 9346 3500 4229 4185 2570 5842 2865 1975 5825 6855 6729 5277 5267 560 2261 5643 6845 3144 4749 3191 8545 8918 3706 8509 3704 5123 3137 5571 7776 5042 7702 3879 7163 3986 6195 4107 1736 5994 4661 7378 3022 4031 3486 3802 5195 7815 1550 3702 3406 6342 8647 3238 5413 4425 6896 4849 4508 6588 2004 3070 1322 1765 6301 3187 9769 9481 5608 5975 5351 4297 6055 1439 5018 4339 3817 2233 541 6812 4620 1828 3747 6966 3906 5326 1827 3771 3313 2270 3808 9883 5478 1750 1274 4011 7527 5068 2345 1938 4997 5015 5390 8898 1170 5520 2747 3432 6451 4023 5469 6492 969 4944 4225 4451 6039 3940 2864 1912 5773 4350 8800 4697 4180 2066 5733 2609 8388 4040 6055 4829 4331 5575 2958 1982 5237 7066 4037 6459 2968 5500 4601 8254 126 6713 4396 4077 2748 1359 6329 5146 3922 4722 2382 3461 8555 0 4438 7298 4039 4423 3347 4832 2969 4257 7676 3265 6478 2187 6142 1936 1694 5615 1466 4886 5749 5785 6911 5079 6371 1416 7169 5507 3900 6782 8040 5457 5239 8441 6703 6077 8860 8842 6388 3488 2120 6275 4853 4921 7094 5185 9361 3306 5349 3607 3981 5573 2976 6697 8668 3896 2234 2922 5235 4504 5969 2840 4957 3677 9270 5684 3755 6987 2636 2102 5555 5205 3372 5186 5162
3263 5832 4381 1285 3228 3602 1043 7534 6300 3380 6603 4439 6451 4641 4234 5482 5312 3452 8958 4615 1451 5349 3597 4673 7136 7176 7464 4591 4060 2879 6128 5228 6943 7877 2376 3186 6029 4422 3016 5041 5936 4165 917 4363 3204 4225 3100 5510 4911 3124 7520 7134 3322 6271 4865 5968 6664 6569 5590 3459 5445 7175 4844 5918 4942 8454 2164 4698 3209 5431 673 6437 5116 5862 9602 9060 6954 5103 2886 1000 5555 7016 4847 747 2562 4349 1633 9437 1612 6199 5666 5538 5004 8956 8009 4531 2160 6247 5488 1770 6335 4723 8210 5741 7359 2982 3535 5230 3615 5388 3994 7978 6979 3509 5649 5020 5407 4007 8156 5517 4657 4134 6790 2387 4724 2299 7063 8103 8260 3569 4937 3035 4881 8497 721 7687 7288 2500 5171 3822 4765 3674 3432 5027 7043 2829 3870 5164 5056 4061 2368 3931 3037 6841 6938 5394 5670 3291 2762 7222 3338 6898 5186 3822 6192 3050 5914 1502 1252 7918 3299 5477 4906 2158 1170 7960 4175 3624 2278 5218 3990 5241 4799 3444 5308 5746 2818 5362 5426 4159 5939 9042 5833 1460 6471 6634 1531 1730 5686 4207 6459 5107 4103 4195 6094 4246 6577 6441 7684 4037 5074 6344 6237 4283 6302 8808 4785 5755 6266 2637 6953 4512 5758 8097 3526 7875 4438 0 5061 9705 1432 5882 3593 5084 7956 4777 2546 5724 3574 2862 6139 3912 4761 7463 5426 7807 5920 5646 6395 5605 3447 2323 5037 4792 3781 5780 5533 6765 7648 5579 3024 5764 5520 4543 6265 5536 1692 5693 7146 7226 2053 5365 6271 2212 7636 6153 4958 7415 6509 2201 4318 5828 4577 7628 6924 5328 5056 3305 4722 2304 4946 6500 4456 6590 2069 2836 7800 7442 7664 570
1401 3879 6509 8085 2619 4860 6369 2660 7233 2773 8147 4250 1635 2287 605 7167 8012 4566 4647 5406 7209 2423 4251 3414 4980 7910 5273 4243 3223 6297 4364 5026 9429 6364 4313 5068 5015 5545 5387 7021 6352 6865 4922 3579 5628 1773 3863 6197 2850 5290 4924 5564 8330 4322 7462 3009 3665 6260 2427 1330 3716 2552 5040 6517 9695 2144 3648 4154 3954 9201 5949 6517 2897 2714 2889 4621 6908 5721 1158 1673 3856 2121 6605 5879 2785 739 1853 3520 1428 3497 6485 7637 6549 4837 2049 6807 3775 6859 2919 5842 2683 5512 1785 5299 302 1481 5323 3445 7527 8619 869 3136 6601 5804 6849 6664 2470 4943 2745 4454 9102 3094 4113 6636 4525 1865 4113 8019 1569 6798 5892 4895 4029 6030 7617 6983 3309 4015 3787 3409 8927 1112 1174 6768 5227 9109 3084 7280 5446 5273 5605 2982 5706 5954 2715 5945 2043 2875 6845 6368 8433 5958 5679 3606 3438 4255 6809 778 1499 5799 3919 9357 7950 5644 5678 5311 3833 6299 4887 5152 5199 4915 6185 2297 2716 8795 5489 3271 3824 4012 5746 4832 5363 162 3725 6459 3675 5521 6420 6177 4545 963 1067 7079 2494 3260 4558 6051 3516 3465 3782 4633 5804 4486 7133 5268 2112 6919 5604 868 5896 3004 4134 9755 6968 8363 7298 5061 0 5045 5109 7482 3667 4392 3931 5869 7353 7549 4057 2616 8596 3062 5426 5335 5104 2944 4890 7229 5111 7879 6852 1633 6155 5670 4713 5296 3352 4137 198 6546 2807 2763 6748 1443 4403 4644 9538 7653 6028 7441 5253 5548 5880 4906 2437 5946 7999 2856 5235 4003 2689 3592 7080 4254 5243 5251 6326 5658 4290 8166 1883 5525 6264 5636 4398 4882 5929 4015 1954 5329
7341 3519 9025 3286 6350 7896 1385 5042 7387 5544 4071 6632 4960 6770 9496 568 4904 3873 5762 6724 5280 7912 5115 7368 5348 5098 810 3675 4448 4424 1137 7972 5591 3756 6853 5907 6578 2673 5969 6886 5291 5918 1872 4066 5998 9538 3601 5144 5632 4194 4762 4987 6879 4406 6622 2348 6388 4831 8583 6997 5803 4305 4930 2593 6373 2414 9177 6598 1334 8297 5117 4880 6956 6272 5349 6272 2723 1501 6190 8031 6956 6578 2944 6702 7975 1027 3993 8054 1444 317 8019 7000 4427 8085 8616 5931 4983 5198 2559 7283 4048 7216 6710 3200 4549 8874 7583 5288 2029 7813 5504 7363 7481 5953 3601 6270 7122 8854 8031 5934 6111 6386 5543 6512 4352 3779 3124 7990 3756 4963 7904 6056 5314 5796 6233 4865 1337 4479 3722 3974 4145 2776 4668 7639 5664 6626 5788 3913 4821 1833 2264 1885 1088 5235 2890 4404 3742 8090 6051 4836 2812 6857 2675 2173 4218 2976 4147 4254 5750 4584 3507 5044 2051 7266 5827 5439 5745 5109 3201 6437 2462 4972 3631 9188 6817 4205 7368 6960 1087 4761 3464 8518 2532 5109 9831 8220 9314 4426 1621 4495 5006 7108 7252 3830 4583 5287 5387 8842 5455 4396 6372 4524 3090 4568 6595 5710 4918 6624 6155 5700 8823 4832 6069 4042 3380 3532 4039 9705 5045 0 5944 6296 4587 2994 4812 5676 5067 5956 5283 3877 7176 5795 2892 2707 3813 3889 3766 4492 7820 6351 3398 7182 8828 2437 5115 6210 5828 2523 7738 4352 6903 6386 5275 4549 2736 5029 4197 3503 1502 4377 4815 3029 2499 7428 6368 4331 5916 2267 6471 4479 6865 5964 2258 4239 3289 3601 658 5180 4939 5126 3541 3818 4458 6383 5098 3140 1459 4689 3998 4925
4937 7915 3625 5288 5055 6158 2535 7582 1637 2472 5077 7031 5236 2584 3094 6021 3014 5012 4616 5449 3828 6681 5461 7195 1943 6822 3608 4133 5630 6652 4009 5957 4969 7128 2798 4990 5881 5388 5230 3179 4269 4321 2447 2567 1823 635 8837 8171 898 5921 480 8685 4524 1957 5207 4045 5961 4820 5199 2933 7713 5096 5514 1821 2460 7946 7738 7750 3190 5456 5673 2236 5259 8485 3502 5012 5890 2766 8115 6275 3677 3057 4471 7423 6066 3408 3972 5540 5889 5403 2196 5056 8497 8257 6204 8581 3074 3121 8890 9100 4288 7438 6639 6867 5994 3149 8618 6449 1391 1327 8228 1829 9077 3832 5406 5962 4442 5431 3618 5638 4283 6817 4335 7048 5908 2839 8265 2058 6894 5001 709 7420 8383 5769 3775 5999 3889 4265 2460 5648 5462 8981 4608 9171 2474 8115 5176 4350 8106 4815 8971 5993 5920 7633 3026 3229 4905 6623 4757 5418 2142 7552 3060 1377 6779 6122 2054 6634 903 4109 2576 4734 5923 2659 6264 6038 3325 3484 3481 5668 1997 7641 4357 1181 5828 8412 4982 2628 265 5816 6723 5792 2411 4717 5089 5083 1576 3851 4346 3778 5252 7396 2793 3350 7664 5879 3356 2895 5100 6173 4032 6179 5326 8119 7859 4047 2684 5034 1978 3411 3310 4875 7080 6178 555 7739 4423 1432 5109 5944 0 4696 8027 8539 5670 3763 6600 1587 5542 4194 3914 5814 4166 3186 5059 5925 5895 5659 4072 4392 3848 5635 6195 1286 8871 3259 2014 3463 796 6863 2133 5255 5884 1649 6464 5031 6260 5098 2712 7054 4050 7303 6152 2341 6464 7709 4268 1902 6114 5223 7018 8099 6654 9259 1657 2390 7540 1738 7976 6025 7254 6494 3104 2098 2506 3736 5866 2934 6700 1319
5124 3600 5927 3154 4487 5357 4589 5322 1664 6773 4257 9567 1807 8600 6621 6457 6005 5678 2315 3999 9285 2919 5169 4475 6049 3794 2997 6383 991 3725 6656 7371 3745 4716 6868 5972 3514 3389 6615 4626 2252 6965 557 4076 5216 3772 4482 2767 4997 4483 5203 5912 6561 6448 8411 3890 8309 6367 2937 3420 5731 2218 1606 8203 4571 4222 6087 5052 7039 5996 4897 7081 7584 2615 7050 5521 7825 5320 7785 8343 1355 6134 2317 8089 4233 4197 5003 5844 8176 4197 6711 4549 4586 6010 6228 3862 4842 4627 4466 5098 717 7990 1928 2317 3751 5874 3449 5823 6237 3114 4374 4513 5297 4747 7638 5042 2069 2627 6595 8779 4994 6807 6483 4557 8176 4203 4630 4592 5149 6923 6741 6705 5946 5856 3337 3534 3226 8514 5937 7498 2812 2859 5346 6122 6439 5160 5278 7132 1423 1727 6291 4179 7076 6481 6500 4797 3687 4901 4903 7170 3762 7807 6501 6031 6926 5650 7686 3258 2928 4475 3165 6975 6537 3192 6163 5915 3848 9560 6306 7780 5066 2248 4776 7080 4443 3981 7708 4816 3277 3946 2065 5395 2275 2532 4505 3786 5600 3985 5388 931 1804 3799 7846 5281 4735 5356 7214 7081 3784 6012 6604 6667 7055 4585 4057 4399 3260 6323 4416 5517 8078 3983 4493 5403 3468 4309 3347 5882 7482 6296 4696 0 1668 6525 5482 5331 5956 7719 3082 3428 5130 3324 3417 6889 8593 7928 3211 2325 7024 4891 4401 4609 5641 7730 6410 8155 5054 4682 6209 4525 4989 4690 5284 3204 6709 7786 3902 2635 7277 2996 2982 3274 1082 5044 7746 6057 9585 5229 7631 8738 5146 7893 8019 6013 8781 4503 4893 6037 3187 2723 1708 7899 6808 4852 6418 4916 5236 4165 6700 4287
5323 3287 2476 5626 5065 4377 6442 8115 3595 6614 4160 6644 6571 7027 5716 8432 6045 7445 4401 5436 8269 2413 6488 4664 3862 1587 4072 4126 6441 5661 6084 1663 3932 4544 7050 1853 9230 9415 5893 7714 6837 4550 2564 6292 3881 3204 7680 6074 6714 4764 6206 7056 3776 5299 7776 3692 3721 7040 716 3168 4829 5341 3631 7047 5017 2854 4169 2521 4144 4630 3548 7010 5126 4215 4092 2913 8603 4554 9219 843 2149 7463 5351 5093 7478 3298 4521 2700 7237 6328 2910 1156 6150 1487 2909 3830 5484 2844 6095 2563 4337 7387 6784 3777 6193 5522 8405 5424 8092 5665 6279 7375 4519 5902 2115 4179 7392 5799 2732 6728 4984 683 3660 3982 5048 5152 4470 5055 7158 7217 6585 5111 6094 5099 5681 7489 5626 6678 6215 5554 1700 5179 5068 5996 5965 6588 5678 6399 6254 5429 4056 3440 2505 4845 4851 1361 7566 6732 635 4323 4600 5614 8363 3350 2626 4244 4664 8827 5785 6684 8278 6958 9484 1387 5420 7928 7480 1544 4782 4145 5830 4557 3575 4419 2244 4699 5246 6218 2006 2054 6443 2206 1707 1507 5732 3134 6898 4011 8269 6772 6043 3115 9571 9705 8288 6433 1195 8362 4574 3146 5320 4939 5150 3616 4584 5723 4341 4195 7295 6185 8712 5547 1719 9306 6337 5108 4832 3593 3667 4587 8027 1668 0 4298 5790 468 8268 3299 3136 5030 5104 6602 6756 7631 5254 7565 2745 403 4627 7789 2774 4341 5444 4774 4599 791 8896 6200 4618 5250 8501 7854 7183 6406 2102 4678 4364 7031 9357 2923 7137 4458 7288 6145 6292 7613 7529 8957 6463 3721 5994 2359 5136 2410 4947 1713 7463 821 4999 6351 8551 4362 8200 4175 6783 7451 6845 5815 6417 7089
8575 5294 5047 7412 8124 7408 5719 5674 5475 8091 2312 6925 3896 5789 7582 8083 1826 7171 1927 5455 5314 1984 7621 4458 4332 2618 3293 4575 9001 5718 5921 6766 4327 2809 4376 4902 5634 4514 2236 2434 2125 6010 8617 7199 5710 4286 6144 5905 3781 4515 1603 4275 6367 4015 9748 1304 8702 3126 2590 6582 2118 4553 5434 4296 6730 4530 6938 6700 3589 3730 4830 2736 7453 7032 3198 3925 7966 4863 8355 4750 2711 4290 5426 5062 8493 4004 6469 2976 2506 4604 4212 2858 7407 4196 9728 3258 2443 3169 2408 2555 956 3363 4603 8785 4006 8601 694 5665 2258 4430 2853 3626 900 1356 2251 1798 3973 6404 1795 3511 8059 3756 4703 3526 7145 4013 3676 6729 4721 6323 3570 4392 3626 6356 4479 3827 3366 3533 6036 7116 5030 7786 4700 6679 8194 2991 2269 5115 1180 3336 3986 5212 4132 1514 3859 3890 8096 7655 2917 5929 3341 3026 6463 6896 3598 3744 6343 6581 4248 3449 1894 5927 2108 5385 3669 5298 4268 2277 4529 1260 7585 7089 2732 6573 4131 4768 2458 3512 4169 3902 5011 6205 3524 5627 4047 5110 5226 5453 5287 4899 3312 4168 5157 2710 3794 2174 5801 1660 4122 7050 5181 9050 2886 4308 6038 5378 5930 5940 5436 5888 6059 6040 5826 4492 6063 4239 2969 5084 4392 2994 8539 6525 4298 0 4615 4908 6156 4686 6134 7404 5105 2787 4737 4121 4767 1252 6929 4376 4145 2969 6134 4804 7262 9252 5040 3400 618 5169 7504 7749 7705 7218 7257 3682 7540 4755 7523 740 3634 4841 5111 5447 1697 4594 4961 5068 5311 4863 7996 6247 5214 4390 6771 5348 3043 7003 5731 9599 2846 4808 5493 8620 5163 7307 2906 2710 5848 4540 3817 6202
5918 5465 3025 3367 4058 3152 5434 7497 7230 3530 3216 5208 5232 7145 7237 5898 2176 6210 4455 4358 5285 2235 2907 7393 2195 4033 8718 3094 1257 1988 3000 9705 2595 8496 6581 4923 4076 5131 5452 4054 2645 5839 5559 3214 3661 3039 4369 4737 5738 8282 3787 4946 1676 1065 5827 2827 8459 4475 4018 7715 4255 4829 4174 2920 4229 5062 6919 3993 2018 6477 1081 5851 5170 275 652 4477 8334 1457 9137 7034 6882 3481 4002 3514 3908 3216 3938 4297 4302 3489 7771 2629 2866 3620 5154 7318 3600 3113 1622 2554 2530 6556 5084 4196 3860 2628 8851 5178 8449 4301 2952 3354 4053 3318 4933 4773 6588 7453 5268 3019 4153 5543 6154 4782 8418 6665 5410 8006 3296 4278 3828 7489 3363 6507 471 6861 6450 6343 6557 2923 7124 6900 4227 4584 4464 2174 8171 2921 4267 5587 8787 2499 3284 5181 2895 3147 5376 4380 3120 7276 1339 5654 4661 1861 5314 4423 2837 1900 6953 4341 8694 5083 8023 2843 4533 7686 3203 9806 4880 6843 6438 5668 5479 4882 8082 6485 5277 5548 4197 4591 4537 8861 7787 5694 3122 6996 8630 3559 3052 3609 3911 3657 7154 5332 6530 5717 5730 1556 8603 6003 4352 5865 3094 8363 6739 5621 5080 4668 8938 4815 2720 3165 8662 6406 2706 1684 4257 7956 3931 4812 5670 5482 5790 4615 0 2351 6967 8961 5183 4583 7388 6243 5798 9086 1442 1656 8324 1983 4586 3351 2149 7259 4142 3326 7507 7643 5689 4832 6386 7243 4103 5669 5026 6118 5337 3682 7266 6522 5854 2818 4590 5938 6849 5238 2432 4727 5269 4491 2722 5893 3993 5441 7565 6279 4037 3981 4309 2513 3831 9475 8756 4573 6108 1690 4795 5778 6809 5570 2030 2303
2405 4318 8563 5224 6526 5747 1623 8299 5733 6400 4400 5029 8079 6730 3908 5308 2253 8111 4851 4771 3568 3370 5837 2294 6960 5411 9923 4733 4551 4423 3600 5309 1279 5176 4038 3327 6101 4032 8581 3805 1580 5110 5609 1998 2717 2992 5020 3815 4921 3967 3115 1105 2447 629 1472 6739 9295 8160 8619 2776 8200 4231 7513 4093 3993 3494 8426 442 1865 5508 4385 5085 2242 6634 3438 1366 6203 4938 5436 4370 2301 1778 4829 6614 5791 1566 9152 5243 5685 6964 2922 8526 7819 7298 6174 6018 3828 7472 4765 3140 4516 4478 6207 7286 2357 9299 5161 1840 2601 3520 1212 4131 6963 8904 4487 4020 6563 4793 7450 8776 5897 2965 4952 1920 3907 1994 5995 7054 8050 4132 9231 3905 4741 6324 3337 5846 4510 4245 9036 6129 1767 6384 5979 2774 5475 6132 5198 5014 1946 6019 3421 2654 7515 5535 4083 2420 7845 7932 6770 7680 4481 919 6398 5166 5810 4882 4648 1009 965 3749 4166 7203 5218 9061 4015 3204 3898 1063 5128 3513 5440 2152 3465 7770 8146 2416 6336 6997 6990 5604 3267 2829 6025 8638 3093 2907 7541 3485 6117 5730 2394 6689 7151 5402 9075 5717 2928 8206 4308 7843 6782 1897 5712 4273 3978 4597 6956 7200 4429 4863 3207 358 9329 5173 8338 4820 7676 4777 5869 5676 3763 5331 468 4908 2351 0 5806 5381 2256 7744 5282 2081 7054 4732 4355 7848 2445 7770 5188 3917 6007 4053 4214 8874 4698 6532 5132 3965 2425 5047 4522 2690 5824 5891 4598 3972 7122 5007 5252 4689 4272 3905 7751 4027 5845 2655 7053 6829 4451 3677 7384 6141 4651 4470 7029 5227 5118 3274 4771 7164 6311 3918 2216 2589 7717 5033 4578 3465 3295 4749
4888 7735 3348 4029 8313 7407 7128 3618 7683 6814 5743 5546 7630 6320 6501 5071 4264 4530 1495 2346 4110 4774 4126 7523 5461 5326 4597 3987 5351 5474 9744 6740 5077 7970 5009 5756 1822 3657 6312 6289 361 5035 4568 5283 5771 5334 3929 4141 5667 3529 4691 4005 8277 5155 3572 5977 7226 9608 6154 5434 2805 3205 8285 3176 7726 3435 4501 2927 3720 4871 6814 5631 4147 5159 7419 6713 2789 3702 2362 3008 1245 4515 6247 3469 3160 8430 4316 5420 7053 6072 4343 3742 5858 4233 3305 4013 2564 3949 4450 7727 5383 5362 7622 4205 5096 3906 5460 8771 6107 4201 9271 3976 3119 6204 7289 4776 6449 3740 4305 4695 4587 7665 3993 3381 6231 2759 2241 2164 8613 3908 8049 4134 5110 8606 3636 6158 2056 8070 6619 2724 3139 1125 3941 5071 8035 1496 6466 4308 7822 8654 4594 3909 6455 8102 5651 8089 2554 9037 4452 4742 3640 2088 3358 6356 8722 6244 7618 4891 5134 2313 6196 6319 1131 6528 4834 5203 6871 5242 4123 4147 4158 7577 4530 5571 6352 3599 3958 7780 6333 4177 4847 6109 5146 5944 4347 4289 3924 4800 4998 7994 4594 6130 5140 7850 5114 8206 5975 3125 2864 3753 4518 2716 4754 1291 6211 5144 3810 9152 5016 4998 2468 3804 3089 5546 4712 5559 3265 2546 7353 5067 6600 5956 8268 6156 6967 5806 0 3983 4176 7014 4441 5705 2527 6431 4574 6860 5623 4022 6843 4324 7991 4719 4251 2232 8707 6423 1036 2541 2394 6594 4370 3587 4823 6594 4737 7046 4503 2110 9461 7958 4356 3343 3875 3985 4502 3818 5324 8718 8559 3416 534 9730 4802 2096 5192 8914 7432 7589 8927 5460 8030 5356 3945 3237 4522 7282 5344 5070 2854 4021
6354 4842 6572 7922 4232 3704 6896 2726 1232 5781 5562 5108 5167 3118 3890 5371 5015 1630 4765 518 5781 4185 8627 1840 4539 4178 2216 1437 7936 4512 5106 8895 4091 3556 7415 8087 6879 4921 3623 2353 6534 7158 1577 4636 2339 1809 2097 4746 3950 6482 8021 5302 7215 1522 4729 5389 5255 4749 7031 5618 4542 9878 3465 8031 959 3223 5201 6462 4839 4642 6385 4517 7146 2560 5335 8202 4816 647 7216 5985 4662 2662 2739 6514 4554 8194 6864 1140 5642 4935 6863 6001 4046 3861 5570 1235 4815 4805 4028 6056 5835 6966 2847 3695 8231 3307 4628 3385 8486 9329 4555 5566 4465 4237 8187 8806 6876 6400 5609 6104 7701 1309 8499 2855 5387 2041 6149 5734 6746 1612 1892 3027 9343 5723 522 6640 4804 5523 2778 5569 1105 2680 4364 5718 3144 4094 2670 7541 6321 5653 7129 2817 8801 177 6271 3720 3557 7965 442 3167 7567 6553 2994 5618 5282 4205 6730 5014 7021 1714 5803 7302 5765 1821 3667 7072 2751 7136 1182 5736 4907 5915 3195 3267 8250 4363 2696 241 3903 8690 4484 5461 1224 4238 3910 3860 3647 2825 4117 5447 5979 5957 2837 7375 7054 4408 2985 5759 5020 6048 4056 5151 6040 8613 8985 7806 4360 1470 6502 3336 4479 3636 2211 6217 7712 4466 6478 5724 7549 5956 1587 7719 3299 4686 8961 5381 3983 0 5071 2931 669 4329 2073 3673 6682 5443 7046 6088 8781 7599 5104 5295 1486 5336 6236 1879 5261 8462 2102 5508 5768 5160 6722 4660 2111 782 2050 7389 6001 5749 2508 4492 2410 4486 3826 5899 4693 2327 5053 6128 1824 7691 5502 6270 5155 8188 2468 3623 7777 4102 7103 8409 4760 7415 6108 4929 4411 2312 4231 1559
6386 2586 2061 4724 7471 4838 2767 5738 2549 2876 4190 6485 1156 1732 771 6633 2190 3297 8085 4029 5878 268 4629 4348 2759 6891 5331 5260 4645 2247 4927 5439 3191 7282 461 4280 4634 8987 6533 4053 7145 5501 7462 5644 5305 1110 5998 2542 5266 6141 5566 4275 4968 7153 5213 1801 5128 7430 5829 4683 5487 9182 4104 5176 6226 7251 8756 5726 4965 3335 5234 8813 3175 4993 7158 4276 5820 3107 6297 4800 8317 4115 6081 2140 4188 6304 6059 4117 4264 5250 944 3386 3423 4450 4323 1023 4915 7067 851 8167 5687 8510 6431 5892 4773 7856 4239 7509 5142 1191 6955 8349 5870 1101 6067 8092 4465 6334 5039 6686 5743 2242 7021 6940 7090 3111 6812 5461 3670 5890 3941 3720 3714 6628 4078 4664 5534 4057 4375 6996 2998 7933 9570 2594 3625 6930 5973 8194 4720 3939 7100 5457 1908 4088 1971 3531 6556 2689 6065 6957 8904 3797 7358 3081 6110 6055 3684 1395 4700 6352 4002 7525 1550 3779 3127 8849 7005 2212 5912 8091 8722 5847 5169 6406 4644 4380 8404 4540 1562 9352 2377 2340 4750 5559 4655 4926 4026 5163 3473 7189 5323 4314 5645 3064 8464 3967 5408 5923 6417 5780 6702 6544 5981 4957 4036 3315 7528 8335 4872 5764 1805 1455 7777 3207 6013 3675 2187 3574 4057 5283 5542 3082 3136 6134 5183 2256 4176 5071 0 3331 1973 8177 3917 4479 4289 5512 7071 2830 5153 6555 2706 5780 8486 3074 6646 3717 3322 5622 3210 7302 2849 8332 707 4915 4196 6598 7582 6033 2867 7003 5729 7060 3758 8303 6203 8578 7781 4675 4785 7890 3072 3916 5020 3902 5591 6026 6428 4412 6819 8259 4723 93 2231 6019 5487 3824 5562 5200 5656 5545
1907 1376 5950 3318 4680 6999 6535 5013 3321 2402 4666 8193 5844 3574 2376 8016 4250 5522 8501 5625 5854 3624 3373 6815 4976 3313 4394 8722 6115 4063 3941 3218 4062 1136 6829 1438 4543 3780 7247 2106 5824 4728 8202 3192 292 2937 3889 7990 1926 9316 2461 5032 4159 5221 4040 654 6656 1296 4611 4559 7064 7265 4008 6711 2170 3165 4366 3786 5535 4787 5671 3152 2937 8925 7444 4843 6581 3136 4865 6536 7501 4782 3864 4815 2588 3342 9286 2744 7235 5609 7062 6004 6489 4763 4203 7377 7309 4982 3785 6090 4125 7423 4412 4155 7448 5187 5342 4862 7001 6142 9584 5353 5140 7798 5477 2385 4682 2090 7640 7522 4729 4073 4232 8360 4624 3750 3961 1717 4755 3252 6073 3687 5705 4367 2937 4249 2756 3674 7604 6972 7133 2542 1007 3073 1889 1598 7623 6860 7189 8653 3738 3345 4149 6235 5369 3336 3587 2818 9781 1199 2093 4842 1975 2434 7573 9139 6148 4526 8928 2835 8097 4963 3234 5877 4833 4547 5519 7560 1870 2865 4336 6223 4718 3504 3200 6189 5893 4229 1130 3212 311 5259 4947 2986 6922 4500 3554 3820 2296 6241 2647 5817 3484 7076 5176 6220 6567 5309 3607 4475 8633 4386 5019 760 5863 1405 5000 8007 2017 2279 4913 4072 4323 1007 1387 5720 6142 2862 2616 3877 4194 3428 5030 7404 4583 7744 7014 2931 3331 0 4162 4569 3767 6815 6307 5731 1188 5316 4681 4068 3299 4481 4151 1565 5056 6196 5019 7243 7168 6413 4948 2276 4231 5932 6036 5857 5955 8637 1706 4611 6762 2501 3128 7039 5172 6050 2791 5122 1606 7355 1593 1846 6141 768 2489 5838 5611 5206 3428 3561 2578 6469 6226 3873 6479 5899 7108 6759 3778 7648
3584 4501 4430 3735 5155 5667 7812 2334 8475 4383 8657 4646 3775 5238 8742 2240 6468 4718 5080 5522 1581 2180 5210 6381 4011 2053 4145 4008 3863 4756 4573 4953 4887 2383 4321 7594 1982 5392 6941 4025 2100 4481 5182 4354 4854 4684 1453 3962 1304 4206 4918 4911 8292 2430 8740 6994 3230 7978 6531 7446 7746 4700 2861 5184 5105 4444 5245 5230 3938 6719 5490 7297 5015 1996 7250 5507 6191 6247 2992 2808 4223 7842 6710 7176 4903 4116 8310 5235 5353 6467 2294 4894 2517 3637 4124 9388 6891 4655 3913 7747 3550 5328 4344 6135 6210 7491 5863 5925 5851 9238 7985 4356 3928 6076 3846 6912 5834 2796 4621 1545 4642 1557 2607 2855 8202 4773 2615 6471 2194 2145 3212 1038 3321 2653 1382 4748 1936 3513 4231 7572 4311 7691 2043 5143 7454 4441 6748 6519 4836 5718 7130 3387 1409 7805 8953 3800 4782 1333 4450 2622 2761 8038 4519 5375 702 6709 4807 3208 6055 6005 1802 5878 7476 5530 4070 9012 4812 8846 4927 6194 6665 1723 728 6335 5444 2362 1924 7922 4345 5560 3711 7336 6282 6201 2596 4751 5997 7404 1593 4272 7137 8605 6366 2633 2202 8668 3273 7184 4070 4176 7723 3891 2209 4720 5183 5896 5438 4855 3678 1686 7930 8508 5134 5416 3221 7422 1936 6139 8596 7176 3914 5130 5104 5105 7388 5282 4441 669 1973 4162 0 9639 999 8012 3384 2706 5020 7107 3131 6680 2323 6043 1997 3511 3515 8334 3690 7225 2768 2073 6170 3112 4492 4175 7558 7106 6268 3423 4423 7476 5070 6198 3986 6341 2465 4155 4161 5529 644 5402 1419 6078 6294 2994 3296 6880 8320 8283 6548 7526 5510 1690 1847 3563 5748 5493 4128 5724 7295 3983
2430 8703 3210 5624 4531 6166 6920 5704 3372 2182 2957 4369 2482 4318 4228 3221 5949 5544 6407 5722 6303 4831 7305 6314 6180 2231 6053 4004 5774 7934 545 5827 3272 5878 7055 1962 6018 7254 5966 6004 7317 5175 3324 1392 4938 7416 8348 6360 8095 6472 4544 4606 6839 3643 2639 7238 8784 9311 5492 5974 3580 4020 4877 2773 8217 6709 2697 4798 2926 7419 1879 4966 7468 648 9745 6277 6799 5602 6212 7617 5818 4936 6373 2554 5542 2032 6802 3621 2220 1082 5829 7625 3901 6293 5093 1756 8477 3959 7463 3850 4986 4686 5871 3369 5404 6949 5141 6429 4839 4315 5121 7475 5523 4472 4219 4348 8229 3657 5714 5186 7308 4069 5362 3151 1859 4018 5404 4716 6619 1991 4714 6421 3373 3068 7051 6107 4436 5462 4008 1520 6062 4182 2845 7375 6269 5272 7360 4282 4582 7277 4852 1587 5100 6460 6367 2993 6444 1283 6753 3735 2050 1796 5373 2965 8245 3183 2370 3643 4409 6433 1305 4743 6015 3861 6087 5645 6754 3342 7706 4981 4603 6003 1114 42 7425 7261 1461 7937 5319 6481 9221 2539 6701 3770 4439 6091 5231 2546 4978 6412 5273 4981 4075 4239 8317 6689 8910 5004 2015 8580 1106 647 1656 8428 5824 4496 7000 3618 8772 1114 6477 4832 4445 3340 4126 4951 1694 3912 3062 5795 5814 3324 6602 2787 6243 2081 5705 4329 8177 4569 9639 0 5422 8940 3895 3196 7647 946 4682 4641 6700 3007 1113 4749 8094 5266 6949 3497 4864 5235 6705 2720 1331 2899 4302 6529 8670 4251 4857 3635 8942 5148 1279 865 1786 8435 2134 4497 2214 3280 8352 4928 4293 5537 3619 1138 4668 2855 3361 4640 4152 4856 8598 1113 1079 8080 1981 2345 8735 3657
2957 6248 6313 4214 6516 5755 5014 4716 3938 8060 7930 6277 3489 8893 5861 6583 5927 1690 7172 9097 3404 5507 2755 2826 4267 3060 8437 8187 2081 5865 6039 1479 8939 8749 4879 4734 6580 5758 7283 7915 3152 3572 5733 8057 6442 4563 5807 2283 4540 2995 4135 5706 7764 3513 5917 3989 5808 4999 5155 3990 8843 6480 4356 2863 4044 5311 3634 3226 5530 2736 1727 1702 6368 5562 4709 5281 2408 3311 5487 5988 8581 3791 4479 7029 7121 1523 4413 4590 5026 3317 5445 5424 6438 8484 1151 6161 3234 4727 2050 2342 4100 5060 698 2044 3848 4584 1557 4264 5811 3319 2337 2547 2716 4413 4825 4791 7603 5589 6279 6970 4953 4044 6856 3216 7729 7446 4077 5441 5943 3384 2572 5741 4089 3358 4138 7376 2379 490 3338 5279 4205 5197 3320 3596 7123 4718 4151 4717 2325 6519 4866 6249 6998 3768 4681 1049 4061 5860 3136 7669 6415 4714 9583 5883 1839 4541 5431 6687 4346 7784 8751 5321 6677 1747 6225 4813 2207 5973 5106 3516 5839 3623 4593 5511 2613 3837 3508 7517 3846 5963 4401 4368 3782 4181 4838 4882 1733 2969 4169 8338 5621 3111 3120 6017 1756 8624 5163 5485 6899 5520 3016 7913 4846 877 5656 7746 1729 8060 3972 5566 2693 3837 4848 3292 7467 3029 5615 4761 5426 2892 4166 3417 6756 4737 5798 7054 2527 2073 3917 3767 999 5422 0 6841 4090 3086 6398 3058 5375 4092 9528 9126 8534 4757 2428 2495 4585 5706 4580 6537 5867 2559 6580 7315 3588 6136 6633 4284 6086 3398 3573 5110 1750 7964 2792 4930 6929 5794 8740 4997 7706 4037 8831 6886 4737 3079 3095 1665 2865 3447 6809 3048 5731 8725 4422 3913 4875 4604 1404 3504
3479 4416 3814 5297 7131 7107 5255 6860 1576 6189 2123 5364 6426 4547 5385 7883 8000 5025 2270 3462 5290 6199 4666 5810 4724 4317 6074 5633 4616 5605 8235 4731 5458 2638 7475 4061 3221 4557 4124 5375 2499 1769 5350 3539 2036 591 4358 2776 3577 4067 8466 6122 3862 3271 3525 3675 4337 4171 6378 9328 2860 5130 1261 4862 6140 1729 7449 2537 5462 3761 2266 6493 4819 4228 5964 4385 5949 3173 4731 1208 1928 3889 7863 6326 7158 5715 3235 8136 7844 2835 5230 5534 6308 5491 4681 8794 5161 2819 2988 7670 3979 5119 3550 6779 3728 4165 7148 5497 3717 980 4265 8414 6590 4720 7794 1952 4829 6745 7662 3899 3228 7629 6491 4124 1516 6499 4938 2658 3149 2933 5331 3531 5890 6043 4246 3942 1125 2743 2617 3054 584 3395 5712 3168 3849 3493 1939 5104 7099 451 4894 5403 7756 1210 4918 7468 351 7551 1480 4983 5987 2927 1500 6641 5366 5343 4464 5763 6891 7400 4715 2297 4739 3923 5314 6834 8257 4922 2447 8772 7364 1257 6622 4879 428 4529 4288 3164 6006 2496 9578 4305 8502 3031 5816 2122 4524 4073 6061 9356 8135 5745 4445 6323 1789 5505 6303 5258 3128 2682 6257 5232 3491 5264 2501 6095 5561 4640 6137 3211 6519 3202 6990 3276 2406 4568 1466 7463 5335 2707 3186 6889 7631 4121 9086 4732 6431 3673 4479 6815 8012 8940 6841 0 2369 7077 1620 1731 6899 4704 8291 4759 3592 1664 7120 6905 2772 4984 6671 6198 5899 4035 7471 6214 5834 4649 7915 4840 4172 5543 3477 7070 5722 7608 658 4589 6410 5298 4611 5789 6293 4308 4272 8403 9917 6929 8375 7460 5444 5107 5077 5146 5339 6384 2197 7949 1269 5596 5553 855
6029 5777 3769 3836 5298 7601 1232 3230 3829 5010 1991 4888 1929 3278 5216 5137 4003 7894 5204 3052 6854 5723 3803 3795 3733 6038 1957 5238 4445 6689 2323 5016 4547 5176 6966 2983 8381 2083 6221 4709 5246 5914 4940 5068 6661 7938 7014 4505 3780 6030 6485 6073 4329 1564 5137 3408 5694 5781 1191 3794 3636 3476 7877 143 8656 6866 9171 6498 3558 4263 7898 4517 6402 4863 3165 5802 5239 4484 6453 4560 3938 5545 8878 2976 4336 8670 4175 5459 2113 3639 3594 1544 7532 7950 7271 1896 679 3325 7101 7516 5684 6070 4880 1628 1034 4603 4835 7298 8233 3662 3932 2668 1910 3842 3047 8197 3255 1941 8233 3889 5055 4547 4325 2333 5563 5350 4467 6578 7754 4930 5721 322 8957 1894 4717 5935 5296 6239 2088 6075 2314 5675 5640 3443 4458 6676 1796 7660 7057 4021 6094 4392 2839 5119 6674 3962 7778 4682 3767 7839 8991 3862 3687 4033 4983 3290 5465 4141 3726 7562 5097 4112 4366 4091 4757 2739 3121 3294 8774 5107 3390 4302 5159 2680 7166 1585 5640 6012 7944 4555 6739 4240 6723 5202 8439 4262 6614 484 8458 1850 2369 7958 4690 5463 6125 8420 4506 3602 5932 4745 5759 8667 6286 5004 6053 5804 4963 3870 4300 5313 6265 5723 5825 3965 5049 4994 4886 5426 5104 3813 5059 8593 5254 4767 1442 4355 4574 6682 4289 6307 3384 3895 4090 2369 0 5472 1937 5351 6971 774 7317 5144 1270 2027 3703 8112 4948 5104 5687 6600 4147 5070 9497 5369 3731 3743 5776 8641 4668 4493 8475 5219 8114 4327 5057 8138 2401 8437 5540 5235 5791 5531 1837 5549 6964 6698 2984 6274 1577 3225 5459 4642 4143 6185 1468 4505 4958 4149 8680 5147
9547 2010 4390 4704 4159 3424 1790 6773 5323 5593 4189 3505 3544 2835 2438 4438 6841 6513 3393 8027 3610 6287 2360 2631 4880 5772 7349 6720 4047 7437 4208 1360 5764 1680 4429 4131 4811 6260 4738 4184 6169 3453 6740 6024 1544 4112 4230 4220 5459 7801 5936 6687 3029 2155 879 1642 1828 3971 3659 2782 2471 5458 3261 4494 5293 3211 4686 2155 718 2155 4395 3904 2711 9201 7050 8660 5558 5469 2413 3756 7082 4708 3706 1244 4086 7544 3361 1780 5873 676 3505 5799 4456 6904 4911 6792 2716 8156 3371 6053 6845 1337 7350 7447 6982 8315 4248 5298 4481 8744 5374 5744 2757 1823 4943 5527 6841 7602 5965 3434 513 3891 7854 3391 5109 7693 5915 5634 7980 2858 2739 5762 6963 6180 909 1220 5579 6352 6281 3563 3178 5009 4926 5957 3130 6733 3440 6586 6136 5692 4404 5411 2683 5781 6400 4766 2741 4266 6972 8889 3554 1088 4823 6620 8499 7060 427 4829 5389 1011 4397 2493 1856 7669 7209 5531 313 7715 6308 3681 3794 5068 4608 5182 6359 4257 6650 2719 2718 4637 7652 6049 2418 2446 5266 2235 2699 6936 5219 7506 5419 4984 5409 7971 878 9107 1652 2938 8624 1721 5183 5017 4540 4729 4777 4842 4693 9529 7821 5739 1851 7752 9769 8132 8268 4598 5749 7807 2944 3889 5925 7928 7565 1252 1656 7848 6860 5443 5512 5731 2706 3196 3086 7077 5472 0 7702 8321 6128 6036 3079 328 8075 3131 4233 5727 7573 6077 3367 4903 2381 7717 1848 3860 8383 5223 5201 4573 8935 2817 2793 5149 6085 7941 5051 5828 617 4681 403 2236 2248 2325 5235 3227 5913 1991 3526 6131 5676 2729 8033 1055 6151 7871 5172 4210 3193 3097 5353 6411
4334 3931 1638 4476 6961 8385 6172 6043 9741 2877 5495 7052 1706 8881 4975 3973 1012 4955 2869 5019 7514 4842 2545 7002 2459 4975 5849 923 6001 2252 3209 5640 4312 6188 1255 7844 6560 6558 8549 8672 4249 4386 4748 9454 4995 5136 3011 3106 3875 6996 5947 2102 5302 3551 6031 6731 5747 2735 2680 6330 4104 5985 8056 6416 7227 2762 4776 1865 3225 6163 5290 6409 7712 1421 7850 6985 3750 3269 5631 2757 1974 4386 2730 5798 5087 2985 5800 8418 2242 2443 2493 7053 6324 2354 4662 4369 6861 8039 7470 6207 820 533 4958 5457 5739 7215 2021 5950 6754 8321 4509 4721 4172 8645 9106 6229 5767 1716 4151 3447 3146 3601 5457 154 1777 5130 7194 617 6267 5476 4581 6147 3897 2109 7194 6622 4802 3099 5049 2615 6203 5755 3954 7611 4824 4682 8476 9118 2652 2933 5989 8211 5271 4368 1063 7212 4899 5114 3472 5813 6042 5449 2794 4339 5401 5626 767 7530 6116 2052 3863 5930 1523 3478 4237 5600 3152 5249 7520 4542 6498 2837 1903 7224 5895 5043 7131 5354 5352 1711 5523 3864 4390 4327 2821 1530 6470 5358 6194 707 2192 1453 1575 1741 3573 6167 6207 7059 5495 5314 4920 6371 6494 6479 5143 2539 5524 4580 7451 5480 6223 4694 4424 2561 3123 3790 5785 5920 4890 3766 5895 3211 2745 6929 8324 2445 5623 7046 7071 1188 5020 7647 6398 1620 1937 7702 0 6247 8520 4849 5142 7233 1755 3906 4579 2994 6490 4033 7676 3400 3410 6719 7529 524 3493 2240 5813 4654 2861 4353 6157 2911 3095 4103 546 7028 4938 1738 4028 7289 1889 7377 2504 4853 8130 6800 3186 5653 5423 2429 5194 9009 4456 4611 4193 4629 5796 5452 6117 2213
5251 8506 2355 2223 2454 3409 7771 7882 3811 5416 2184 917 6216 6874 6213 5756 7670 5232 3723 6399 9360 6072 1861 6369 1248 4660 5049 4854 5728 65 6284 6618 6952 8186 9779 6917 6477 4410 6817 2355 5257 4311 6340 4183 6652 7098 7981 6064 4454 9046 3964 4768 7719 3972 2623 7361 7376 8541 1604 6761 5034 5837 4881 7168 3567 6015 2907 3638 5104 7686 5330 5351 3685 7029 4506 6631 3749 9734 2108 8047 2735 5542 8650 2300 5199 4685 3325 563 5323 6965 8247 6209 3309 4912 4651 5308 4697 3096 5801 4451 4761 5566 3234 448 6507 5382 4447 4299 4414 6795 4898 4639 5986 4250 6093 4159 3048 6238 7233 2916 4443 7177 3105 5303 4591 1017 5392 8184 6900 4840 298 4409 5373 1321 2769 6232 8809 5887 8701 1039 2289 5089 1683 631 6044 3192 4049 4382 3790 5132 1416 3528 6862 8902 5936 4670 390 6666 6177 3851 4840 5195 9297 2589 3958 6649 7417 2025 5228 6636 7913 4742 6776 2378 3466 1325 7849 2422 2066 4502 8875 5461 6962 6517 6029 4748 3410 8335 5108 5537 5143 5441 6894 1282 7305 2289 3700 3622 5810 8401 567 5229 3249 4242 4086 5080 3671 1294 5385 7041 3486 4239 1267 4767 7633 7177 8260 1545 5592 4912 6378 5496 5254 3324 1870 3613 6911 5646 7229 4492 5659 2325 403 4376 1983 7770 4022 6088 2830 5316 7107 946 3058 1731 5351 8321 6247 0 6662 4396 3162 2746 6645 2434 5938 4863 5141 7471 2280 5950 5024 4198 8350 5622 6233 4907 4378 8049 9480 6468 3249 6026 3369 4908 1311 5095 3787 4674 3875 1658 2745 4675 5077 5470 4035 5617 2819 5948 6676 3957 4668 7354 6770 1288 5650 2868 5496 1745 3154 5841
8300 4043 5706 5747 6563 4967 5128 7995 8675 9265 5341 5216 4857 6860 7262 5584 6860 5354 6061 4215 6055 6372 4710 4526 5536 3232 5740 5685 6715 5214 1704 3771 8617 3643 8256 4580 4203 4127 6548 3669 7107 4161 1106 5415 4868 1271 3641 4503 5118 7091 1381 7591 5962 6304 6942 1189 5796 5880 8099 4208 5230 8209 7020 6518 6427 2799 5651 3629 4912 7507 7624 3910 4678 5528 4474 6407 8064 4800 5478 1234 5499 3180 8275 7924 4886 2458 4183 2594 3612 3485 5095 6047 5910 4228 7923 9067 3441 6996 6619 9004 4430 4974 3243 4032 4242 4586 4620 5508 3294 6929 6997 7624 5086 3715 7032 4757 907 2621 7516 7880 7153 3284 5934 3562 7446 2373 2782 4372 5342 3419 2353 3026 1716 3100 3995 3669 7260 6862 5406 1105 4742 2766 5809 5952 5786 5340 4727 4148 2631 4454 3874 8351 5275 8180 8543 6333 3114 4724 6614 5934 8013 5755 3747 1431 6867 1863 6760 4570 2391 7517 6830 9733 6959 3560 6386 3451 9373 2947 4401 3753 3083 3325 2759 702 3127 8426 6692 4607 4777 5094 6707 5174 6298 1840 3307 5530 4985 5190 6282 5981 4445 2776 2112 5398 6960 4889 544 5147 2206 5299 4496 6044 5670 4628 6665 7316 741 6124 993 8224 4533 5830 3440 4778 5490 2272 5079 6395 5111 7820 4072 7024 4627 4145 4586 5188 6843 8781 5153 4681 3131 4682 5375 6899 6971 6128 8520 6662 0 3882 2284 7467 3234 5325 8044 4239 6979 4516 3821 3730 3187 7323 4323 6902 6584 5715 4886 5324 3067 2347 3645 7376 1875 2984 6746 9080 3682 7495 4631 1905 3456 2077 3399 2303 3618 6443 4795 6987 6803 2526 6502 911 3882 6858 3810 5377 5399 6742 5807 3633
3939 7080 6890 3702 2437 4270 2999 4645 2704 6742 8104 6619 6151 7534 5859 4935 4156 5183 4671 6947 7145 3653 6933 4392 1302 3263 3916 3696 2267 1803 6018 7525 4903 5118 4345 2413 9013 4322 5568 4516 8786 1160 5717 5454 7979 4883 6029 4341 3432 4121 1990 5506 4748 2334 6322 4327 5038 5616 5650 7950 4210 2844 4723 9180 6453 5355 2406 3752 4751 4025 2700 5141 4969 3910 6722 2298 5081 2796 5803 6045 960 3055 4324 4863 5661 4130 4827 6071 5330 1884 7686 8485 1896 6143 6909 4662 3664 1797 7751 4672 4702 4384 6695 4519 6869 5412 7323 3759 2152 5622 3037 3667 6849 5982 4054 8172 3356 5046 5741 6162 5424 3587 3135 7333 5530 6243 5722 4641 2617 5589 6747 7991 3188 7361 7006 6100 5238 6030 4609 4509 6685 4927 6691 3732 7189 4133 6091 4482 2680 5207 2817 7108 2933 7667 5564 5408 2261 5137 6074 2338 2570 721 9000 4918 3998 4673 6261 6904 5637 5600 4921 5601 3517 1216 4418 4119 5080 5191 5033 2396 6429 7929 4851 8059 2231 4849 8232 2270 6557 5202 6411 5705 5141 1855 3716 4832 1291 1674 3799 6702 3373 5842 5036 4362 6884 5829 6677 1389 7679 2852 2160 6786 3713 5659 2838 6053 5131 6020 7158 2045 3766 6586 1571 6568 5193 5448 6371 5605 7879 6351 4392 4891 7789 2969 3351 3917 4324 7599 6555 4068 6680 4641 4092 4704 774 6036 4849 4396 3882 0 2156 6393 5231 6787 1677 7440 8699 2182 3273 6315 2016 6582 1799 1640 7272 2029 2887 3491 5483 5963 8184 1293 4687 4238 3307 8603 3257 8451 5065 5622 3822 9025 8916 7206 4363 779 2798 3585 3876 4120 1065 1636 7999 5720 6725 3518 6374 4343 554 7552
3416 2726 5919 8567 4994 3386 3703 4013 2063 6721 3761 8248 7881 383 6103 5155 9302 6450 4884 7694 8535 5321 3436 8266 3977 1092 4192 1974 6422 4755 8342 9147 1881 4243 3648 3842 7948 4000 8922 7530 3872 8601 3048 3058 3936 6347 2233 6166 5904 5678 3304 4770 3557 6143 5272 6519 5555 4568 1538 1956 5730 2544 7165 7606 7071 4789 4827 7096 5382 5031 3768 4624 7268 5906 6060 8307 3117 4651 2266 2763 7002 2901 7007 7763 3938 3840 7325 6726 4294 5410 5165 995 3588 6822 7329 2354 4172 1602 5255 1097 3093 4607 5978 2719 8005 3546 7934 2971 5244 7483 7829 4950 6708 4539 7923 3918 8536 6636 6620 5424 4790 4634 7490 4507 2063 6625 5477 5955 6363 3305 5345 3508 6748 4480 1950 3139 7115 783 2782 3929 5086 6911 2083 2905 1815 1830 7881 4568 4294 6153 4494 7839 3039 3950 4148 5597 3228 4487 3307 6545 3414 6125 1960 7615 6519 6266 2298 3639 7223 4278 4530 7528 2675 3405 6314 5743 6561 3319 1905 7275 1624 3639 5528 4803 1426 2482 4074 1945 2993 3407 6341 7572 8343 5219 3325 3237 7643 5835 6839 3846 2728 4747 2548 5340 3127 4541 4535 3280 8448 4934 4918 3317 2023 6617 2707 5709 6250 6560 8763 1095 6378 4697 8553 8869 5019 8815 1416 3447 6852 3398 3848 4401 2774 6134 2149 6007 7991 5104 2706 3299 2323 6700 9528 8291 7317 3079 5142 3162 2284 2156 0 2118 5676 6181 6209 5952 3343 1458 8452 3857 8603 8669 4588 7495 6492 8511 7085 3971 5076 3501 3354 3175 5954 8488 5464 7447 1675 4728 5683 3657 6145 6988 6872 3123 3417 3809 3583 2187 6519 4396 664 7752 2104 2254 7188 7465 6175 4332 5756 8173
2591 7057 5338 4514 8409 4920 6602 6497 2023 6381 6190 7376 1666 4411 1906 7962 4483 3256 5718 1936 2182 7603 7105 3549 3897 7357 2134 6343 3904 5718 1204 4973 4194 4051 4442 2934 3959 4785 2582 807 5391 8297 2017 1959 3271 2644 3961 5117 6045 3226 4043 7031 4576 3956 542 5643 7779 803 3407 6375 6816 5653 7193 3713 3475 2544 1411 4647 5223 6149 7236 5343 64 775 3237 3783 6537 1907 8589 6398 5568 6415 580 8756 4865 6414 6826 6748 5055 8384 3276 5460 4745 3703 5348 6673 7876 8176 4930 7637 3462 9103 3744 6684 7050 2811 1249 6010 5903 7605 4048 7591 6637 4833 4185 2884 2685 5413 3171 5870 5487 3669 5906 6373 1103 7085 6261 6232 2682 4227 4598 4514 3948 5274 4321 3695 7799 8936 7445 6276 7599 7365 3386 4388 4426 6303 1976 2145 3406 4608 7425 6899 2537 2193 9028 5807 2268 2547 4110 5830 4870 1725 4776 5344 2591 4560 6464 6401 3669 6252 4558 7059 6371 7955 6634 3365 6428 2444 9598 6429 6174 6374 4472 4779 2885 3487 4597 3263 4223 1151 7748 7388 4643 6521 4991 2801 5757 6362 4693 8170 7120 1527 5302 6030 4088 6765 2741 6068 5647 5654 3524 9454 3442 4758 330 7727 1731 1133 5607 6312 4313 3683 6077 2690 4369 4421 7169 2323 1633 7182 5635 4609 4341 4804 7259 4053 4719 5295 5780 4481 6043 3007 9126 4759 5144 328 7233 2746 7467 6393 2118 0 5589 6194 1858 5633 6341 5775 6394 1247 8432 7138 3750 4434 7337 4186 4688 5632 9513 9246 3214 5981 5696 4237 5701 6710 5688 3992 8788 4508 6091 2553 5829 1873 7979 8187 7662 6663 8418 2774 4111 6630 4981 3065 5262 7876 5429 7315 6660 2707
2999 3594 3737 3073 6461 7824 8416 4274 6651 3829 4882 3277 6221 6188 3810 5861 2918 8694 4916 3653 4898 4546 6441 1657 1221 4343 3985 4582 6534 4700 2735 5639 5115 6297 2889 4836 6746 7007 5087 8070 8312 4540 5378 5744 4947 6502 5481 5335 5066 7430 6654 4085 5661 6440 2302 6883 7664 6103 3128 7279 2125 4999 4850 1924 4553 8212 5269 6639 8661 4281 2511 5976 9058 1521 9332 2315 4753 5055 6630 4214 5071 2931 7056 1603 5419 6644 7351 8509 3566 3662 2359 1712 3695 4608 3078 4445 3498 3889 4081 1597 5592 8502 5608 4289 1931 5283 3984 6597 6698 8572 5853 4946 4633 1202 8375 5718 4530 3051 5503 6519 1679 1690 4021 6623 5801 1193 6508 1407 5925 3002 7145 1914 5091 7348 8151 2560 6223 1928 4436 2771 3355 4495 7437 3394 4570 6952 4425 5131 6722 1853 4451 2370 4596 2257 6652 5903 3200 3292 4710 5179 2554 4632 5431 4557 656 4626 5973 7341 8315 5477 8340 6426 5414 4332 5675 5529 6800 5454 6880 8333 6880 5146 2375 5766 499 6619 3843 7460 5084 5201 3772 5124 3348 5646 7006 6824 1680 4769 4426 5054 8332 4893 5746 955 3153 7610 4121 4454 5759 6481 5755 2900 4921 8079 7903 2068 5309 2409 2755 2224 3116 2877 2621 7874 9081 3094 5507 5037 6155 8828 6195 5641 5444 7262 4142 4214 4251 1486 8486 4151 1997 1113 8534 3592 1270 8075 1755 6645 3234 5231 5676 5589 0 3618 5511 6242 4688 5000 4484 3350 3328 2784 5214 3991 7884 6931 2262 893 1893 2905 8418 7845 6041 8293 8061 1007 2538 8569 8171 4558 3714 6231 3615 4033 5897 4142 589 2414 2250 5923 6843 5109 6079 6002 2404 4862 7915 2918 6934 5324
7862 5060 7338 7643 6917 7166 1039 5018 3982 4247 4512 2350 4899 2973 3017 6298 886 3590 8516 7951 5480 4343 1885 4803 7865 7420 8459 5909 6586 4914 5020 4408 4845 7193 6885 5162 2395 3589 1371 5298 9313 3141 7424 1205 8201 4083 2111 7726 1264 8460 4764 5957 5785 5613 6811 5554 3635 4358 4397 7092 9510 4478 7930 6828 6761 6209 7252 1606 5796 8979 712 6036 4867 4468 6222 4612 6675 2380 8431 8145 2499 3926 7628 4088 7237 2713 2788 8263 5637 4488 4171 4689 4943 1808 3905 3110 5809 2586 2490 2814 2277 9234 3674 4754 5074 3867 4789 6908 5497 2599 4268 4583 6189 6694 3539 3557 5640 7244 8386 6769 5603 2459 6913 4355 5657 2736 5863 6320 2835 3048 3528 3330 5245 7034 9471 9220 6946 904 719 6983 6065 4841 5860 3911 3415 3099 2013 2920 2310 6180 7077 7212 4743 9052 7643 4741 8228 3629 3118 8674 5832 3443 3572 6385 4316 3166 3619 5172 4892 5368 8637 2951 6535 4143 2228 7183 6272 8217 4819 5197 4738 2438 8914 6947 4560 3852 4390 6703 5485 5941 4696 8741 906 5462 4907 978 6352 1096 6446 7429 2715 8462 3651 2716 6790 2179 6990 5725 2759 4153 5556 4805 8184 3768 5783 5346 8300 8847 6581 4053 2138 710 5725 8076 6549 2972 3900 4792 5670 2437 1286 7730 4774 9252 3326 8874 2232 5336 3074 1565 3511 4749 4757 1664 2027 3131 3906 2434 5325 6787 6181 6194 3618 0 2962 5686 4711 4895 3559 6562 7016 3432 2992 7008 6318 5532 7520 3094 2634 6141 2063 7336 5683 6862 4532 7888 5075 3994 5654 4825 4642 4525 2214 3849 7122 3703 3898 6535 3813 1776 6262 7216 459 6410 5305 7260 4697 4750 3634 5256
4359 2657 3078 8945 9851 5955 9295 8436 7672 3183 4856 4259 7138 8242 9102 4208 3021 3331 6503 6618 2666 1862 7468 3783 4956 5188 4127 5275 6435 2393 2486 5969 5914 8767 2880 1906 3350 9420 4421 3636 7511 2065 3034 1780 4523 4527 4831 5011 4562 5568 4909 6422 4335 6788 2925 5566 7334 3606 1950 6583 4942 5909 2888 7339 4740 3855 1927 7099 9612 4975 8946 1329 6685 6036 4342 2272 3441 6347 5031 2669 6760 2525 1949 5417 5092 3189 1920 4006 4915 2552 1307 8162 9193 3329 6984 6041 2794 3121 3829 1293 6775 7558 3330 4872 1362 3587 8776 3094 5797 6419 7532 5773 4468 3078 5359 2350 2593 4659 5639 2373 4672 3366 6754 6430 2277 1485 5680 4087 6169 1962 7289 5044 5511 4137 4100 8161 5924 5122 4875 5702 1045 2961 2017 6408 4350 5336 2579 2993 7446 2894 5725 6193 5238 4324 2145 2488 6847 2783 4886 4987 8009 4164 3533 9094 3054 6431 9581 4534 6298 5865 9294 4648 5522 4270 4051 4325 6477 5995 2459 6151 6393 5414 4223 839 5724 4393 3666 6327 4696 4904 2915 5331 6233 5142 7236 5309 7838 5243 5519 5803 7326 9184 5338 6728 2755 6067 2413 3937 5249 3406 7442 7211 4365 4145 5515 7371 7673 4089 5142 6713 8812 4750 3418 4145 5638 3380 6782 3781 4713 5115 8871 6410 4599 5040 7507 4698 8707 6236 6646 5056 3515 8094 2428 7120 3703 4233 4579 5938 8044 1677 6209 1858 5511 2962 0 8007 7243 5649 7951 4633 5074 7475 1907 2379 6534 6138 8291 3151 4070 3374 3005 5254 5594 823 4292 5582 7936 6438 2972 7753 5158 5189 1453 7075 6170 2709 6331 4807 4568 2177 7538 7594 4862 7159 4354 5481 4370 5179 6370 7668
5571 3524 6648 2244 3802 6628 4194 3451 4233 4982 1026 5750 4221 4170 2727 5946 1979 2068 4130 3949 1188 4351 4560 4016 3302 6833 5065 5404 8731 7782 4592 9711 3408 2176 5353 3665 4729 8673 3792 4679 6868 6022 4481 6450 1038 1234 5372 3965 3747 3304 6950 2569 3579 2117 6110 5749 6052 3873 8642 6252 861 4828 4646 9820 4696 3763 7150 2413 6824 3752 5729 5165 5035 6032 3540 2113 4960 6509 2992 6814 2045 8967 4199 3336 6621 5647 3873 5706 5656 1032 7777 6762 1275 4014 9410 1790 8231 5697 9393 5396 7119 2407 8419 6213 7970 6268 8028 3450 5567 2929 4129 6033 879 1935 2504 4495 8613 6402 971 8905 7234 4761 1782 7239 6450 5270 5139 7379 8346 2302 6636 9214 6963 840 2014 2634 6270 5219 3778 4466 2877 5518 8689 553 5308 6168 3565 1097 4158 8159 9559 1997 5288 6030 7608 1507 8025 7080 5854 9222 2509 8740 4155 5626 6058 5274 7597 5373 5346 2447 6061 4967 5591 7334 1697 1588 3966 7017 5926 2779 5340 6127 4132 3198 6345 9920 4931 3102 6277 6040 2716 5498 6159 7572 3100 5202 1626 1043 8109 4430 5658 5749 5597 4374 3922 5573 6949 4439 978 6312 2493 5584 7964 7965 3377 3236 2451 7800 5681 5962 4676 5705 4876 6791 2157 2867 8040 5780 5296 6210 3259 8155 791 3400 7643 6532 6423 1879 3717 6196 8334 5266 2495 6905 8112 5727 2994 4863 4239 7440 5952 5633 6242 5686 8007 0 2183 4917 6896 4570 6509 5508 7819 755 3014 5470 3782 5363 4662 4034 1122 1431 2289 2348 4783 8730 5097 4989 4420 4854 4935 4129 5107 6132 3875 3510 7390 1596 6184 1779 1389 6029 3875 3821 2480 2717 2514 7851 5767 9085
2099 6422 6200 3820 8620 6060 3440 4062 3893 7381 1695 6759 3067 3165 2733 8840 5864 5399 8304 6069 4775 5484 5000 4318 5464 3321 5233 9136 3706 6643 8068 8538 3841 3632 5848 4408 8790 6165 2341 6012 5087 6438 7859 4864 1089 8608 4693 6319 6613 5021 2597 4730 5493 7015 6547 5732 6672 5246 4031 6184 8346 6276 4151 4930 5833 4902 1177 8036 4089 6196 8093 6094 5105 5738 5914 3740 4206 2485 3938 1538 6283 3583 6020 3472 5117 5766 4345 4715 3373 2967 5702 5196 3298 332 4608 5475 3414 4934 4827 6587 2954 4616 6804 6259 5468 4976 7481 2304 3549 5264 5213 5470 4414 4506 7395 4215 5759 7423 2990 573 5979 6805 6221 8076 5999 7849 7183 5694 3349 2613 5806 592 9354 6207 8661 5289 4957 4644 2269 2271 4867 6461 1752 3993 7323 6981 5182 4650 4115 8069 5429 2032 8399 3109 1664 6816 6440 4369 2766 5819 8539 2204 5708 9718 4217 3164 1665 5062 4962 3738 5532 2670 1673 5064 3769 5005 5945 2069 6060 5178 3867 2410 5735 6690 3582 6057 4714 5412 7433 6152 3694 5100 9198 6786 5457 5634 5221 3445 5987 8569 4420 5152 5353 4472 5263 7698 5816 3927 3729 5547 9069 6533 7879 7454 8091 7720 6331 5469 4610 5854 4947 6435 7596 5284 3497 2716 5457 5533 3352 5828 2014 5054 8896 618 5689 5132 1036 5261 3322 5019 3690 6949 4585 2772 4948 7573 6490 5141 6979 8699 3343 6341 4688 4711 7243 2183 0 6486 7435 6736 7015 4000 1349 5392 4190 2696 7123 5491 1770 5492 7708 2168 6526 4144 7480 3482 1242 979 1727 5489 5337 5492 1079 6255 2039 4819 5489 4456 8463 3137 3367 5332 4647 145 1447 5193 2726 5340 7949 5416
2608 5945 794 2525 5269 5767 6708 5172 3876 8386 6453 7549 5919 5207 5933 8091 7082 3807 5868 4694 4854 5486 7447 4835 7746 7104 5117 4920 5580 5660 4723 4897 1003 6580 4735 6033 5204 1527 4911 6295 5613 4150 6592 540 6511 1922 4039 3059 1354 6900 6144 4351 4490 3050 3935 2975 6133 5851 5993 5117 6669 4884 6542 2193 3011 5105 3074 6276 5869 4514 2578 1120 4472 4662 4040 5220 4093 2233 2171 3613 2986 5771 8701 9368 4253 3942 3183 7312 7709 5796 5870 4930 3031 3836 5778 4123 5299 5486 3542 2831 5331 8115 853 6360 5141 3692 3253 5351 4288 7147 6423 3152 6349 2462 6167 2048 5898 4523 8349 7614 7496 7210 2770 6482 7276 2003 8835 5548 2894 4078 3274 3917 6766 1768 2134 7307 5029 5531 5727 6020 7843 6132 6212 5074 3712 4766 3292 222 4766 7439 4448 4599 6426 4715 1953 4925 5345 2428 5180 8149 5511 6006 598 3743 5274 3814 3161 7555 5421 5238 4724 3394 5131 4449 8999 3949 5340 3665 6298 4799 6952 525 4254 4019 5057 4657 7116 5462 9004 2585 4409 7831 5027 6180 5682 3065 5079 5087 3699 6260 802 2769 4817 3784 6999 5055 4859 7953 3077 8939 3714 4178 7565 7727 5526 4314 1036 4519 5251 5150 3910 5725 1999 3076 8278 3186 5239 6765 4137 2523 3463 4682 6200 5169 4832 3965 2541 8462 5622 7243 7225 3497 5706 4984 5104 6077 4033 7471 4516 2182 1458 5775 5000 4895 5649 4917 6486 0 6289 4486 4962 2039 3941 5906 5960 5453 5576 9632 1878 5242 5362 3830 4340 4075 5277 4267 8257 985 4515 6661 1806 4895 6486 6525 4239 2989 5162 9209 3445 8443 4609 3972 5478 6065 4051 5466 2753 1377 1425 3162
6193 4304 4743 2177 4608 4519 1131 5060 4686 4308 5049 2549 3829 4355 3719 5487 4027 6032 5967 4745 8000 6463 568 4853 3014 4937 7836 2085 7202 2010 6292 5705 5863 1269 5540 6362 4852 5162 6313 8753 4837 4075 2742 8206 9478 3133 7260 8045 5586 1693 8610 3323 7083 6651 5622 3500 6654 5174 7188 5571 1769 4106 8985 5799 4209 3774 8279 5329 4639 3011 2461 5749 5410 2935 5126 6595 5383 5771 4976 4543 5211 6742 4069 7708 2990 5263 4132 5227 6900 5007 3372 5173 6356 3204 3560 8719 3877 2179 4970 2485 2596 7046 7713 2991 3014 3996 7727 5433 6365 5423 7493 6359 4618 2653 7435 5422 2554 8566 5805 2361 3668 5865 5178 6268 3303 3316 1733 3106 2509 6878 4267 3996 3924 4629 5077 3104 6418 1076 7639 2412 5944 3980 4154 5148 8372 5206 7481 7407 5407 3321 4473 3913 1941 2174 6758 5412 1074 1943 5730 4794 7332 5278 8779 5491 3456 8433 7565 3156 5157 4145 1857 5534 8332 6266 5113 2850 3143 6962 3435 7535 9362 5804 8996 4985 6899 4196 3993 6203 3752 2320 3511 6024 6529 4495 5706 3571 7262 6708 8636 5636 6736 6830 6902 2895 5208 2635 3911 2896 7006 4426 5041 5858 2628 2022 2393 4811 3584 5559 4892 8047 1350 5022 4985 3358 5509 3219 8441 7648 198 7738 796 6209 4618 7504 6386 2425 2394 2102 3210 7168 2768 4864 4580 6671 5687 3367 7676 2280 3821 3273 8452 6394 4484 3559 7951 6896 7435 6289 0 4197 2065 4733 4641 5269 4249 6852 6700 665 1360 5856 2591 4946 8105 4303 9153 4202 4756 5575 5998 5385 5422 5911 3247 6420 3849 4363 5348 2294 2362 4670 8999 3594 2785 4076 3624 4600 4264 6952 8384 8545
3235 6757 6605 3138 6923 4953 3649 6490 9781 5436 5006 6774 4972 7455 6861 4710 3386 1170 1565 6089 4702 6616 5611 3528 4967 8663 3993 3791 2060 4586 3699 7529 3594 5044 7480 6596 2518 5910 3919 1903 4399 1882 1766 3273 1789 3268 7451 5009 6724 6288 4655 4230 5731 7057 8647 4948 5500 8703 4755 3295 6143 2792 8675 2379 6469 2952 7830 3544 2202 5729 9001 4233 5305 4051 8699 7935 6870 584 4033 5839 2021 6821 1565 2350 4262 2932 8448 5505 5541 4452 1538 6998 2387 7719 6554 3511 7168 2846 5950 4264 4445 2536 7550 2958 1575 3895 4459 3713 2315 401 8096 4777 7281 5953 4933 3968 5456 8613 1822 2856 5555 2003 7505 2105 7399 2186 5089 5993 4169 3746 4194 6210 7560 5464 2038 5191 3849 2317 6307 3170 3803 3619 5692 6824 6387 3774 5703 5046 4420 910 7805 1190 6564 5009 5764 4181 8936 3590 8561 4997 5858 5232 8328 8383 2456 4125 4299 7351 4170 5434 6037 7617 8527 5550 6203 4489 3253 3463 5794 4909 5165 7301 4278 4873 4493 3417 6705 6004 3711 4477 2628 8818 8335 7356 6394 2890 4860 1833 7669 2909 8063 5371 7612 4550 7041 8070 2515 7551 1733 5147 5212 5079 3152 4597 6405 4426 6798 6366 3653 3907 3728 3762 6936 1070 2935 1969 6703 5579 6546 4352 6863 4525 5250 7749 7243 5047 6594 5508 7302 6413 2073 5235 6537 6198 6600 4903 3400 5950 3730 6315 3857 1247 3350 6562 4633 4570 6736 4486 4197 0 9847 7304 7286 7500 5533 4962 7047 5303 4646 4407 2866 5253 3620 4659 6355 3481 8898 6760 6901 8513 5292 6569 5473 9739 6308 6569 5182 1406 4188 5421 4723 1502 7331 8406 3218 5178 4972 4920 2579 6526
5820 2873 2012 5255 2215 6917 496 7038 5432 2430 6368 5788 4765 3508 4996 1856 3577 5893 3219 7330 7944 4204 1721 7244 7096 5408 8170 5035 5332 4708 1355 4329 3437 3440 7597 5342 3690 7354 4558 5408 4441 1559 7519 5528 7158 2194 2312 8624 5451 2055 5949 3648 439 4335 4476 6368 1671 4935 7202 5789 5267 6683 6460 8262 2864 6226 4036 8683 4759 1245 5031 6648 4232 8404 7748 7613 6515 8979 4030 3519 2563 5629 900 1718 3587 7529 8980 6985 5853 4500 1649 1949 8448 3292 5843 5393 3946 2830 3394 3282 1471 7248 2975 3878 5031 4545 1588 2991 4821 474 3937 8455 1844 4654 1344 5104 5465 3461 2809 9564 5899 4911 5693 8269 2124 4346 6904 2809 5595 1467 5105 2139 6293 4975 3162 7157 4412 1801 5478 2362 2652 5290 3863 4527 4150 4955 2226 7384 4682 6451 5695 8391 7091 5030 520 8348 6815 5418 7487 7827 8020 7619 7546 8058 3609 6759 2590 2753 3044 5772 4180 6404 7380 3125 4137 7004 5197 6418 7069 4147 6243 3918 3480 3853 6782 4280 2948 7528 4588 4951 4041 884 7846 3438 1364 6467 5813 7514 4973 4565 5105 6788 5513 6813 4613 5630 5601 6277 5045 4129 4656 8746 1438 4203 5995 7840 3845 5155 7237 6941 9127 3756 4799 674 2249 6869 6077 3024 2807 6903 2133 4989 8501 7705 4103 4522 4370 5768 2849 4948 6170 6705 5867 5899 4147 2381 3410 5024 3187 2016 8603 8432 3328 7016 5074 6509 7015 4962 2065 9847 0 2922 2725 6687 6256 8438 5801 1245 5629 5244 9081 4080 2622 2287 6211 6660 5434 7409 576 5563 5366 4353 4289 6921 8891 3520 4811 6296 6353 4575 5589 5460 4291 4705 4136 4171 9586 8878 4335 4101
5870 5616 3403 5244 8556 5247 6749 5645 1286 7104 3058 8787 4937 7824 4678 9500 5297 4927 3930 4109 3282 2203 5475 5359 8682 5449 9225 6825 1352 6438 5809 4927 7117 2731 2603 7686 4439 5045 4996 5048 5409 9061 3837 4780 6127 1344 5374 5723 6194 4297 2003 5300 6200 7434 3667 3990 8143 5933 7493 4500 5506 7683 7617 7216 6297 4650 6059 916 5510 2113 1531 6580 3462 1934 2913 3324 6580 5983 2952 3662 6576 2537 6865 7205 4101 5890 5023 6854 4402 3540 9337 5954 6907 4972 8244 8139 5061 1304 4513 7749 6361 3125 5954 4923 4722 4509 6118 5404 2138 6671 4039 4031 1443 7128 4780 3743 4037 3947 6993 1363 4845 2374 5191 5773 5541 7473 4377 8452 5129 873 7331 8633 6175 6050 4647 3760 4958 5301 6868 5328 3615 4465 4879 8664 3195 8411 2449 5246 5969 5243 8592 6088 3513 4164 1786 7508 7820 7066 5315 2986 2371 1480 6163 9672 6364 1605 2846 7602 4953 7793 6153 6593 9291 4255 3323 5657 5043 4037 6153 5304 7323 1448 4853 1386 3421 7243 4663 9084 4465 6940 4907 7149 4715 6349 5594 6200 6237 6237 4829 4717 1888 6104 8150 8861 5218 6459 7426 706 5192 3968 5258 4098 7020 1711 9383 2663 6817 6013 6049 7946 5060 1126 6042 2422 7124 6425 8860 5764 2763 6386 5255 4690 7854 7218 5669 2690 3587 5160 8332 2276 3112 2720 2559 4035 5070 7717 6719 4198 7323 6582 8669 7138 2784 3432 7475 5508 4000 2039 4733 7304 2922 0 3921 6601 4350 3421 3013 1106 7049 2734 6304 6734 4992 8204 8350 4657 6690 4812 7312 8413 2457 4460 6065 5383 1780 5386 9155 7430 4628 6497 8687 4871 5469 5232 5856 3317 1244 6732 4372 7539
8790 3759 3043 7761 3232 6375 4350 2706 4503 6209 1856 4465 7506 7189 1221 1050 3464 4219 4510 2855 8566 4717 5998 2838 6785 5249 2995 4394 7551 3481 6107 8718 3699 4774 2921 4245 4600 3203 7284 3033 4796 3467 3280 9538 7663 5164 6738 2261 3098 4820 3756 6145 2768 8430 5459 5377 5858 1798 3793 4387 7194 5866 4783 8500 7077 5394 5779 8225 2373 3702 6768 5793 1835 4436 5072 2444 2467 4715 1698 6512 7463 1309 5511 5536 3571 7736 2574 5993 5617 1169 6400 6538 5360 8569 5494 3339 5715 3929 4541 5443 5580 4594 6139 3388 5541 4556 1885 155 7838 3409 5678 8153 6321 6547 4355 7859 6973 7217 3111 6743 6611 8257 4249 4186 4570 5879 6789 4567 6650 3504 3107 6924 4563 5644 6075 7503 4837 6641 7233 6355 2246 4343 2077 5539 6909 6282 2599 2434 6006 4616 5726 3948 5406 3113 1163 3379 4085 2777 5055 4091 6925 3630 6977 6438 3753 4419 157 4941 3933 4678 6136 9120 5154 4099 5178 2883 1522 4289 7442 3134 4561 4186 2126 5511 1226 5179 4823 2311 7452 7124 5839 4647 4379 5385 5193 4988 6039 6016 4353 7904 5217 2025 5866 9102 2993 7109 8082 3819 9484 5382 7862 8418 4447 2759 4046 3655 3289 2391 2965 4103 7177 8027 3400 3973 6198 7186 8842 5520 6748 5275 5884 5284 7183 7257 5026 5824 4823 6722 707 4231 4492 1331 6580 7471 9497 1848 7529 8350 4323 1799 4588 3750 5214 2992 1907 7819 1349 3941 4641 7286 2725 3921 0 8489 4556 6007 8823 1213 4979 7573 7260 3132 2630 5310 4896 3428 7422 6356 4931 3401 3099 3938 2846 4665 2257 3119 2913 5874 1855 8088 6444 2338 2646 3910 6586 4866 7464 5188 6151 8076
5876 4995 5088 3799 3220 5952 5717 3172 5087 7088 2839 6826 6162 4817 2819 6208 5281 4827 3606 2828 1866 5973 5127 6995 3943 5406 5360 4104 3316 8027 3565 3906 4629 6118 6167 3326 3762 4047 5365 3204 4616 3816 2836 8183 2094 5831 3077 5943 4219 5762 1143 9283 4017 5588 2845 5026 6813 5983 7465 3526 898 3108 7126 7723 5624 1042 942 4520 2201 5466 2215 5066 6903 4297 4023 6524 6195 5633 4537 1056 2291 5245 820 6974 7892 6724 3677 7959 4294 3806 3625 5789 9078 5636 2463 5593 3398 8110 2186 5747 2061 8392 4036 3813 305 4913 9524 4528 2453 3520 3776 8600 2429 5981 2987 6478 3901 4242 3153 4921 6279 3991 8837 7758 7625 9593 6780 3994 3047 2463 4344 4248 3622 3753 5056 4499 2644 2303 4420 3128 1972 4304 6818 1821 5182 4846 2805 5123 6549 9142 7282 6054 1950 1541 8188 1215 7401 6790 8149 2835 4912 4326 6177 3653 2573 4309 2978 4237 4300 6629 6632 6486 5586 1140 5141 5504 332 8243 4765 5553 6298 1749 4760 6800 6065 8596 8770 6788 7165 6385 9555 5133 3946 6074 3090 5719 2393 5673 5258 8164 6772 3642 6915 2701 2274 6604 5997 6767 5970 4231 2142 5013 4328 5543 5634 7669 5099 6194 4846 6688 2072 6166 2677 3716 7268 3757 6388 4543 1443 4549 1649 3204 6406 3682 6118 5891 6594 4660 4915 5932 4175 2899 7315 6214 5369 3860 524 5622 6902 1640 7495 4434 3991 7008 2379 755 5392 5906 5269 7500 6687 6601 8489 0 8045 2178 3164 6331 3985 2636 5093 5773 3961 7909 2849 5940 3724 5958 3927 6935 3264 5946 7191 4700 3105 7502 2940 276 3894 5903 2781 1220 3164 6512 3159 9382 3210 8259 5071 4346
5506 7364 6910 2673 5098 4324 6979 9314 1265 7351 3175 5465 9171 4609 8463 2381 4029 3033 6046 8870 6439 7443 2767 4189 6339 7792 6869 1296 4896 4074 5037 4360 5362 3483 6584 9119 5224 2795 7255 9127 6712 7128 4047 7191 7340 8449 3044 4507 3240 7913 9133 4877 6262 2992 7503 7189 6364 5833 6046 963 7736 4467 5108 8077 4150 5207 5707 5291 4982 6973 3502 4247 2912 5658 4959 4267 6755 9471 2754 5247 7089 3284 7099 6824 7231 763 2667 6211 4984 1825 7162 2306 5588 3999 1935 3189 6098 5257 6662 6131 3329 4893 8345 2776 4823 2861 4954 1657 5421 7956 6913 7270 4697 5105 5441 3998 4859 4519 3528 8169 5109 5790 6027 895 2526 4215 5423 6011 2435 1634 7745 4706 5755 4171 3584 2057 1510 4506 3015 5760 5012 8002 1702 2262 4818 6004 4276 3685 2056 7264 1577 6909 8751 2203 3722 3107 5835 3475 7272 7461 3963 5234 4619 8539 5201 4338 936 5845 774 3282 6095 2924 2088 3124 8993 5192 3007 6671 2693 2586 2344 4018 6713 7807 6654 4682 8574 2948 7186 3595 8095 997 4195 2648 3491 7309 5372 1341 6258 6980 8700 7745 4263 4030 4461 6648 8695 4293 4765 4865 1524 8010 3616 6781 6044 7318 3113 3024 6111 3538 3312 6188 3561 4325 2987 4337 3488 6265 4403 2736 6464 6709 2102 7540 5337 4598 4737 2111 4196 6036 7558 4302 3588 5834 3731 8383 3493 6233 6584 7272 6492 7337 7884 6318 6534 3014 4190 5960 4249 5533 6256 4350 4556 8045 0 3357 7317 2042 4763 4582 1520 6147 6379 5964 5986 5897 4204 5947 4966 3721 2896 7191 4439 4005 6121 8418 4936 3079 2383 2283 4863 7761 5030 8069 2799 3093 6312 5373 5632 7120
7128 7360 8084 3570 4419 4574 8034 4349 7653 5467 5226 3536 4121 2451 4647 6591 5768 3981 6970 5731 7771 1451 7221 4959 7107 2754 3407 2207 6243 3050 3719 8213 5455 3471 3348 2066 5458 4498 3689 6137 5938 1958 4983 3214 1160 4019 1974 6625 3526 3653 6562 4878 4798 4456 4122 7851 1224 3012 7161 1951 6670 5580 2034 2888 6077 6618 6820 5890 7734 5628 2701 1462 4614 2354 4438 8047 3847 6421 7114 3715 4571 7615 3620 4579 3327 1931 8907 5246 3875 7963 1690 3675 325 6951 3923 4998 3236 7119 4076 3406 8057 7349 2726 4475 8924 8695 5481 2199 1997 5350 7489 6297 884 2067 8901 3763 2879 8737 4462 5474 1820 3588 1827 3450 4184 5136 5922 7649 3367 3707 6946 5573 5118 2372 7608 4336 8058 2945 2636 5344 4401 5463 389 5890 5220 5221 4102 1013 4587 3265 4340 7953 3963 3288 3212 4784 8014 4869 6795 2010 6930 4439 6408 4839 3603 1004 8838 6389 7440 5775 7571 5298 6851 2483 2777 5994 4690 6820 4958 7367 7020 2384 6154 1861 6628 8188 6271 5529 4542 2836 5717 8144 8763 6633 5423 1671 2153 4608 6318 5333 7401 2333 2492 5431 3686 2892 4371 6221 988 5971 3022 5418 7171 1357 6355 3925 7195 9283 6114 3461 6645 5199 4843 1906 5843 3967 2120 5536 4644 5029 5031 7786 4678 4755 3682 3972 7046 782 6598 5857 7106 6529 6136 4649 3743 5223 2240 4907 5715 2029 8511 4186 6931 5532 6138 5470 2696 5453 6852 4962 8438 3421 6007 2178 3357 0 1833 3374 4468 4275 8742 2999 3863 8338 7872 6622 4469 3349 6789 6407 6183 4130 5524 2007 7836 6954 3630 6800 1615 7015 5840 4357 6448 7042 7609 5744 6215 4948 963 6481
4454 2909 4741 6550 2257 7943 5895 4409 4301 2108 2647 6541 5032 6521 4627 1620 8135 6890 1019 5778 6047 4467 7565 2496 3719 3142 834 4710 2411 4590 5468 7267 5429 8154 3890 4266 7467 6749 4997 6155 4652 4722 5843 1173 4348 3785 3062 9037 1737 6253 5526 5978 7937 3154 883 5637 3661 5616 3218 4763 3031 3518 8451 5963 3222 2895 4079 5158 4100 5243 4189 1685 3391 1498 7367 7861 3506 3696 6920 4419 5140 4403 5158 3932 7406 3249 4542 6638 3399 3164 3284 4809 6046 5901 7091 5272 2589 7644 3755 875 4752 8674 2834 5696 3522 6979 3934 7222 7137 5724 1370 3502 4148 2224 3033 5163 8711 6242 5639 8917 4052 3961 2470 5710 5826 4183 4098 7196 6260 4493 4751 4769 6066 4322 6206 3696 9124 9077 4680 3622 1381 1858 6237 5359 5792 4157 5925 6811 5669 4603 4778 9040 2741 2417 2954 4765 3266 3592 5656 5898 3703 1142 5139 7426 5164 3158 9158 6388 1940 5178 4140 4639 7153 8957 8700 4720 3280 4986 1253 6546 4567 3976 7071 2529 7485 4744 4695 5217 7801 6032 2998 8243 5102 6048 4947 2075 6442 6803 7271 7972 3444 1801 4029 6176 5706 5059 7249 4188 4593 4552 4503 7905 3018 2509 3339 3766 3869 6020 6284 5941 1877 6351 2213 7587 4422 3634 6275 1692 9538 4197 6260 3902 4364 7523 7266 7122 4503 2050 7582 5955 6268 8670 6633 7915 5776 5201 5813 4378 4886 2887 7085 4688 2262 7520 8291 3782 7123 5576 6700 7047 5801 3013 8823 3164 7317 1833 0 4008 6295 7643 6341 4236 7126 7002 6281 3777 8886 5706 5626 7088 7836 7591 5139 936 4615 5522 4871 5497 2857 2754 9147 8461 3403 5421 5280 4485 5249 2076 7616 8420
7259 3083 5929 6306 3774 6088 2579 5428 5620 2743 8125 3682 4742 8065 6334 1723 8543 5218 3670 2437 4802 6311 6706 8946 7640 4736 5715 1501 4407 807 2145 7668 4497 6237 6890 4818 8239 3598 1611 2825 4936 5309 3015 3257 5341 3186 2957 6606 7006 4268 2172 4335 3231 3296 3049 2657 5824 1362 5836 9319 5892 2437 6014 8951 1856 3734 9797 7802 5018 1661 2875 6515 4922 7265 3788 3304 6607 2733 7295 5704 5132 3831 9085 2883 6080 4549 4454 6107 4852 8169 7989 7369 8027 6974 4986 6266 5148 2928 1845 5324 4601 4200 6503 3733 8659 8397 6818 2172 7747 8520 1488 3368 3519 4988 3828 5125 1819 2287 8235 1995 7965 2482 3736 8119 6536 4185 7725 4930 5298 5834 6639 6889 3389 1384 3959 6816 4765 4219 1070 5832 5567 8109 1873 2530 3464 5391 2031 4120 8315 4508 4091 1977 3101 5973 7444 1889 5296 7047 4166 5910 1603 7146 7274 5266 6573 1908 5359 5813 8446 3301 4930 1849 2861 4936 3681 5813 6476 2522 4551 6601 5566 6668 3222 3723 4101 5471 7509 2877 4605 4692 5626 4333 6750 7689 4729 5748 3585 8562 4572 2403 6116 7202 2591 5439 4077 633 8031 4568 7718 3972 1292 2782 4580 4917 6155 6864 8848 1673 2684 2715 3544 4894 7764 7891 3817 4527 4853 5693 7653 3503 5098 2635 7031 740 6522 5007 2110 7389 6033 8637 3423 4251 4284 4840 8641 4573 4654 8049 5324 3491 3971 5632 893 3094 3151 5363 5491 9632 665 5303 1245 1106 1213 6331 2042 3374 4008 0 8919 5934 782 5618 6180 3107 8266 3385 2595 4310 5978 5057 7704 3732 9157 4047 4414 2800 7011 6065 5942 2766 6738 9183 9724 2916 4873 756 3883 5964 6770 2762
5409 4957 5944 6330 3327 6212 5727 5458 2543 5389 9020 6107 5037 7422 2190 5742 5541 3059 6607 5593 1857 5572 5886 2908 5881 7493 2103 807 8505 5281 1118 6643 1916 3588 2395 6287 5336 2513 6950 2537 5307 3206 3247 8302 1437 6488 4527 3210 7867 3842 5966 2142 5921 3723 5880 2043 5000 3610 3930 6594 1195 3298 7928 6475 6745 4876 8309 6634 2970 6011 4497 7614 2658 7401 5519 2980 2991 819 2641 5182 8757 3465 5734 9231 4570 9483 3772 8036 4192 8238 5477 9565 2339 5451 8302 7167 4374 2207 5096 4153 6395 5532 5314 5055 1563 8964 7905 835 6136 5511 1811 4090 7767 4223 3820 4416 2557 5335 4389 3676 5209 6638 6321 4597 1004 6597 3942 4727 2399 2910 605 5468 8235 6159 4456 5575 5336 7534 3031 3972 4866 7016 4331 3330 6759 6072 3086 3632 4993 6366 2715 3995 2889 6726 3636 8096 4642 4719 7257 4264 7510 6926 2026 4630 5047 6482 6921 2340 585 4564 3274 8565 7505 6493 5344 6533 1644 6009 3454 5872 1064 3998 5971 6913 7333 8826 5648 7753 1543 2027 2880 8009 3391 4842 5691 6522 8118 5673 4602 5620 5758 2774 7026 5172 5114 6456 4705 5296 3126 4958 4860 1379 5793 7753 8690 4029 2982 5122 4663 7039 4499 2104 3854 6234 6205 6144 4921 7146 6028 1502 2712 7277 9357 3634 5854 5252 9461 6001 2867 1706 4423 4857 6086 4172 4668 8935 2861 9480 3067 5483 5076 9513 1893 2634 4070 4662 1770 1878 1360 4646 5629 7049 4979 3985 4763 4468 6295 8919 0 6372 5136 7408 5229 4389 1828 6249 3994 6472 3259 2243 4497 5466 4343 3466 3941 5485 2044 3822 4127 4233 7164 3806 4635 4425 3430 3756 4199 7234 1780 2196
5249 4478 7416 6495 9643 4093 5054 8198 5069 4757 3193 2654 2681 2004 5147 6451 3770 5049 6761 4931 5316 7224 5451 3426 3624 8303 4353 8298 7258 6150 5147 4181 2483 5617 7466 7828 5167 4102 6766 3835 4468 4443 6516 7048 6060 3185 5327 3500 2402 8142 4748 4986 6360 8591 6218 3500 1071 6337 5858 5079 4514 6094 1037 2963 6425 5517 5242 6488 7319 5713 1496 4049 4110 7029 5283 5978 4042 5186 3005 5022 5670 8224 7268 4567 4963 5913 8148 5467 6288 4358 1794 3931 6315 5399 6037 4135 5162 6301 2165 6347 2195 3820 4134 3661 2429 3821 7586 5087 5201 3593 2903 4996 1996 7820 7081 7506 6510 3916 2153 1925 6328 5334 2146 4153 4467 5167 4808 848 3436 5210 4172 2245 6379 7045 8137 6463 6085 5934 6714 8926 3009 4484 8723 4973 1684 6470 6844 2765 5381 9587 6206 5561 7598 1164 5479 2813 4652 1441 7917 2009 7649 7291 7926 2614 7959 9008 5874 6093 7420 4558 3052 4056 6612 7219 7879 4186 4978 1990 2824 5033 2109 7290 6568 4757 4735 1013 6345 6199 4717 8285 1580 6287 5018 6554 3110 4545 5357 8217 4679 4595 3993 7345 7231 6483 1698 5177 2677 3041 3812 3322 2973 2185 4882 5051 7336 4373 6391 3034 6099 4253 5739 5231 3183 6319 3376 5181 7094 7226 7441 4377 7054 2996 2923 4841 2818 4689 7958 5749 7003 4611 7476 3635 3398 5543 4493 2817 4353 6468 2347 5963 3501 9246 2905 6141 3374 4034 5492 5242 5856 4407 5244 2734 7573 2636 4582 4275 7643 5934 6372 0 7029 3676 7417 1421 3697 7802 7110 5590 5212 2942 8067 6115 1179 5876 7381 8611 3444 5772 3337 6069 8155 1220 3832 3438 6820 1382 5154 4360 7381 1352
4477 2531 6311 5726 5313 3838 6197 7288 5096 5137 6629 3240 5446 5147 6600 5459 1809 5450 3908 9134 1774 9495 5859 5263 6166 4225 1602 8572 1132 5711 4986 7452 3195 3716 5154 4843 4878 3956 6994 9378 5526 3841 4892 7408 5264 3682 5930 3842 7102 8286 4651 8331 5251 4620 4315 4589 1803 5977 5731 6489 3835 6611 7432 4504 743 5870 6782 7080 4020 4331 5327 8148 5712 6396 4976 7366 9073 8809 4072 4345 891 4610 6199 3273 5388 7188 6956 7171 3026 7008 8331 5742 6644 8779 4246 5443 2116 1586 7788 3137 1257 5332 5284 2808 3446 6887 4937 1648 5092 6110 2530 2173 2305 4023 1388 4908 5230 1902 5716 6368 4191 5385 6790 3969 5117 4135 7377 8567 6506 5025 3938 4582 6726 2237 4077 3235 9088 8783 6169 878 4907 5167 6219 1878 6174 9268 4994 7369 6154 4128 3996 3887 8854 3568 4781 7051 2301 5223 6760 3625 8335 4821 3902 4441 5471 7257 3876 4201 3028 2022 8734 4046 4949 676 1305 5247 2063 6536 3952 7695 5328 1883 843 7110 3945 2279 3103 5110 6834 6917 3880 2663 2482 6165 2610 6365 6987 4019 5995 1470 4180 856 8197 8880 6222 5770 9150 7581 3185 4760 3281 3095 4352 3753 3524 1966 4414 5224 2903 5716 6897 656 6213 6145 4532 8428 5185 2053 5253 4815 4050 2982 7137 5111 4590 4272 4356 2508 5729 6762 5070 8942 3573 3477 8475 2793 6157 3249 3645 8184 3354 3214 8418 2063 3005 1122 7708 5362 2591 2866 9081 6304 7260 5093 1520 8742 6341 782 5136 7029 0 3069 9096 4082 6653 7455 5441 3919 7465 4592 6578 3797 6530 6354 7894 7660 4425 8124 6597 4086 1955 4436 5536 4102 7493 7384 5084 2821 6808 6386
3214 5962 4490 7668 3417 3985 2757 3531 6866 8355 1481 4617 792 2838 2704 6108 711 1002 3384 6189 6191 5755 8702 3698 2441 6870 5923 6270 7631 5683 4458 8043 4738 4260 7113 2077 5370 6020 8452 2872 2067 6860 3846 3840 6738 4838 6630 1337 5303 3065 5201 2543 3592 8027 5438 8224 1414 8269 3831 7073 5454 404 3454 5417 2935 3137 7203 4903 4688 3817 5040 5195 2859 9111 5046 2746 7855 8004 9254 4153 6081 7982 1137 5680 7140 4101 5120 4562 3188 7876 4290 7271 8298 8535 8080 2465 5978 2001 7922 8271 3180 5969 6087 2640 2540 4406 4298 3977 3982 6450 1003 3199 1012 3757 2836 7640 6233 5277 5439 1813 2381 5197 1849 5514 6419 2662 2513 6901 4966 5482 6250 7405 5474 855 4609 4991 7909 4864 1493 4141 4672 4556 5247 2897 5862 3204 6247 3063 3405 4979 1046 5701 3145 1595 8572 5320 5527 4120 7363 2601 4954 3796 4173 4368 8642 4179 4051 3300 4231 4529 1358 2664 7195 6755 5552 5494 4576 4763 3115 3086 2862 4817 5859 3325 7237 4945 6729 4905 4564 1903 6475 3367 4786 4635 4922 3478 6996 9424 7959 8479 5621 5179 3325 4725 5450 4359 5705 7855 6139 9565 4492 5233 3485 5009 5577 6041 6312 6536 5138 3926 1202 607 3544 4479 8692 9383 9361 5365 5548 3029 7303 3274 4458 5447 5938 3905 3343 4492 7060 2501 6198 5148 5110 7070 5219 5149 2911 6026 7376 1293 3175 5981 7845 7336 5254 1431 2168 3830 4946 5253 4080 6734 3132 5773 6147 2999 4236 5618 7408 3676 3069 0 7589 6526 6168 5635 6655 4920 2673 6497 4932 3944 3438 2563 4406 3720 8048 4914 9170 3312 4520 1706 5781 1915 5763 2721 6414 6228 6370 2927
6481 8436 5213 6159 6665 5892 1533 6330 3503 6626 5449 8034 3228 1415 1136 2383 3673 6904 7214 3312 2576 5286 7468 4471 5386 5626 6690 5081 5808 4560 6156 1841 4934 5717 5656 5976 8195 4275 3691 7321 6583 2321 5477 5534 6126 4700 6310 3864 5288 2480 5793 1248 2153 3711 583 4612 1872 4913 3522 2920 8943 5765 5557 3054 4263 7098 4408 5338 7160 1479 2461 4000 5749 7672 6690 5331 3592 4173 6771 2766 4751 5648 4724 7549 4543 8893 2328 5090 5524 4176 8399 5271 3971 1818 8037 5652 5707 9544 2116 5906 7800 1831 4501 6809 3418 3785 8581 4490 5512 1324 3173 1289 3358 5755 5940 2443 1791 5102 2569 4107 4774 1985 4382 6714 4660 3415 4525 5068 5631 2724 3181 6290 6211 5144 8090 3222 7261 4786 7226 2326 582 4887 1547 6252 4397 2908 3042 3582 6596 3507 1661 8702 8431 5573 8310 1792 3502 7836 3084 1804 3305 3342 8411 5293 9143 7725 5436 6606 4347 4438 2585 7271 7628 7114 5117 5222 5480 2124 6380 5529 9490 4479 4766 3688 9775 5890 4290 9588 2741 2323 7133 7337 6388 5782 5762 7486 5719 8500 8341 7022 5640 2371 3345 5626 2138 8657 7785 6065 690 4753 3243 1368 4691 5364 5061 4066 652 7102 4666 7609 6435 2161 615 2747 4675 3106 3306 6271 5880 2499 6152 1082 7288 1697 6849 7751 3875 2410 3758 3128 3986 1279 1750 5722 8114 6085 3095 3369 1875 4687 5954 5696 6041 5683 5594 2289 6526 4340 8105 3620 2622 4992 2630 3961 6379 3863 7126 6180 5229 7417 9096 7589 0 3245 4754 1972 5569 5238 4030 2146 5141 8094 3994 4991 7198 1490 5424 4265 4917 6225 5164 7594 3392 3093 8008 3737 1657 4428 4415 6675
7968 4888 2711 4899 4947 5835 2405 5343 8747 7181 2672 4109 3813 5253 7009 5157 8069 1349 7235 4757 649 6293 5141 3907 7767 1608 1303 4658 1343 4740 9175 3332 4078 1532 4700 9226 2051 4042 2647 5228 3502 4975 4484 8210 2888 1645 6860 4728 6818 3304 2802 3526 8186 7143 4070 5219 3283 5802 3744 6808 8559 4507 8174 6423 8499 654 4844 4639 7486 4904 5232 4659 5150 2058 7306 8261 5717 2973 3655 6331 3456 5263 5194 914 6228 3703 7048 5441 4304 5421 4360 8346 6211 7238 1896 2802 5076 6004 2725 6743 6986 4395 5751 3366 6370 2279 3667 1159 2634 2989 4237 3887 3679 4909 5695 4197 2627 3581 7615 4559 6937 6733 1468 3329 4590 7933 6594 4944 5091 7145 5764 4810 5467 3980 8561 7487 3522 7428 2152 5245 5381 7722 6791 2926 1517 4750 4702 6255 7092 4374 7235 6896 7970 2138 3796 5351 5163 7366 5342 4986 8039 1823 3087 7982 6184 6562 3513 2101 5383 2880 2719 3892 5307 5470 5289 4134 3314 9727 8171 6656 9127 2184 5512 5210 2696 1444 6006 4530 3594 4136 2243 5431 4658 7344 5233 4305 2468 2619 4008 7068 6744 4869 2456 8052 8809 7656 5918 5261 1008 1060 4647 3834 3508 3494 5040 6169 8353 6663 5058 5006 2542 6177 5873 7018 4698 5967 5349 2212 4906 7428 2341 5044 6145 4594 5238 4027 3985 4486 8303 7039 6341 865 7964 7608 4327 7941 4103 4908 2984 4238 8488 4237 8293 6862 823 2348 4144 4075 4303 4659 2287 8204 5310 7909 5964 8338 7002 3107 4389 1421 4082 6526 3245 0 3533 5698 4200 3878 3739 5683 5116 3853 8050 3592 5051 4871 4548 4449 579 8457 4913 4285 7453 5884 6379 9303 437 2247 5444 7800
4162 3780 6497 8627 3908 7104 6469 7798 6737 5195 2239 7686 4929 2464 7529 4531 5585 5096 2274 2367 1615 9864 5258 5197 2530 1753 4147 4345 5521 2676 7644 8354 3781 6501 6217 5159 5696 3975 3423 8651 7186 3365 6222 8217 6271 2162 9387 2879 6343 5030 5992 5327 5374 3223 5485 4847 3791 4244 1096 6645 3486 6434 5468 7179 9641 2003 2547 5214 8135 4505 2289 2685 3937 5833 5962 3564 4369 5476 3698 9096 4942 7875 3319 4458 5512 5976 9233 4969 3316 2913 5051 7974 5167 3994 7830 7046 1202 3012 4096 5413 4529 4646 7234 2958 4516 4291 6987 8303 7885 6531 2207 4000 6819 5440 3284 8428 2238 7594 3127 7530 5107 5532 3811 6206 3404 5013 5365 4943 2573 5779 2917 4624 1688 4428 9040 5064 6585 4280 3987 8358 2948 4154 4613 6591 2843 5232 5738 3546 5719 5954 4332 2996 5187 3598 6900 5347 8926 5900 6039 4093 7655 7120 6821 4943 3380 6594 5490 5600 5047 3521 4208 1990 8348 2694 5549 9389 5409 5744 4269 3166 5729 7108 6865 8023 5250 3329 3572 6060 3352 7695 3559 4871 3269 4070 5436 5784 8106 8651 2559 3053 4990 3693 1702 2435 4518 2914 5680 6919 5917 8244 4511 5792 3005 4704 8197 5531 7990 2447 4765 8311 3523 3738 8159 3342 6317 5013 3607 7636 2437 6368 6464 7746 6292 4961 2432 5845 4502 3826 6203 5172 2465 1786 2792 658 5057 5051 546 1311 6746 3307 5464 5701 8061 4532 4292 4783 7480 5277 9153 6355 6211 8350 4896 2849 5986 7872 6281 8266 1828 3697 6653 6168 4754 3533 0 1240 7469 1688 5408 7403 4635 5788 3495 2387 6394 5489 2631 6478 6218 5951 3830 2483 3382 3853 3854 6728 1453 4833 8290 9325
3303 7315 1970 2421 3000 5096 7000 4526 3129 2560 4470 6139 4864 4934 4642 6156 4220 4604 8183 5310 4989 6551 686 8848 1927 4958 6406 4745 7143 3563 4494 4528 7359 6854 7211 5791 5240 5565 5557 1966 4449 2460 8839 2983 2295 8876 3984 3006 5666 3385 3423 6605 1549 4834 4700 3630 8291 8830 5286 748 2974 8040 6567 2087 2459 7536 4570 1737 2116 9040 5008 7168 7163 7107 2468 6250 5565 2694 3410 7738 8536 2936 3898 3925 4244 4683 4784 3548 4320 5269 1533 3245 3624 5072 5011 7856 4535 4487 7992 3532 4169 9481 7871 3564 7181 4294 5018 4674 6029 7247 2962 2894 2568 4267 4314 6853 5703 6393 2301 5036 8092 2956 3885 4380 1940 3931 4462 3021 6275 3795 9344 6123 7963 436 1428 5013 7488 4656 7661 6058 897 5392 7144 5832 8245 3370 6182 3474 8242 5674 2152 989 3994 8719 4058 4383 8827 9567 4644 7226 7622 4372 7096 3377 7209 7350 5122 6156 5522 1438 9557 1937 3081 1488 6220 6771 6412 6298 6188 4860 5231 4922 6813 5361 1412 6237 6500 6078 5088 8408 5852 6744 7932 6036 2794 7911 4406 6789 6430 5573 7291 6269 5096 7532 1044 7003 3117 4518 5186 7978 5172 1371 5271 7545 4095 427 7615 2250 8602 7907 4037 2467 1897 4456 5523 2976 3981 6153 5946 4331 7709 6057 7613 5068 4727 2655 3818 5899 8578 6050 4155 8435 4930 4589 8138 5828 7028 5095 9080 8603 7447 6710 1007 7888 5582 8730 3482 4267 4202 3481 6660 4657 3428 5940 5897 6622 3777 3385 6249 7802 7455 5635 1972 5698 1240 0 9499 6301 4305 7540 2069 6952 2528 7603 5289 7826 4342 5217 680 2334 7461 9071 4306 4601 9151 5063 8470 6736 6027 2156
6783 3119 6619 6018 7615 5134 6573 5049 5071 7816 2064 2896 4772 3445 6739 3896 1648 6802 3975 7899 4033 6387 7864 8174 2175 5316 5066 4716 4352 2076 4779 5422 4742 1448 5685 6948 4066 3823 3768 3852 5440 4392 6355 6060 5791 4043 7060 6167 4860 3410 8373 5073 7906 4144 5763 4469 2657 4807 7113 8409 2794 1852 5598 9299 2874 8009 6472 3826 6354 1970 2319 5454 2161 9253 8065 5016 6291 8149 4677 6320 8719 3351 1424 2183 5633 1549 3058 8995 2858 8705 8673 3074 6349 2031 6050 7132 4365 2731 8919 8456 4173 1998 8913 1465 8697 1679 2138 4679 3165 3690 2179 3623 7697 3559 5142 4352 7871 4906 1759 6012 7234 6144 3959 4816 6724 9638 7688 5575 4013 1018 6621 4325 877 5292 4847 5634 5168 5753 6233 5472 1812 5390 5950 7933 6093 7902 7573 6068 1883 5001 4537 7395 8614 5812 2890 4287 1693 6037 7841 6550 4359 4282 7400 3657 1405 4120 372 8244 5339 341 5023 4342 1324 9092 3306 6234 7186 6954 3616 4910 3063 5676 3410 5241 5598 4912 3698 7688 6804 6878 8542 7517 4545 3057 2609 6341 4317 9100 2763 5643 7567 5155 7973 5233 5366 4405 5541 7759 5150 9658 8128 412 3892 4911 2072 6283 9005 5543 6348 6518 3926 2852 3563 5465 3296 4465 5573 4958 7999 5916 4268 9585 7529 5311 5269 7053 5324 4693 7781 2791 4161 2134 6929 6410 2401 617 4938 3787 3682 3257 1675 5688 2538 5075 7936 5097 1242 8257 4756 8898 5434 6690 7422 3724 4204 4469 8886 2595 3994 7110 5441 6655 5569 4200 7469 9499 0 7422 5961 5399 3263 3370 6426 5228 2431 4811 1361 2733 2296 1203 3561 2853 4578 3869 2096 9043 2545 4280 1112 5047
6839 7849 5297 3436 5913 3264 7601 7449 2935 2821 4398 4479 5828 5574 1172 3233 3890 5715 6877 5790 5534 5861 1093 6315 4990 5475 4754 4764 6141 6625 6688 3501 9116 4654 7673 4421 8401 5937 5940 2798 9090 906 4944 8776 6438 5511 1894 3810 2561 4141 8724 3817 8891 3716 4021 6722 5177 8200 2164 2122 3006 8663 6898 6931 6473 4395 5823 4313 1565 5222 7460 2431 8092 7684 6115 1132 5205 6602 7312 6056 7846 4773 4714 7142 8813 5698 4032 3559 8940 2459 8777 6490 5484 4433 8168 7055 5897 6471 4043 1534 5379 7563 7864 5290 2434 7944 6704 5945 5112 6238 2671 6153 3445 4005 5101 8485 3745 3149 2488 2781 5713 7900 1693 3110 5373 6172 5072 4765 7914 2563 5071 1485 4385 3686 6057 2491 8717 5506 2155 5366 8052 4933 2282 7654 4449 6103 8236 9544 8079 1754 3485 4371 6329 2704 4674 3678 4330 2215 5158 7856 1459 5561 5432 4176 2539 9656 6024 4279 1196 3915 2975 1930 6111 1852 3307 3973 4839 3806 1942 1850 1970 1062 3406 3668 4845 5929 447 1246 5161 2008 5678 3701 3964 6063 2490 1039 1248 6750 2831 6642 8543 2432 3529 5103 5045 7145 6930 6258 3442 1065 4926 4618 5308 3529 3423 9089 3488 2380 1796 3901 5653 6840 9324 5744 5335 4614 2976 7415 2856 2267 1902 5229 8957 4863 4491 6829 8718 2327 4675 5122 5529 4497 5794 5298 8437 4681 1738 4674 7495 8451 4728 3992 8569 3994 6438 4989 979 985 5575 6760 7409 4812 6356 5958 5947 3349 5706 4310 6472 5590 3919 4920 5238 3878 1688 6301 7422 0 3089 6418 5978 4263 4952 3246 6022 5620 8107 3967 6581 8920 2449 4701 5041 3757 4854 4892 6784 9608 6985 3457
3740 6320 5408 4106 4704 4660 5241 2285 3652 4144 4255 7172 3339 5719 6647 2856 5450 4541 4267 3750 7964 2615 3570 4703 4035 8749 5487 8331 2457 6000 5454 2506 6163 7293 5809 4047 4278 9580 2004 3989 6641 8117 1300 1998 1160 5302 8912 2325 4373 3578 2412 5961 9607 6607 3912 7948 2208 6704 5065 3982 5786 6480 8047 1379 7303 5263 4578 7654 6810 6998 7488 2322 5911 3851 7134 4630 6848 5702 7513 3393 7196 9274 5044 6812 7397 6595 7676 5445 7236 5054 4894 7664 5268 2293 4967 5073 5226 1739 4267 6343 4342 8018 2391 5155 5540 7838 1916 1355 1932 5422 1291 3062 3880 4058 2766 6148 886 5445 3441 7190 6095 3428 4182 4356 4461 2263 6196 6957 3999 3590 4313 6905 8562 3915 1140 5817 5431 7260 2411 5292 4399 3451 1762 1180 2281 6528 2936 3911 8768 5176 3890 8245 5986 4574 6396 5079 3189 4682 716 2242 5904 642 2586 1778 4537 6215 2113 774 5132 4649 9408 3541 3481 8173 4596 9593 4173 4051 6678 8891 4420 4658 2357 4943 4824 5862 4527 7735 6843 7061 5560 5485 7748 4298 6011 4200 4301 4970 7445 2858 5014 4689 5446 5268 3038 4281 8152 4052 5890 2781 4690 1148 6955 5175 2429 2536 1869 5058 6689 3042 7354 5532 3387 4838 2565 4858 6697 6509 5235 6471 6114 7631 6463 7996 2722 4451 8559 5053 4785 1606 644 2214 8740 4611 5540 403 4028 3875 4631 5065 5683 8788 8171 5654 2972 4420 1727 4515 5998 6901 576 7312 4931 3927 4966 6789 5626 5978 3259 5212 7465 2673 4030 3739 5408 4305 5961 3089 0 3213 6511 3639 4532 9471 7857 1791 3741 3635 6237 4136 5928 3452 3842 6576 6204 4916 4919 7804 6081 2747
4042 2123 5779 2808 7544 6090 6406 5743 3263 5508 4074 4795 5624 4002 5482 2831 5573 2495 3329 4819 5020 4123 6068 4683 3855 9775 6561 5371 1689 4600 1990 2572 2384 4959 2537 6979 5937 4725 9556 3453 3657 4970 3298 4419 570 6409 2441 9591 928 6573 749 4099 6357 7182 3780 5092 2690 4716 2976 3362 5879 2725 600 4544 798 4855 2436 8335 6472 3635 5297 876 3861 9100 4632 9481 6290 5288 2543 5715 9078 4301 7722 6846 5818 4941 4090 6065 5510 6022 4920 4577 3686 3003 5156 5476 5013 6385 6495 4838 9720 5606 3862 2492 3572 8285 4331 3396 7867 5025 3387 4439 7489 8318 4057 7992 5147 6504 5404 7254 7716 7345 4185 1990 7566 4948 2518 2983 7719 3765 1054 5640 689 1081 5361 7821 5584 3111 5312 805 7300 5424 4118 6138 3826 3132 4991 7463 5739 1999 7061 5317 5520 2898 3202 4202 5970 3089 8130 5190 5612 6549 4558 6853 3431 6088 4988 4323 4544 8692 4420 5898 6852 6437 3831 2481 8095 2938 6242 4734 2204 5956 3914 3706 5471 310 5482 7435 1922 7333 4710 5708 1801 9010 2094 4511 5277 7320 3139 4653 3304 5414 9034 6339 1816 4112 1539 6167 4057 3748 4148 7456 7587 7319 8086 3803 4788 4163 6780 6102 5498 8058 2108 2581 5261 7218 8668 2201 4003 4479 5223 8738 3721 6247 5893 3677 3416 6128 7890 7355 5402 3280 4997 5789 5235 2236 7289 1658 1905 5622 3657 4508 4558 4825 7753 4854 5489 6661 5385 8513 5563 8413 3401 6935 3721 6407 7088 5057 2243 2942 4592 6497 2146 5683 7403 7540 5399 6418 3213 0 7752 3850 1639 8150 4186 5392 3332 2858 4635 8601 5001 2596 2724 4712 4303 3404 4878 3507 1548 4742
3625 3619 4966 4875 5854 5320 6805 4822 3144 4584 2271 6450 6355 2974 1259 7471 3383 5310 2668 4800 3890 5357 6257 4779 3826 3461 2673 7254 1504 3621 3736 8524 6702 4683 1569 2186 2578 4739 1534 5050 4565 6897 603 6405 6742 5470 7578 4715 7359 4443 5751 5408 2947 8389 7879 7598 2953 2720 5978 7656 6311 8449 6823 8299 6980 4443 4783 3093 3938 7849 4052 4058 4053 3198 780 4711 3116 6049 4594 7849 4246 5694 6683 4890 8439 4891 4690 7887 4721 3454 6587 3067 5117 7356 6769 2500 6978 4587 5820 6774 4765 2941 4635 6689 7909 5152 6134 6121 1694 5702 3781 5408 6683 6937 7478 2645 4471 5323 4318 6988 2265 5890 5732 2027 5696 2756 3465 5111 6557 6467 6205 1783 5430 4427 3197 6648 3439 8960 6660 2553 4799 3583 4426 939 1930 5605 7108 3827 3728 6257 3305 3593 5201 7004 4999 3586 4291 8915 5009 5686 7732 3138 2138 3716 9426 7423 7446 4902 5872 7785 5653 5171 7220 7591 5932 5011 390 4882 5070 5814 4301 7031 4897 5560 1656 5929 2613 1124 4780 2541 6772 5681 4924 3627 2961 6908 5660 5362 6574 1945 7941 6191 7297 7084 3003 3459 7356 5245 1161 6727 3336 6611 3407 5149 8133 6704 6236 6583 3933 4543 843 6337 6177 6754 4740 4938 3896 4318 2689 6865 7018 5146 5994 5214 3993 7384 534 1824 3072 1593 1419 8352 7706 6293 5791 2248 1889 2745 3456 3822 6145 6091 3714 4642 5158 4935 5337 1806 5422 5292 5366 2457 3099 3264 2896 6183 7836 7704 4497 8067 6578 4932 5141 5116 4635 2069 3263 5978 6511 7752 0 4586 4629 5562 4218 1947 6885 3675 1709 4106 3746 7802 2032 3575 7417 7118 5313 4965 7621 5034
5104 4376 8358 4985 2301 4208 2633 557 5494 6887 4652 2323 5583 6088 4735 6291 2610 2125 5353 5254 2871 2684 4188 7385 5663 2146 865 1508 4704 6068 4925 3228 1867 3687 4848 3492 3515 5129 6556 4199 4891 7486 2005 7573 5490 2897 4776 4164 3712 4959 1213 3933 4611 3040 7351 5955 3319 5380 6448 389 7119 4459 7649 8078 2724 8194 7459 2310 7847 4399 3110 7040 7625 6960 935 846 4755 5085 8575 4092 7584 4851 5773 3972 4806 8602 7397 4787 5609 4893 7849 7646 7924 2541 4254 3249 5443 3642 6220 6650 4312 5175 5855 4698 6031 6338 4153 3663 8952 6392 6525 9082 3447 4582 6974 3348 5026 5467 6276 8773 5803 7676 5970 4977 7869 8053 3855 6901 311 2859 3741 3719 3366 7846 4537 6875 2816 4622 3778 6317 4978 2535 7003 6721 4471 6379 7379 4838 4362 2967 3528 5897 5886 6585 5736 8604 2864 3679 5081 6768 2622 4559 5939 2546 6191 2541 5737 3423 6978 4919 4406 7606 6310 4869 1740 5070 5789 8928 7032 4855 2023 5092 5400 4327 8500 7995 3732 3849 6348 7238 4798 4738 6343 4553 3491 5315 3240 3431 1707 1609 5780 8181 6255 2482 5570 2770 5820 4658 5962 6824 9020 5948 4221 6721 7175 3995 5949 5092 2654 2098 8084 7731 7095 5038 8028 5981 2234 5828 3592 5964 8099 7893 2359 4390 5441 6141 9730 7691 3916 1846 6078 4928 4037 4308 5531 2325 7377 4675 2077 9025 6988 2553 6231 4525 5189 4129 5492 4895 5911 6569 4353 4460 3938 5946 7191 4130 7591 3732 5466 6115 3797 3944 8094 3853 5788 6952 3370 4263 3639 3850 4586 0 7598 6541 3324 7972 7486 3141 4744 5253 5937 4835 3225 8354 4522 7265 2387 7786 6681 4115
1680 7668 3879 7329 3308 5817 2142 9139 4829 7287 3164 1055 5065 8183 6673 4717 4412 7733 9265 5397 6636 5210 4565 5660 6459 7589 7898 1899 4511 6036 5420 6887 7206 1761 5097 9305 7921 3694 7200 6218 2160 5700 5260 2734 7403 3045 2727 4585 2622 2493 4854 6446 4952 2783 3823 8426 3308 6590 1833 2626 4444 1613 5775 6258 8931 6608 6039 8578 3445 5666 3953 4793 6706 3596 3968 1676 5840 4757 5353 1137 4304 5210 8406 4134 4179 7725 4516 3959 4934 7565 5887 6096 7939 3625 6357 4169 6377 3893 8558 4877 3496 7382 6926 6837 3890 557 5449 1429 6235 3854 5350 3290 6206 7900 3589 3735 4663 2339 4484 6636 171 4425 4942 1828 5104 7020 5105 5258 1871 6447 4301 2955 5339 3430 4299 4712 2774 9534 6391 645 2694 4917 5916 6465 4267 5794 5997 6007 4455 2790 604 1619 1369 1197 4484 4604 6255 8466 2652 8307 5115 7620 3265 3057 5693 8744 7716 6792 4734 3280 5247 3026 2617 5082 7132 4660 3404 2267 6710 3202 4275 8133 9171 6907 6906 5096 4989 3522 4633 3555 5028 4590 4469 5298 5178 6476 2948 5875 2404 8380 6948 4528 4535 6659 5304 5105 4883 7869 3234 3664 5878 6413 1777 5259 6445 2548 7832 8143 5070 6317 7047 4199 7696 3682 3855 5069 2922 4577 7080 2258 6654 8019 5136 6771 7565 4651 4802 5502 5020 6141 6294 4293 8831 4272 1837 5235 2504 5077 3399 8916 6872 5829 3615 2214 1453 5107 1079 6486 3247 5473 4289 6065 2846 7191 4439 5524 5139 9157 4343 1179 6530 3438 3994 8050 3495 2528 6426 4952 4532 1639 4629 7598 0 5732 6578 7312 6334 4195 3043 6853 7088 6370 5896 2490 3440 5593 5804 4527 2997 3413
4411 2153 2988 5686 3729 4468 3085 6153 4012 4676 1832 6349 2609 5156 4590 3902 4277 7240 3759 4855 4499 1850 4445 6080 7092 3421 735 4416 4550 7887 4975 5555 1528 660 4431 1570 3720 7403 1592 4600 6516 4757 2805 6149 3948 3665 5061 5433 922 5657 1546 4738 1362 6242 4847 4157 3121 7131 4147 8878 3483 5505 5450 1991 5452 6549 2578 7038 1522 7257 3129 4329 5364 3500 1284 4698 8204 3351 2114 4177 2748 5062 5246 8598 2114 4424 7438 9006 6617 1215 4719 4218 7516 8919 8936 3333 3790 3026 6261 4939 4163 696 3305 2058 3512 5326 6165 5709 3877 6343 5830 7915 3744 3373 4111 2037 5738 4012 6396 4352 7934 5134 7333 2126 8134 6214 2883 3399 4209 2749 5498 7554 4234 4724 5613 3002 2391 6860 7287 5351 7343 3905 5439 6063 8625 3893 4718 4793 4316 2704 7982 7901 8274 9044 5048 6897 4364 4368 4319 4687 5198 4690 3510 2385 7462 6051 5967 4374 6605 5533 3068 2072 6389 4504 1262 5378 4922 6049 5382 8207 7667 6375 7795 4039 5062 6087 5751 1726 8911 4030 5119 5677 6318 4396 5858 5736 4608 1527 4258 8549 4727 6498 5046 7296 6979 6716 5120 4631 2652 5814 9684 3537 7980 7862 4225 9413 7598 4648 6340 4397 8426 4298 7785 6672 6449 1550 5235 7628 4254 4239 9259 6013 2410 5348 6279 4470 2096 6270 3902 768 2994 5537 6886 8403 5549 3227 4853 5470 2303 7206 3123 1873 4033 3849 7075 6132 6255 6525 6420 9739 6921 5383 4665 4700 4005 2007 936 4047 3466 5876 6354 2563 4991 3592 2387 7603 5228 3246 9471 8150 5562 6541 5732 0 5156 3244 9043 5905 4322 2889 6056 3804 3577 274 7695 5899 3719 2052 6906 5959
1232 4918 4339 5492 8117 4214 8783 9516 8751 3007 5705 5630 4151 6428 5240 3445 5086 3075 3786 9527 3417 4210 7263 5088 4778 4661 6885 4550 4999 4950 4098 2806 2497 2894 5988 5287 1603 6579 7293 6910 6615 5210 2056 5581 6352 4329 5271 4326 8404 5079 4959 3874 2229 7297 6037 4070 6070 3928 3997 4066 2338 4798 8742 8291 8084 4305 5424 4606 6320 1381 4568 3747 4030 4148 5473 2815 7790 3787 7462 5522 3953 7777 3853 3591 4267 8900 5180 5479 4799 9011 5161 1605 6364 4556 5334 5031 3772 3869 5230 1599 8675 7616 4235 4808 4882 4883 3366 8319 7965 2981 8372 3142 3852 8516 7451 6289 4692 1961 6483 7890 664 6452 2411 2903 6270 2838 4505 4725 9902 5127 6762 5899 4391 1280 6344 5689 4613 1069 9304 5842 5662 1788 6486 4747 4148 6683 2808 6643 8056 1497 4848 8448 2493 6523 3744 4837 2620 3845 6408 3526 9010 6898 7097 5121 6646 1615 7216 2517 7940 8534 2416 5293 6882 8984 5280 2888 7456 1800 5891 3885 5446 7786 7704 1423 5213 2292 4599 4945 6403 6899 4566 5272 7238 7615 2025 7033 6443 4494 1635 2432 2989 5547 8399 6863 3217 2325 6910 5975 5398 6199 4634 8698 4333 2898 7340 4157 2081 4076 8490 4990 1693 4815 6806 5452 4948 9780 4504 6924 5243 3289 1657 8781 4947 3043 4037 7029 5192 5155 5591 2489 3296 3619 4737 9917 6964 5913 8130 4035 3618 4363 3417 7979 5897 7122 6170 3875 2039 4239 3849 6308 8891 1780 2257 3105 6121 7836 4615 4414 3941 7381 7894 4406 7198 5051 6394 5289 2431 6022 7857 4186 4218 3324 6578 5156 0 1773 8408 2593 4424 1854 5956 3631 3518 4664 7563 4435 4352 4113 5058 3252
4427 3201 8744 9012 3260 6106 4812 1958 6295 5292 4861 4473 8341 4435 6125 5098 2125 5861 4000 6032 5148 4910 3515 2673 3701 3631 3974 5748 2098 6046 6736 5512 3778 5106 4847 6346 4918 7832 3806 7477 3486 7161 3244 5866 5525 1939 4283 6310 6070 3312 3408 8159 6633 4040 5383 4472 3192 2722 6828 7320 5041 3170 5927 4496 2974 2504 3166 5692 7201 7964 3382 6634 1987 6438 6793 1281 6559 5374 6350 3444 8188 7448 2530 6274 7639 5044 3031 4359 6439 9864 6017 3540 7223 5039 6211 3739 5235 8524 4909 4855 4508 5682 5641 6030 5149 6516 3870 5427 2330 2051 3493 2124 2923 9403 2736 6820 5690 4502 3363 1704 4913 4177 3756 2771 3648 7898 1831 7501 8599 7340 3207 1467 2447 5861 5368 3950 6440 5323 6135 4167 7451 3706 4290 8890 2268 6762 5158 3486 3714 5448 2707 5685 5942 6424 2984 7676 7514 3525 1398 4080 5985 2428 3664 2654 7925 998 8571 3976 3901 4590 2182 5085 6163 5072 5544 5696 6935 373 3128 5985 7131 2392 4758 3496 1500 5001 5292 5932 5621 7352 6865 4992 7701 8784 2932 5192 3864 5525 6987 1634 1229 3886 6206 5415 6084 718 3177 3846 8206 6187 2135 7880 4608 3863 5192 6921 5249 5127 3078 995 4717 4040 2553 6011 2241 8894 5969 5328 5251 3601 2390 4503 1713 7003 3981 5227 8914 8188 6026 5838 6880 1138 3079 6929 6698 1991 6800 5617 6443 779 3809 8187 4142 3703 2709 3510 4819 2989 4363 6569 3520 5386 3119 7502 8418 6954 5522 2800 5485 8611 7660 3720 1490 4871 5489 7826 4811 5620 1791 5392 1947 7972 7312 3244 1773 0 3783 4914 6965 4228 3723 5429 74 4100 2075 5988 4418 1356 5132 3555
6862 3721 2987 3054 6675 6333 3500 2041 6825 3874 3347 3772 6555 4242 830 5969 4008 5222 7527 5965 3651 990 4720 8701 5274 4682 4307 5108 3520 4929 3993 2831 5603 5790 1591 5464 4218 8945 6017 7000 6200 1216 6916 4541 7455 3887 4480 7429 5424 4967 5680 4989 4811 8845 2537 6495 5880 5872 6534 5323 2540 6758 7198 5707 8288 5722 6997 5717 3235 6460 3855 5226 2493 4775 8584 7350 2913 6147 7351 1416 4295 5483 4396 6363 7748 6790 4169 423 4577 4124 6136 6224 7731 7751 4351 7168 4461 1185 824 6611 7985 5187 3302 4597 3213 4974 2786 3612 3373 5141 5352 6943 3069 2268 2448 2134 1334 4304 3252 3858 5478 8839 1809 2192 5662 5899 6919 5670 3390 5440 5168 5127 8190 3568 8367 4059 4247 8755 4049 2482 882 5654 6085 4056 5915 5770 6336 3684 6278 4508 7654 7239 4444 5008 4736 7178 6071 6283 5386 5398 6557 4994 3485 5042 4190 8319 4553 5108 5648 8471 5264 1963 2834 4047 6002 8695 5209 6586 3755 3510 4471 3976 4098 6713 5769 5112 6286 6341 895 7636 7910 5615 6973 3770 2350 3531 2631 6826 2146 4540 7296 6236 6868 4170 3664 4425 6278 5951 5088 5354 7761 6666 4838 2250 4528 3335 6045 6211 9228 6387 3542 8209 4846 4112 3575 6130 2840 5056 6326 658 7540 4893 7463 5731 4309 5118 7432 2468 6428 5611 8320 4668 3095 8375 2984 3526 3186 2819 4795 2798 3583 7662 589 3898 6331 7390 5489 5162 5348 5182 4811 9155 2913 2940 4936 3630 4871 7011 2044 3444 4425 8048 5424 4548 2631 4342 1361 8107 3741 3332 6885 7486 6334 9043 8408 3783 0 5656 5565 7206 3894 6742 1234 4713 3844 4636 5141 5699 2953 4374
2974 3654 4839 6981 2932 5443 2963 4917 8095 6620 6694 7594 5123 7260 4897 8193 889 3182 4471 3225 6977 2607 1411 4729 5210 4956 3904 5827 6997 4557 6161 1752 2598 5036 4763 4656 3816 1411 4348 5076 4786 3268 1620 2947 3000 8343 3375 5542 5317 6325 8545 5894 5043 6784 5985 6026 6511 3234 4581 3865 5845 2015 3653 5563 7982 1592 1659 6164 6288 7903 4438 5015 5454 2562 3186 6822 5914 4951 3351 4973 3636 3749 5651 8764 2866 4006 7092 6917 3359 6528 9337 6318 5434 7536 3707 2836 4326 953 4203 5673 8151 1275 8472 1562 553 1522 3542 5963 8312 4650 1905 5379 1196 3598 7669 4033 4206 6714 6906 4928 6199 6191 4429 8083 5298 9574 7697 4145 2519 6566 4051 3920 3620 6127 4836 6574 7295 6029 5539 8620 6007 4792 1911 4202 5302 6861 3795 8277 5743 4913 9067 3856 3607 3738 6114 4601 4025 4608 8439 5737 5774 7277 3960 5964 3606 4565 2593 3869 3609 5702 4587 2886 4685 2066 3835 6847 2153 7379 5994 8952 7452 6509 4796 3084 5694 5342 3434 4883 4416 5068 7587 3983 8709 4510 5383 5517 538 3153 8690 9391 7669 5913 3339 5482 1040 3486 2124 2397 2864 1804 7059 4246 4490 3140 4980 3423 7994 5133 7775 6762 4676 6733 9576 3497 4898 2251 4957 3305 5658 5180 1738 6037 821 9599 2513 3274 7589 3623 4412 5206 8283 2855 1665 7460 6274 6131 5653 5948 6987 3585 2187 6663 2414 6535 4807 1596 4456 9209 2294 1406 6296 7430 5874 276 3079 6800 5497 6065 3822 5772 8124 4914 4265 4449 6478 5217 2733 3967 3635 2858 3675 3141 4195 5905 2593 4914 5656 0 4980 6165 3411 4276 3720 3147 3637 2180 3412 6137 1566 6916
8838 3650 4969 4867 4394 6609 5566 3954 1506 1103 5293 1149 6384 7587 5170 4089 3041 6217 2275 5558 4635 6449 5197 7735 6855 6638 3310 8728 6454 1341 7047 1856 2562 5991 3827 2838 5428 3932 7618 8502 7290 3045 6794 2674 6468 8229 2689 4989 2277 5597 4304 2582 5132 5147 1070 5227 2631 5436 4150 5780 2798 5760 3661 6253 4301 5188 1720 5833 6994 3369 5289 8352 3283 5132 6483 5807 6023 3861 5390 8992 7275 5405 6624 5893 4612 5208 5242 3948 6275 6668 5321 6230 3560 7986 2210 1689 4439 4255 690 2517 3922 5948 2938 7020 4875 3580 4022 4804 6432 7324 811 2063 3720 5414 4965 415 4798 5006 3145 7942 5476 7726 3567 270 2042 8020 5063 2158 6441 2700 4493 3729 877 7259 5076 8624 2154 2338 3507 5364 6610 7160 8589 5306 6884 5107 4332 2790 7240 6149 4476 3140 3761 6044 3346 6821 4763 3195 5067 3417 3365 2600 5021 2747 7387 4287 3362 4454 3356 5056 3653 5544 2544 5814 6147 7844 9450 4120 9682 6448 4592 783 4621 7197 6313 6232 6654 3980 2326 3816 2659 7328 3419 5204 4511 5329 6037 5854 3612 4487 3716 7152 5285 2871 5748 3549 4345 5787 5194 5740 4987 5543 6222 6860 6888 8858 2631 9528 5579 8529 5713 4117 3788 5330 7652 4255 3677 4722 4290 4939 7976 3187 4999 2846 3831 4771 8927 7777 6819 3428 6548 3361 2865 5444 1577 5676 5423 6676 6803 3876 6519 8418 2250 3813 4568 6184 8463 3445 2362 4188 6353 4628 1855 3894 2383 1615 2857 5942 4127 3337 6597 9170 4917 579 6218 680 2296 6581 6237 4635 1709 4744 3043 4322 4424 6965 5565 4980 0 3286 4187 4628 7691 2867 2031 3988 6757 5753 8370 7662
5314 5576 6346 6553 4563 4108 6018 4107 2705 4800 3523 4747 6991 2602 1564 3960 6374 5615 7292 7278 2663 4916 3681 5984 3422 6911 3941 4707 6342 4445 6795 4040 3027 6046 5111 8935 1643 6219 4047 8560 6285 5675 4015 6985 4473 5876 5054 3571 7659 5768 2648 5673 3869 5889 6662 2971 4439 4016 6019 6723 4707 8612 5048 6341 8095 5406 5012 7109 5446 3760 2691 7349 4675 5938 8422 4432 3936 6567 7530 1929 4980 6534 4838 1919 7554 5700 2029 4278 1522 7611 8155 4833 1988 5777 2763 4664 3190 3585 5771 3461 5992 6709 3203 3286 6148 5446 8725 9803 7263 2788 8762 5664 6316 3749 6495 5735 1698 5975 4270 5461 7792 6331 2432 3747 7879 6444 4971 5617 9077 1148 2189 3875 5066 6762 5111 4819 3723 5655 8557 6285 7585 3273 5181 4310 9129 5127 8781 4340 8324 3135 4448 6333 5319 6936 3536 4184 6711 7742 3516 4965 6359 5908 6288 3906 5595 3061 2974 3369 3873 8141 5623 7447 7463 4453 2876 8798 4413 6226 8966 3965 4664 5572 9240 5847 3132 6438 1701 1661 4592 1553 8212 2663 6264 4156 5928 2178 5994 4636 6335 5029 3014 4716 4837 5235 3869 3856 6450 5647 1909 2475 4225 3722 2714 3418 2858 4412 1904 5013 8840 4955 5257 5323 3107 3703 6002 2401 9270 2304 8166 5126 6025 2723 6351 4808 9475 7164 5460 4102 8259 3561 7526 4640 3447 5107 3225 2729 2429 3957 2526 4120 4396 2774 5923 1776 2177 1779 3137 8443 4670 5421 4575 6497 8088 5903 2283 7015 2754 2766 4233 6069 4086 3312 6225 8457 5951 2334 1203 8920 4136 8601 4106 5253 6853 2889 1854 4228 7206 6165 3286 0 7490 5162 6460 2970 9748 5175 4274 4936 8663 7633
5085 3078 2328 6491 6255 2938 7555 5721 5752 2781 4099 5728 4991 2837 6687 9149 6613 2920 4936 5087 8244 7512 4576 5122 6111 5399 1482 1899 5918 6783 5691 6041 5173 5151 5064 6425 7718 8341 4805 3364 5166 698 2375 2769 4613 4614 2476 5911 6440 9243 2633 1972 3673 8108 3811 2485 4558 4833 5481 1441 4651 2179 3455 6332 3693 5424 598 4150 3125 6745 5811 5203 2621 3063 6557 3186 1973 3433 6232 6142 7466 5739 2909 4149 3534 4631 1393 4838 7559 5644 5865 5113 2516 6194 6583 7795 4217 4706 7039 1269 5225 8815 6190 6587 5037 634 4770 9241 4893 5234 3340 2773 4145 8491 3597 1006 3829 1881 4452 4182 2926 6882 5183 6496 5272 2024 5764 5255 5112 1172 2853 6959 3535 5564 1079 4982 8762 8071 2190 1904 3761 5717 4269 6531 4273 4901 2817 6154 418 4846 4087 2206 4106 8192 4258 3453 6689 6886 5630 8022 4128 4025 4684 9408 5970 2399 4139 5314 4088 4548 5469 4906 2205 4525 7271 6620 7546 8438 4221 1000 3653 5342 124 9316 5118 4828 3742 5728 1339 5249 6758 6839 4981 8556 2905 4205 5756 8680 6751 5178 6090 5727 3962 4616 5313 4899 9072 3561 3680 5289 7668 2879 4213 3125 6140 5478 6040 2324 8084 4255 4557 5273 7899 4022 6714 3805 5684 4946 1883 3541 7254 1708 8551 5493 8756 6311 8030 7103 4723 2578 5510 4152 6809 5077 5459 8033 5194 4668 6502 1065 664 4111 6843 6262 7538 1389 3367 4609 8999 4723 5589 8687 6444 2781 4863 5840 9147 6738 7164 8155 1955 4520 5164 4913 3830 7461 3561 2449 5928 5001 3746 5937 7088 6056 5956 3723 3894 3411 4187 7490 0 5517 5513 3994 2795 4634 7191 2974 5450 5811
8307 5199 6187 6466 7741 6915 4940 5717 3199 6541 4616 3982 3604 4640 4379 5661 4004 3648 6729 5103 6859 5549 3004 5879 4815 2531 6917 5477 9188 5178 3791 6073 3605 4577 5872 8457 4737 4418 4951 2922 7854 4991 528 1790 6624 4367 3120 7147 7842 4408 1802 3990 3870 7315 6336 2939 4997 3915 7979 3144 9155 5244 8884 6562 6481 1249 5840 4689 2814 4999 7460 7795 4518 7716 4859 7111 6182 3712 6010 7650 4197 5236 6121 5761 5529 3509 6835 4985 7695 4950 5371 5315 5512 3716 2911 4183 5935 5841 4888 4992 2507 2017 6720 3607 5331 5814 7922 6390 5575 7656 3537 7435 7534 4773 2260 1485 7546 5668 6439 6705 1937 7003 4519 4718 4295 2716 7363 4813 5147 1017 2589 5969 5901 2473 8388 5103 7542 7623 9110 6169 5852 3452 280 4962 6779 5750 3461 5612 8053 6609 6602 3505 5922 4341 5191 4204 2034 5011 2230 4520 6411 4349 6946 1401 4611 7561 4105 6176 3042 7947 8688 7007 3222 2770 4315 4465 803 8797 7315 3929 2218 5516 5377 1961 5857 7450 5960 5190 7139 1746 3902 861 7425 635 3077 7167 8677 1584 739 2841 5260 4290 3214 4555 5651 7050 6925 5206 7229 7439 1309 4899 5481 3193 5339 2453 6562 5139 2654 7728 5311 7470 5367 4741 6257 1708 3755 6500 5525 3818 6494 7899 4362 8620 4573 3918 5356 8409 93 6469 1690 4856 3048 5146 4642 1055 9009 7354 911 1636 7752 6630 5109 7216 7594 6029 5332 3972 3594 1502 5460 4871 2338 1220 7761 4357 8461 9183 3806 1220 4436 1706 7594 4285 2483 9071 2853 4701 3452 2596 7802 4835 6370 3804 3631 5429 6742 4276 4628 5162 5517 0 3582 7515 2534 4109 4354 6833 4998 6456
6803 9366 7606 5933 3314 7015 6572 4642 5363 6867 5258 3858 3036 6756 5786 5284 4100 1126 5516 1338 5158 2942 5474 6556 3901 5301 6610 6060 2518 4606 2104 704 3003 3714 4158 3527 4697 6254 6950 5558 6969 5892 5291 4868 5049 3177 1880 3453 8663 2300 5321 7443 5241 753 2102 753 5368 3202 4300 5743 3251 7505 6035 5049 3678 3840 4157 6829 1716 2510 4271 2147 7579 6106 4892 1902 9445 2399 6728 3391 6795 5964 7348 5179 5315 3240 6553 2883 5156 7438 1957 8251 7616 5881 5236 3416 3799 6678 6004 5279 9326 5638 864 4236 3184 5303 4904 4809 5004 8142 5709 1158 2463 5771 2947 1256 7061 2152 6743 5792 9039 3671 7273 8100 4669 3827 3070 2569 1513 7168 2813 2970 4071 4159 2656 8083 2174 8537 3808 3911 6281 5459 7947 4788 6689 5393 6016 3054 8597 5074 3077 5157 7210 2652 9178 8639 5661 8373 7173 9299 2476 1944 3459 4956 1870 4539 5629 3636 2876 3652 4992 5275 3285 4440 6972 7154 7138 6854 3775 1395 4166 4725 2649 4355 5073 5342 6045 6852 3105 4675 9335 5738 3905 3056 5820 7378 4845 2791 5850 5161 6521 5817 4050 8619 8757 6073 5979 4000 8293 4730 6001 4119 5701 2505 4845 3165 5556 5720 2608 4748 5366 6282 5138 4435 7624 7535 6987 4456 6264 4458 3104 6808 8200 5163 6108 2216 3945 4760 2231 6226 1847 8598 5731 5339 4143 6151 4456 6770 3882 7999 2104 4981 6079 459 4862 3875 4647 5478 2785 7331 4291 5469 2646 3164 5030 6448 3403 9724 4635 3832 5536 5781 3392 7453 3382 4306 4578 5041 3842 2724 2032 3225 5896 3577 3518 74 1234 3720 7691 6460 5513 3582 0 9052 8293 4329 8762 5313 7256 3371
2236 4262 7037 6232 6998 3370 7338 5455 8183 3622 5786 4919 1901 4355 3745 5798 2462 6364 5044 7372 7025 3542 4586 8848 7079 1657 5185 9101 4594 3382 5239 4469 1933 3916 7145 7981 2931 7470 3679 6457 4387 1043 6799 5093 4029 3047 4906 1092 4057 4339 8123 5042 1398 3496 3380 4029 2313 7507 7553 5707 5421 6176 5982 1295 5185 7913 5460 2902 3659 535 8373 3810 1261 8149 6284 4630 8593 6218 646 7342 7953 1208 7400 5343 7804 3603 2690 2017 6539 3574 2324 4650 2350 7732 4006 6830 1599 2215 6244 5111 3117 8759 1396 4776 7343 6222 7192 4968 8992 4939 1889 5233 5666 4163 6574 2175 4049 2812 4869 6814 5067 2606 6830 2902 5948 9129 5658 2470 6905 2614 3536 2602 3644 2734 7653 2493 4241 5285 1952 3564 4431 5783 3164 4695 5349 5163 2054 4522 4299 6040 6349 6766 8386 3048 6224 7890 7064 5493 6020 3934 3078 9046 4633 4591 7063 2928 4432 6225 2398 5865 2912 5220 5093 4043 8504 2821 7282 327 5712 6243 3968 6361 2161 6221 9739 4092 4215 2116 5958 8376 5816 5577 5251 2279 1498 3371 5347 6347 1761 5543 3534 8672 3176 9673 824 5093 5628 3848 4569 4481 5295 4836 7219 2734 3931 7217 7471 7956 5139 5376 2282 5678 8993 3046 5862 6291 2636 6590 5636 6383 2098 4852 4175 7307 1690 2589 3237 7415 6019 3873 3563 1113 8725 6384 6185 7871 4611 1288 6858 5720 2254 3065 6002 6410 7159 3821 145 6065 4076 8406 4705 5232 3910 6512 8069 7042 5421 2916 4425 3438 4102 1915 3093 5884 3853 4601 3869 3757 6576 4712 3575 8354 2490 274 4664 4100 4713 3147 2867 2970 3994 7515 9052 0 3370 3715 3236 2718 6200 4425
7497 5963 7914 1779 4543 5473 2911 5772 1327 6182 3866 7133 6209 1922 3514 7142 5313 329 6513 3025 3825 6643 560 5428 7080 2262 8090 4205 5146 5517 7633 7771 4094 3801 7468 2031 3718 4470 4486 4412 6557 7493 2421 7012 4912 4166 4848 6048 2125 3461 8894 4568 7595 5456 6128 1050 3387 5809 5519 5100 6268 2494 5207 7642 4400 4828 6696 2799 2259 4019 4114 8211 8284 5541 4259 6578 1148 5025 2959 6106 6230 4137 6095 8208 5446 6513 3531 5290 6081 6907 2863 3929 7349 3536 5931 6329 7633 7814 7068 6725 8508 5171 4421 4865 1850 6906 5666 9099 4632 5525 4193 5812 2588 4312 6023 3496 6733 1808 471 2566 1135 5196 6255 6953 6425 5726 7356 4043 1995 5631 5746 7003 8727 322 4910 7812 3996 6488 8258 6218 6039 4465 3248 5449 2419 1083 8236 3619 4047 4850 6393 5992 764 6696 6165 7230 4440 6940 7644 3392 4827 1637 5516 6745 3102 5606 9464 4405 2590 2897 4626 6463 2735 1911 6470 5610 6557 4314 4566 4951 5644 4750 4028 6192 5012 4008 3618 2796 3862 6928 7328 4275 8132 7183 9026 1772 3608 3500 2264 4497 5569 5433 7352 3619 9145 7547 5472 6780 2746 5971 5872 4277 5060 4066 2972 5322 5322 7148 4463 8789 7650 5220 9032 3732 4541 4033 2102 2069 4398 5098 2506 6418 6783 2906 4795 7717 4522 6108 5487 6479 5748 1079 4422 2197 1468 5172 4193 5650 3810 6725 7188 5262 2404 5305 4354 2480 1447 4051 3624 3218 4136 5856 6586 3159 2799 7609 5280 4873 3430 6820 7493 5763 8008 6379 3854 9151 2096 4854 6204 4303 7417 4522 3440 7695 7563 2075 3844 3637 2031 9748 2795 2534 8293 3370 0 6791 4755 5498 4729 3376
8178 7261 6517 3368 2155 2633 7078 2886 6451 9530 6357 2552 4535 2463 7185 2528 4633 3919 8074 844 5418 2718 6015 6943 3192 7276 7303 8062 1702 3533 6668 6901 3055 1442 3401 4996 6743 8557 4441 5161 3890 6844 4895 5855 2530 1217 3376 5185 2672 5026 2660 6725 7863 6077 6832 7429 5682 4988 8772 3295 4664 8732 3231 6364 6354 7762 4571 2985 2751 4121 5830 3916 4853 8430 3687 7436 7326 4132 8840 4469 1834 4652 7459 4716 5187 5894 7894 4155 4519 6928 5365 8381 2448 7919 5519 5479 6920 6571 6200 6013 7870 5746 9042 3297 8715 8545 4215 4273 1999 7611 3106 7692 4558 7200 3222 6635 7501 8840 6730 2132 1440 4914 3252 2590 1410 6016 5967 4953 5250 3643 4598 7873 2293 3438 7544 4227 6390 4084 4465 3908 4384 2824 2729 2787 1323 3502 4859 7153 3866 8197 4892 4578 2145 3136 5436 7116 2416 2053 6131 5614 4011 4213 7652 4729 5924 7855 7845 4157 3321 6388 8009 6109 3662 5142 5124 5454 5768 3652 1948 5988 6139 5631 2087 5297 3820 8121 5089 5417 1251 2533 4846 6006 5763 4120 2955 2216 3730 4476 5889 7222 6550 2870 3486 9042 7809 2920 2730 8893 2930 6123 6701 4324 4250 5259 6722 5160 3731 5452 4415 2369 5830 4770 3905 2681 3872 7537 5555 2836 4882 3140 3736 4916 7451 2710 5778 5033 7282 4929 3824 5899 5493 8080 3913 7949 4505 4210 4629 2868 5377 3518 7465 7876 4862 7260 5481 2717 5193 5466 4600 5178 4171 3317 4866 9382 3093 5744 4485 756 3756 1382 7384 2721 3737 9303 6728 5063 9043 4892 4916 3404 7118 7265 5593 5899 4435 5988 4636 2180 3988 5175 4634 4109 4329 3715 6791 0 7279 1397 6665 5040
6606 1712 8618 2530 2701 4265 9284 7694 6218 6879 6121 3100 5136 2958 6494 4611 8035 3871 1599 4150 2533 271 8370 8480 7019 3562 1694 7140 7805 3277 1980 5059 6445 2564 2440 671 8734 5591 1129 7346 6966 4382 1933 555 3858 5196 4611 7738 6088 8610 4801 5974 2798 3950 8722 6377 2031 2797 3492 7696 4893 6934 7498 5382 3856 6443 4823 5509 4148 1783 4120 4890 4387 3746 4121 4938 3242 1317 5801 3315 3668 621 4348 4819 3984 7409 5854 5204 6059 4470 6723 5691 7057 2638 7461 2049 1342 4373 7786 7561 3780 5150 4990 1179 3938 3925 8155 8867 7191 5570 3312 6042 6249 5707 7831 5907 1621 3643 6718 2880 3415 1549 4876 354 5092 4248 5822 5562 2481 5154 2143 4083 7739 8949 7338 6629 7603 9589 6196 7943 2976 3164 1599 6541 1985 4234 5286 1399 8291 5184 8128 7444 3687 2913 1252 2620 6739 1976 332 5439 6957 3970 4615 3906 8944 2765 6563 8661 7547 3058 7750 6915 2651 4992 3000 6625 4884 8041 8172 3900 3745 8489 5618 3583 5055 2922 3376 5290 5120 3997 3165 454 5078 4231 5256 7237 3962 4618 8265 3793 1049 7391 1198 7121 6439 3870 6602 2834 4656 3162 4335 3983 6504 1945 2834 4775 3527 4077 7251 6838 3195 718 2642 2451 8360 3082 5205 7800 5929 1459 5866 5236 6845 5848 6809 4578 5344 4411 5562 7108 4128 1981 4875 1269 4958 3193 5796 5496 5399 6374 6175 5429 7915 4697 4370 2514 2726 2753 4264 4972 9586 1244 7464 3210 6312 6215 5249 3883 4199 5154 5084 6414 1657 437 1453 8470 2545 6784 4919 4878 5313 2387 5804 3719 4352 4418 5141 3412 6757 4274 7191 4354 8762 3236 4755 7279 0 3738 7490 8891
4316 3932 5030 8868 7788 5384 1074 5077 5199 7378 4244 4849 4979 7062 3917 6108 9073 3223 8313 3202 4722 6424 7985 4469 2736 3814 2940 6482 2377 7155 5547 6163 932 3584 4267 5695 3254 3065 4406 5725 2318 5766 3808 6414 2596 5747 5608 1406 4667 3238 4706 3807 8821 5907 6747 5841 7954 5192 6493 9356 5196 8730 4624 8345 5754 2608 3752 8289 9216 2622 3732 2876 6659 1529 3423 4807 6421 5421 2918 2204 5590 4432 4809 5635 4205 2298 5563 4260 8946 5741 5246 4191 3439 8216 6757 7362 4956 5601 5884 6193 7204 6471 6642 4692 6246 4350 7512 1863 4440 8273 3980 7213 5153 4257 6032 5263 6123 3404 4654 3944 3517 7007 8644 4869 6463 4916 4056 2643 5274 8839 5465 6369 7270 5274 7391 5202 3021 5959 5118 1604 6948 4520 9608 5223 4315 697 5385 2931 5445 4220 5281 3661 1485 5615 5789 3903 7273 5919 3950 1767 5919 4475 3853 2809 4124 6806 3478 4927 1502 3931 4908 7794 6602 4675 4799 2843 6806 5657 5670 7179 3686 5224 3623 7187 4817 6322 6308 4256 1289 7031 8819 7197 4167 2375 5538 3232 5797 7338 2018 4910 8610 1409 6353 5437 2886 5173 5731 5209 4887 5390 5146 4803 6160 4557 3112 987 4902 8056 6321 4192 7418 6588 4759 3161 6494 2692 3372 7442 4015 4689 2934 4165 5815 4540 5570 3465 5070 2312 5200 6759 5724 2345 4604 5596 4149 3097 5452 1745 6742 4343 4332 7315 2918 4750 5179 7851 5340 1377 6952 4920 8878 6732 5188 8259 5373 4948 2076 5964 7234 4360 2821 6228 4428 2247 4833 6736 4280 9608 7804 3507 4965 7786 4527 2052 4113 1356 5699 6137 5753 4936 2974 6833 5313 2718 5498 1397 3738 0 6956 6880
8440 1975 4810 7324 7219 6975 3462 5207 5271 1780 2903 4016 3495 2579 1366 5902 4409 3370 9502 1749 6656 6999 3234 7159 4565 4819 2672 7291 4559 3605 5743 5573 3484 7992 2240 3793 3185 4668 5346 3604 4314 7069 3636 3709 6363 4611 1481 6312 1866 5215 8077 3718 4797 4575 1968 2353 1431 5369 5345 5067 7975 1850 6039 2967 3498 3783 5181 3458 6843 5131 5295 4415 7940 3331 2775 5259 3115 5117 5297 6079 3294 5138 6596 5945 5772 6857 2105 3611 3607 1855 7654 8696 4338 8522 1913 4381 2609 1382 5878 3231 4666 2790 5180 7358 2246 7790 740 1241 4437 3679 6676 6864 4131 2360 4557 5055 2306 6545 2450 6094 1365 5069 5309 2039 4217 5759 5408 3229 6658 6780 8560 9240 5432 4057 3905 1946 5760 2658 8130 4179 780 4473 4489 6726 2697 1493 3877 2569 6475 4263 5481 5003 4918 3581 6524 3025 3744 1669 3058 4760 5353 6481 5443 2376 3385 3871 5500 2763 7167 5683 6792 2146 4372 3649 2079 9077 3316 2884 5867 5717 8353 4001 4391 8573 1281 4577 6200 5999 1513 5422 6855 4369 5081 6380 6468 5683 6753 4027 4369 4399 3200 8153 6961 6233 3837 4533 9376 3329 2825 8024 5494 1460 4031 669 9290 7205 4153 3494 2589 8237 3570 3509 2172 2293 5239 2792 5186 7664 1954 3998 6700 6700 6417 3817 2030 3295 2854 4231 5656 3778 7295 8735 1404 5553 8680 5353 6117 3154 5807 554 5756 6660 6934 3634 6370 5767 7949 1425 8384 2579 4335 4372 6151 5071 5632 963 7616 6770 1780 7381 6808 6370 4415 5444 8290 6027 1112 6985 6081 1548 7621 6681 2997 6906 5058 5132 2953 1566 8370 8663 5450 4998 7256 6200 4729 6665 7490 6956 0 2508
5380 5958 5113 3688 1889 5663 1671 2613 2068 2585 5964 6999 4021 1793 3639 4578 1244 5470 5431 5113 4847 4751 3995 1992 6889 4805 4334 8861 5250 3683 4253 6501 5632 6359 7701 7163 5398 5366 5187 4771 2179 7478 6131 5688 8557 6827 6143 6574 6046 1432 4909 3333 6857 6697 5191 6555 6105 4757 6872 4761 6382 2239 5399 5362 4605 4594 3400 4687 3194 7660 4701 2111 3763 5175 6701 5442 1206 507 2387 2610 8996 3710 8952 3773 5364 7060 6507 6597 4282 2977 5174 5706 7458 5026 3718 4436 337 3240 2761 3077 7322 5202 4938 5581 7285 3208 7783 951 6025 8425 5320 7612 5090 2966 6231 7967 8487 5000 7146 5360 5134 6329 3517 7679 8986 7240 7382 7115 4129 5629 5785 2395 2745 3319 6411 5162 7152 1066 5619 499 2989 3290 4528 3538 561 2155 4450 6005 6328 8394 3131 4702 895 3581 3495 4657 5256 5220 2842 2177 8085 686 7499 5754 8247 5135 6047 5987 5158 5231 3690 4732 6757 3830 4700 9171 4529 9118 6904 4290 5293 2404 3261 8882 2726 8440 3749 5423 3868 6607 5166 6580 5337 2630 2355 6282 6628 7022 779 3711 1132 1696 8090 1126 3739 4659 6290 2860 4627 3713 3903 3231 5025 2359 8294 5210 4002 4681 6283 5818 5251 7100 6585 7517 7562 1916 5162 570 5329 4925 1319 4287 7089 6202 2303 4749 4021 1559 5545 7648 3983 3657 3504 855 5147 6411 2213 5841 3633 7552 8173 2707 5324 5256 7668 9085 5416 3162 8545 6526 4101 7539 8076 4346 7120 6481 8420 2762 2196 1352 6386 2927 6675 7800 9325 2156 5047 3457 2747 4742 5034 4115 3413 5959 3252 3555 4374 6916 7662 7633 5811 6456 3371 4425 3376 5040 8891 6880 2508 0
EOF
