NAME: family_A_random_n75_s0
TYPE: TSP
COMMENT: family_A_random generated explicit tsp
DIMENSION: 75
EDGE_WEIGHT_TYPE: EXPLICIT
EDGE_WEIGHT_FORMAT: FULL_MATRIX
EDGE_WEIGHT_SECTION
0 7631 2805 4945 2106 4756 3739 4066 3803 6850 3839 9466 4788 4969 6049 4497 6269 5040 4929 8824 5225 5838 5867 2498 3135 5756 6796 2931 6405 7771 6006 2312 2801 5298 1791 4378 887 3530 4145 7061 3106 4715 243 2989 1987 6383 2806 7933 5255 4085 5789 6129 4600 7576 4139 5716 6090 5599 4935 6245 7884 6609 3905 6308 6956 4816 5173 7360 4574 5033 4196 1904 3191 6554 5441
7631 0 6796 4207 1839 6251 6028 4846 6093 6932 6600 5206 5247 5363 5769 6478 4482 2801 1275 7777 4352 3392 1482 4184 8867 6208 5647 2893 3752 8398 7811 3686 1830 4682 4653 3307 3505 4444 6845 5050 4222 3595 2773 6994 1895 5441 6501 5175 1305 9384 1817 6806 4040 5451 5220 6434 3516 8713 5513 4283 5319 3428 5537 6422 2527 4845 4714 4325 6450 6032 4527 4534 5109 3861 6464
2805 6796 0 3181 2259 7782 7945 5871 3269 3412 5693 6661 5945 5606 3732 3396 2981 5042 1806 4693 2662 5828 6567 4492 8744 8062 2120 1494 4182 5916 9678 7243 4577 6189 7618 3387 4745 7265 1007 5363 6594 5730 1846 4420 4789 8218 4499 7685 4091 5981 1319 4618 5982 1771 6615 6799 3439 7622 4949 2152 6937 6295 7214 5592 3970 6087 7719 3528 6227 6402 1086 5991 4492 362 5983
4945 4207 3181 0 5615 4300 5047 6553 7562 5247 745 5818 8427 4703 3404 7975 5327 3602 5481 5624 8693 786 3461 6349 4047 2200 4485 4780 6926 2556 4987 978 2493 7420 1970 6531 3069 8115 6332 4211 7330 2606 4197 6467 4410 4816 2493 3523 6883 4659 5298 4024 8110 8119 5419 766 4659 4196 7699 515 4491 9121 1728 7995 2759 3281 7873 9642 1602 6228 7674 6063 2418 8231 8542
2106 1839 2259 5615 0 3285 1494 5074 5064 4158 6229 8429 4126 7678 4975 1244 5000 8105 6258 5079 3916 3396 4451 6579 3662 5975 3701 5253 4739 8620 4166 6075 5369 1562 7036 7156 4934 7866 4836 3380 6814 6196 5321 7420 4926 3184 1305 3862 1753 4436 2161 6229 2664 7085 7093 7077 5273 8147 8896 8714 3505 6343 5717 1329 6601 3009 3904 7303 3810 6998 4699 3505 7939 4646 9347
4756 6251 7782 4300 3285 0 1789 7384 2831 5849 4381 3789 3834 5119 6530 5089 6240 5903 1134 7405 7649 5856 5518 5957 7557 6214 6274 4649 2156 6452 5355 5583 4451 8296 5849 5835 4047 7667 6477 2767 421 2522 4925 6662 4737 1876 5732 6896 2032 8890 978 5105 4157 1362 4224 3567 6310 5465 6281 1196 5579 4775 8901 4797 6888 6218 6401 3802 2069 4375 1265 734 1626 4430 4654
3739 6028 7945 5047 1494 1789 0 5456 2389 1651 3784 7739 1473 4003 6854 2920 4064 4533 3164 4047 5277 7775 2062 5398 5923 7444 5196 7027 5935 6504 5225 4429 4792 7723 860 5503 6777 6920 5930 8076 3697 3781 4745 3843 6761 9145 8406 5060 7277 8738 1908 2064 4705 6392 5567 9944 5571 8853 1306 6363 1939 6865 1816 6560 5483 1852 8496 7351 5433 5900 5159 8206 6714 5131 4279
4066 4846 5871 6553 5074 7384 5456 0 6264 3570 3162 6013 3879 3412 3588 6607 7006 4439 7141 3177 4924 4526 8064 4080 5788 2811 8333 5076 8345 4260 2716 6220 6482 5130 8658 4898 4758 3220 8413 5749 4831 1328 4419 2727 6614 3716 4399 7082 3611 5423 8796 7059 5992 6552 1693 4239 2629 9520 3250 6470 3384 2828 6380 7091 6741 3973 4607 9337 5414 2737 7933 5834 5623 1785 4211
3803 6093 3269 7562 5064 2831 2389 6264 0 6410 4750 8020 5834 4177 4473 6737 6186 6222 5259 6313 8047 2680 3900 4706 6108 7603 6188 2940 8001 6724 8467 1671 4913 5751 3307 3738 5871 3913 5961 7496 2583 4302 3473 2590 5272 5267 6783 2440 5693 7684 3895 2728 5820 1147 9184 4188 3851 4602 7388 5013 3885 8157 4539 5604 5559 3461 5586 444 6785 989 3427 6801 3640 6278 1768
6850 6932 3412 5247 4158 5849 1651 3570 6410 0 5717 5363 6108 4790 5479 4318 3806 4898 5208 2139 3555 3764 3988 3684 8781 8289 6455 4405 2926 3763 7039 8188 6129 7548 3363 3969 4182 4235 5201 3400 4621 2311 3020 3764 2421 7564 5780 5612 5001 6953 5131 9242 4142 5359 4103 6002 116 1353 7570 5087 2749 4936 7771 6573 1745 5163 5494 2774 4139 5048 1821 5157 6378 6311 4576
3839 6600 5693 745 6229 4381 3784 3162 4750 5717 0 4646 4566 3699 3170 5554 1375 4844 7019 8971 2708 4528 6068 5487 3201 2732 6288 4594 4632 4832 5361 9016 6581 7080 8942 5295 5979 9094 6352 8853 5344 5814 6577 5482 9585 1293 8663 5560 9582 2457 5385 4585 4420 8601 6626 3650 1318 2227 5264 2963 7019 8001 9175 1778 4398 8417 4940 2102 8761 4625 5220 7946 7145 7945 4547
9466 5206 6661 5818 8429 3789 7739 6013 8020 5363 4646 0 5974 5650 6779 1137 5573 9062 2791 4983 7625 3946 4952 5594 6704 5784 7233 2437 7586 1997 5530 7147 3806 5410 6488 4007 2696 6593 4671 8562 6335 4022 3296 7906 7268 8589 6609 7677 2742 3544 1928 6214 2923 4199 6041 8272 5889 1958 1203 4306 9469 721 4010 6349 7391 5142 8083 8625 6479 5376 6359 6399 2812 5275 2426
4788 5247 5945 8427 4126 3834 1473 3879 5834 6108 4566 5974 0 7744 8816 5974 4804 3079 5917 8395 9058 7763 2683 2498 5608 1521 1675 8034 3312 7783 3684 4744 6496 3615 5357 1776 5472 4608 4379 5901 4701 1322 1848 4559 7563 6973 1492 1802 6068 3760 3834 4419 4216 5225 4498 2988 4215 5030 5763 2343 6089 3253 7424 4699 4963 6031 7562 6420 5754 3293 6437 4869 5172 4698 4491
4969 5363 5606 4703 7678 5119 4003 3412 4177 4790 3699 5650 7744 0 6934 5630 2490 3360 4057 6389 7277 4027 6616 3899 6971 7374 4545 3275 5703 4443 8167 3677 5238 2794 3604 3760 4710 1311 1062 7485 8795 2832 9354 4078 5724 797 3644 3444 2986 8485 8421 2001 4357 3066 1478 3041 6915 8297 7079 1561 4577 6898 4672 7787 3533 4842 2186 3804 3621 3790 4774 5510 213 3127 3510
6049 5769 3732 3404 4975 6530 6854 3588 4473 5479 3170 6779 8816 6934 0 4266 7811 5682 3938 1373 3978 4579 1772 6168 3976 6837 2118 4308 1075 3987 5121 8463 4075 3664 5528 2981 2567 6828 3711 5752 7913 4929 3618 3755 1171 5899 8367 7010 5079 6958 9090 7198 2976 3715 3551 3625 6245 5726 2404 3702 6207 6241 1770 8849 1672 4039 5639 6043 3504 5345 4724 6226 4242 8011 3876
4497 6478 3396 7975 1244 5089 2920 6607 6737 4318 5554 1137 5974 5630 4266 0 5219 6529 5993 846 2712 2085 2911 3829 1983 8737 5684 6749 9343 5696 7028 2443 3397 5694 4085 7149 7223 8252 6806 2887 775 5625 5773 8855 8109 1991 5842 6492 5877 7667 2803 5168 4042 5172 2103 4203 6827 8169 4637 7822 8726 2603 2626 3030 7330 6936 2848 4435 5850 4036 2282 5447 8876 4901 2273
6269 4482 2981 5327 5000 6240 4064 7006 6186 3806 1375 5573 4804 2490 7811 5219 0 3041 4385 1537 6689 3966 4353 6061 6846 2379 4436 5763 5972 3767 5936 4150 9309 5302 7762 1415 6907 5709 4875 5176 4665 4162 5488 2702 6437 3483 1831 4959 3700 7859 8243 928 4051 3614 4639 5515 5380 4691 5762 6545 4003 2582 6353 6096 3960 4269 7955 4444 4732 5555 3227 7763 3065 3475 8230
5040 2801 5042 3602 8105 5903 4533 4439 6222 4898 4844 9062 3079 3360 5682 6529 3041 0 6327 6747 4608 7337 1744 5173 3814 7922 3005 2968 2922 8449 7620 3224 1148 3182 8890 5118 7974 8417 918 6746 1643 5123 3144 5897 6488 5968 8096 8616 378 6064 7082 2291 3282 6513 2051 6805 2980 6399 6151 3491 3247 5328 6305 8171 4685 3890 5999 4246 4632 6908 9375 4725 1578 5136 1736
4929 1275 1806 5481 6258 1134 3164 7141 5259 5208 7019 2791 5917 4057 3938 5993 4385 6327 0 3827 4417 1494 351 7506 6276 7144 5234 7267 3063 3847 9582 4716 7298 1332 5081 3381 4606 4653 6887 7273 2834 3966 3014 3947 3216 6016 5874 7304 6719 3037 6558 9140 1992 4918 9332 6077 5316 2173 3469 3550 4209 3462 7576 8546 3972 2228 7992 7693 3585 3407 7361 4886 4618 3015 5529
8824 7777 4693 5624 5079 7405 4047 3177 6313 2139 8971 4983 8395 6389 1373 846 1537 6747 3827 0 5581 6021 2828 7480 2324 4258 5264 3928 8118 8014 5197 6840 3769 5089 3613 3804 5795 5550 2568 7774 5550 4239 7032 479 8733 4614 3751 4593 8596 4705 2863 4226 1700 3931 8147 7315 4910 5099 3668 4615 4189 5477 1764 2690 992 7428 5666 5908 7198 5454 3064 5334 6742 4297 4946
5225 4352 2662 8693 3916 7649 5277 4924 8047 3555 2708 7625 9058 7277 3978 2712 6689 4608 4417 5581 0 3659 6092 1990 5661 7475 3367 4947 4969 5800 4390 8676 1258 5363 3214 4979 2375 7409 4391 1922 3531 6269 4411 5617 1080 4156 6875 3818 2601 3862 615 2516 6999 5861 6217 1874 4712 5445 2810 2910 7067 4066 5901 1515 6742 8020 4841 5832 3041 3387 6328 5237 3865 7873 4277
5838 3392 5828 786 3396 5856 7775 4526 2680 3764 4528 3946 7763 4027 4579 2085 3966 7337 1494 6021 3659 0 6060 4729 9810 7543 8242 6638 3205 3116 1036 6479 6169 6474 6713 5676 2857 7346 5178 3215 6131 3477 5287 7033 7694 3202 5131 3930 4191 5848 6938 818 3243 6401 3983 9271 5929 8231 6707 2570 9270 1506 6583 2634 4824 2684 4092 608 5486 2298 5827 3229 4601 7354 5017
5867 1482 6567 3461 4451 5518 2062 8064 3900 3988 6068 4952 2683 6616 1772 2911 4353 1744 351 2828 6092 6060 0 200 2792 5953 2664 5165 6159 5445 3530 6910 3824 3121 7909 2220 5143 6798 5869 2128 3512 4642 4800 5779 7959 8215 5013 3212 4231 8988 4136 2324 2836 3737 5913 8282 7106 4363 2601 8087 4902 2352 1726 5268 4607 6253 5785 7777 4268 5822 5729 1635 5365 5281 8807
2498 4184 4492 6349 6579 5957 5398 4080 4706 3684 5487 5594 2498 3899 6168 3829 6061 5173 7506 7480 1990 4729 200 0 6514 1467 3430 8492 5652 2989 7317 8361 7056 5484 2403 7352 7560 8691 8388 7976 6643 8420 8391 8294 4398 1431 4052 8095 3898 8539 6934 7117 5137 5545 5580 4741 4794 7270 4299 3538 5283 5842 4082 5623 2810 1294 8883 4779 2859 5779 6701 3194 3627 8111 6783
3135 8867 8744 4047 3662 7557 5923 5788 6108 8781 3201 6704 5608 6971 3976 1983 6846 3814 6276 2324 5661 9810 2792 6514 0 4930 8563 3571 5036 4562 3189 6860 6420 1901 5079 2907 8983 7469 7962 3438 3989 3583 1421 3195 4746 3532 6201 7111 6255 1506 4812 3938 4144 5628 9664 8561 4717 2197 4432 7104 4355 3190 4921 4427 6228 6766 9353 4252 7824 7433 5020 3971 4756 3512 1726
5756 6208 8062 2200 5975 6214 7444 2811 7603 8289 2732 5784 1521 7374 6837 8737 2379 7922 7144 4258 7475 7543 5953 1467 4930 0 4217 5694 4969 8574 3894 4629 5298 7658 7443 1247 4674 7459 2176 8137 2254 2815 5645 5012 2872 1813 6659 5927 7411 9381 6585 8549 3333 2215 3288 1644 7839 6494 4128 2873 5229 7530 4986 6546 4930 4871 7677 8487 2117 5647 4552 4931 7229 1841 6316
6796 5647 2120 4485 3701 6274 5196 8333 6188 6455 6288 7233 1675 4545 2118 5684 4436 3005 5234 5264 3367 8242 2664 3430 8563 4217 0 5378 5542 4531 7940 4824 3527 2801 1488 4665 7836 4471 5098 7380 5317 6825 8549 1869 3010 4364 1211 4203 5765 4075 6362 1513 6786 9024 4254 4393 3198 5481 7338 4596 9558 7814 8177 5863 5755 4844 2987 2926 3268 5023 4605 2940 6084 3291 2629
2931 2893 1494 4780 5253 4649 7027 5076 2940 4405 4594 2437 8034 3275 4308 6749 5763 2968 7267 3928 4947 6638 5165 8492 3571 5694 5378 0 2427 8550 4929 2751 5647 3053 6114 4241 3295 4922 6864 2662 8998 4733 3249 4755 6437 3162 3046 1978 1646 6601 6902 3493 5288 3885 3856 5402 3787 2600 1806 4799 4270 3048 2068 5097 5664 6028 6043 4883 8034 5969 5918 8463 1741 5269 5561
6405 3752 4182 6926 4739 2156 5935 8345 8001 2926 4632 7586 3312 5703 1075 9343 5972 2922 3063 8118 4969 3205 6159 5652 5036 4969 5542 2427 0 7495 1742 9210 4214 4682 3482 3171 5147 5685 5983 6349 6659 3892 2900 6477 7295 4930 5849 703 5122 5169 9022 3697 6645 4018 5316 1814 4774 1560 9024 4706 5264 7075 1472 5406 1677 6118 5217 4631 6447 5894 3587 4724 4979 3111 5830
7771 8398 5916 2556 8620 6452 6504 4260 6724 3763 4832 1997 7783 4443 3987 5696 3767 8449 3847 8014 5800 3116 5445 2989 4562 8574 4531 8550 7495 0 5281 9444 867 3265 6313 6186 6064 7396 1450 5431 6444 7624 1909 2624 3149 2804 4701 6495 5121 4748 6806 5832 4213 6335 2545 4753 808 2527 3048 7956 4325 7421 4613 3110 5900 6849 6878 5502 4625 6631 6345 1175 6832 6327 6776
6006 7811 9678 4987 4166 5355 5225 2716 8467 7039 5361 5530 3684 8167 5121 7028 5936 7620 9582 5197 4390 1036 3530 7317 3189 3894 7940 4929 1742 5281 0 938 6529 4638 6450 4186 7891 5466 5781 5333 3145 5464 7377 3678 5816 3886 3958 3858 5112 5544 1165 2173 9579 5123 8237 4448 3134 2381 3066 4570 337 761 5575 4033 7305 4384 1792 3288 6361 450 4823 5176 4713 6649 3878
2312 3686 7243 978 6075 5583 4429 6220 1671 8188 9016 7147 4744 3677 8463 2443 4150 3224 4716 6840 8676 6479 6910 8361 6860 4629 4824 2751 9210 9444 938 0 3791 5067 6062 5852 8106 2031 4558 9201 4705 5596 6146 5217 4456 6528 1402 4048 4539 5611 3186 6919 7652 1845 5669 4197 5010 7166 5654 6642 3772 4780 5478 4403 7670 3912 2695 5085 4924 5907 5881 8619 5026 8086 4765
2801 1830 4577 2493 5369 4451 4792 6482 4913 6129 6581 3806 6496 5238 4075 3397 9309 1148 7298 3769 1258 6169 3824 7056 6420 5298 3527 5647 4214 867 6529 3791 0 2413 3170 1902 5076 7337 1551 5137 5426 1686 5716 3554 3498 6280 2721 4482 5360 5181 3407 7592 5453 3588 5137 5106 6639 3632 4594 4102 4244 2904 1842 4799 4347 3533 4573 5488 2016 7059 6106 6325 6767 6609 5009
5298 4682 6189 7420 1562 8296 7723 5130 5751 7548 7080 5410 3615 2794 3664 5694 5302 3182 1332 5089 5363 6474 3121 5484 1901 7658 2801 3053 4682 3265 4638 5067 2413 0 1836 1430 4437 7616 4718 5220 5166 503 8037 2823 8689 7942 7717 5724 3214 8695 3799 2260 3955 52 5249 9125 6102 7009 4733 888 5070 5642 2409 8688 2966 8118 3957 2906 2723 9191 5186 4252 2695 4939 5848
1791 4653 7618 1970 7036 5849 860 8658 3307 3363 8942 6488 5357 3604 5528 4085 7762 8890 5081 3613 3214 6713 7909 2403 5079 7443 1488 6114 3482 6313 6450 6062 3170 1836 0 6150 7303 9721 2470 4362 4272 5247 6540 5708 5008 6879 1798 9003 1668 7344 5946 8662 5296 2128 9924 6632 5691 7384 3490 3421 8931 2630 3978 4141 4251 1600 3899 1169 8833 7031 8485 2752 7487 4868 4455
4378 3307 3387 6531 7156 5835 5503 4898 3738 3969 5295 4007 1776 3760 2981 7149 1415 5118 3381 3804 4979 5676 2220 7352 2907 1247 4665 4241 3171 6186 4186 5852 1902 1430 6150 0 3612 4777 1175 2953 5839 6546 4398 2473 3552 7724 5251 2198 6247 6058 3520 8758 3631 4548 3399 2389 4314 5486 5334 4703 2761 7233 3790 1206 2514 5451 2520 6027 5075 4194 5606 5915 7295 4738 525
887 3505 4745 3069 4934 4047 6777 4758 5871 4182 5979 2696 5472 4710 2567 7223 6907 7974 4606 5795 2375 2857 5143 7560 8983 4674 7836 3295 5147 6064 7891 8106 5076 4437 7303 3612 0 1505 5745 6068 6613 3991 2318 7478 4079 2085 3480 8716 2776 4329 5086 3961 4403 7625 4428 4450 1524 9067 4328 2301 1488 5571 1801 7387 5102 7064 4596 6394 869 7847 6419 8951 4144 5063 3254
3530 4444 7265 8115 7866 7667 6920 3220 3913 4235 9094 6593 4608 1311 6828 8252 5709 8417 4653 5550 7409 7346 6798 8691 7469 7459 4471 4922 5685 7396 5466 2031 7337 7616 9721 4777 1505 0 8178 7931 6136 3946 5401 3053 9111 3161 4252 6569 5183 1086 6810 3901 5521 2053 3784 4600 5050 4860 7068 515 8875 4424 5596 2388 2518 3282 7332 6645 4793 5157 6915 4188 5975 4849 3512
4145 6845 1007 6332 4836 6477 5930 8413 5961 5201 6352 4671 4379 1062 3711 6806 4875 918 6887 2568 4391 5178 5869 8388 7962 2176 5098 6864 5983 1450 5781 4558 1551 4718 2470 1175 5745 8178 0 5646 5122 5565 6002 535 9084 2091 2672 4281 7400 7447 8657 7703 5056 5251 2696 4117 4433 4534 2738 6776 7151 5454 4809 7570 2008 5737 3239 1958 3808 2728 5627 1309 5135 7582 8014
7061 5050 5363 4211 3380 2767 8076 5749 7496 3400 8853 8562 5901 7485 5752 2887 5176 6746 7273 7774 1922 3215 2128 7976 3438 8137 7380 2662 6349 5431 5333 9201 5137 5220 4362 2953 6068 7931 5646 0 7078 6274 4579 5298 6524 5240 9007 4562 6909 9604 1812 9105 5092 6306 4976 6697 6662 5149 3353 5022 4540 4814 5529 2457 5077 1133 3768 7928 6892 8976 4956 4517 8393 3578 3317
3106 4222 6594 7330 6814 421 3697 4831 2583 4621 5344 6335 4701 8795 7913 775 4665 1643 2834 5550 3531 6131 3512 6643 3989 2254 5317 8998 6659 6444 3145 4705 5426 5166 4272 5839 6613 6136 5122 7078 0 3605 3592 6331 4472 2709 7756 1517 4773 8955 7686 8411 7181 1847 3278 471 3275 5328 5790 3022 6487 6366 4039 4674 5226 4085 4560 3964 7565 4035 2340 6887 5220 1623 2676
4715 3595 5730 2606 6196 2522 3781 1328 4302 2311 5814 4022 1322 2832 4929 5625 4162 5123 3966 4239 6269 3477 4642 8420 3583 2815 6825 4733 3892 7624 5464 5596 1686 503 5247 6546 3991 3946 5565 6274 3605 0 3096 5292 6671 1814 8343 6198 5424 6712 263 9736 5647 5239 1237 8726 5564 2431 6670 3300 5140 6042 5866 3806 3494 5206 8993 8824 6401 3319 4428 5658 5260 6448 3251
243 2773 1846 4197 5321 4925 4745 4419 3473 3020 6577 3296 1848 9354 3618 5773 5488 3144 3014 7032 4411 5287 4800 8391 1421 5645 8549 3249 2900 1909 7377 6146 5716 8037 6540 4398 2318 5401 6002 4579 3592 3096 0 6568 6548 6272 4929 5629 4687 4706 3852 6744 4760 6189 6210 7491 6462 7237 3770 5767 9633 4504 4561 3507 3986 4456 6548 8450 4711 7901 2852 7652 4102 7660 3966
2989 6994 4420 6467 7420 6662 3843 2727 2590 3764 5482 7906 4559 4078 3755 8855 2702 5897 3947 479 5617 7033 5779 8294 3195 5012 1869 4755 6477 2624 3678 5217 3554 2823 5708 2473 7478 3053 535 5298 6331 5292 6568 0 5283 4795 3421 2469 1254 1837 3048 3899 4761 2149 2224 3232 6412 3219 2153 2657 3703 6711 9475 2969 4406 269 3402 5986 4620 3616 4701 5486 5953 5676 8097
1987 1895 4789 4410 4926 4737 6761 6614 5272 2421 9585 7268 7563 5724 1171 8109 6437 6488 3216 8733 1080 7694 7959 4398 4746 2872 3010 6437 7295 3149 5816 4456 3498 8689 5008 3552 4079 9111 9084 6524 4472 6671 6548 5283 0 6761 5142 3357 4128 5134 1783 4733 8386 1435 2071 1811 6676 741 5112 3676 5174 6324 4580 6315 5615 6744 4529 1299 4319 9062 8763 2534 1404 1430 6106
6383 5441 8218 4816 3184 1876 9145 3716 5267 7564 1293 8589 6973 797 5899 1991 3483 5968 6016 4614 4156 3202 8215 1431 3532 1813 4364 3162 4930 2804 3886 6528 6280 7942 6879 7724 2085 3161 2091 5240 2709 1814 6272 4795 6761 0 3444 5108 9313 3614 6346 6512 2258 3950 4845 6767 6278 7214 3515 4849 771 5143 7346 4149 7309 4723 7394 4075 5416 6425 7865 4525 4506 5291 5843
2806 6501 4499 2493 1305 5732 8406 4399 6783 5780 8663 6609 1492 3644 8367 5842 1831 8096 5874 3751 6875 5131 5013 4052 6201 6659 1211 3046 5849 4701 3958 1402 2721 7717 1798 5251 3480 4252 2672 9007 7756 8343 4929 3421 5142 3444 0 3796 5284 5472 5384 2184 4828 6197 7255 4533 2514 8288 5930 4913 3385 1721 5795 6904 8016 7837 7535 1649 8055 4219 7983 2685 3650 3476 5350
7933 5175 7685 3523 3862 6896 5060 7082 2440 5612 5560 7677 1802 3444 7010 6492 4959 8616 7304 4593 3818 3930 3212 8095 7111 5927 4203 1978 703 6495 3858 4048 4482 5724 9003 2198 8716 6569 4281 4562 1517 6198 5629 2469 3357 5108 3796 0 1800 5884 2984 1691 1254 5784 5152 4728 6381 1196 6618 2986 5608 5181 7823 1569 4407 7989 3238 322 6666 7657 3867 6217 4044 7938 6726
5255 1305 4091 6883 1753 2032 7277 3611 5693 5001 9582 2742 6068 2986 5079 5877 3700 378 6719 8596 2601 4191 4231 3898 6255 7411 5765 1646 5122 5121 5112 4539 5360 3214 1668 6247 2776 5183 7400 6909 4773 5424 4687 1254 4128 9313 5284 1800 0 4748 3607 3605 7212 2367 5543 4616 5267 5440 1697 7186 3271 4849 7142 2638 4434 2044 3523 6408 2570 4586 2528 1674 6347 3272 2481
4085 9384 5981 4659 4436 8890 8738 5423 7684 6953 2457 3544 3760 8485 6958 7667 7859 6064 3037 4705 3862 5848 8988 8539 1506 9381 4075 6601 5169 4748 5544 5611 5181 8695 7344 6058 4329 1086 7447 9604 8955 6712 4706 1837 5134 3614 5472 5884 4748 0 3126 4483 4454 9045 5395 5097 2440 2396 5720 9186 5817 5056 7907 4535 4419 4773 945 4179 4015 2064 4928 4679 6681 3023 4284
5789 1817 1319 5298 2161 978 1908 8796 3895 5131 5385 1928 3834 8421 9090 2803 8243 7082 6558 2863 615 6938 4136 6934 4812 6585 6362 6902 9022 6806 1165 3186 3407 3799 5946 3520 5086 6810 8657 1812 7686 263 3852 3048 1783 6346 5384 2984 3607 3126 0 6103 7331 3010 5407 2211 4467 4813 3975 6842 2089 5179 1078 6539 4604 7656 5239 8056 2788 7452 5308 1289 3848 6405 3008
6129 6806 4618 4024 6229 5105 2064 7059 2728 9242 4585 6214 4419 2001 7198 5168 928 2291 9140 4226 2516 818 2324 7117 3938 8549 1513 3493 3697 5832 2173 6919 7592 2260 8662 8758 3961 3901 7703 9105 8411 9736 6744 3899 4733 6512 2184 1691 3605 4483 6103 0 6003 6256 1462 7573 5503 2700 2060 4225 5128 6752 4287 4411 6316 1568 3712 3158 2006 2948 6433 8356 6412 1781 5145
4600 4040 5982 8110 2664 4157 4705 5992 5820 4142 4420 2923 4216 4357 2976 4042 4051 3282 1992 1700 6999 3243 2836 5137 4144 3333 6786 5288 6645 4213 9579 7652 5453 3955 5296 3631 4403 5521 5056 5092 7181 5647 4760 4761 8386 2258 4828 1254 7212 4454 7331 6003 0 5309 4559 4674 4759 3212 4907 1656 3472 4148 2656 3228 4196 5879 5957 4566 3550 7814 4823 4475 6086 5570 3869
7576 5451 1771 8119 7085 1362 6392 6552 1147 5359 8601 4199 5225 3066 3715 5172 3614 6513 4918 3931 5861 6401 3737 5545 5628 2215 9024 3885 4018 6335 5123 1845 3588 52 2128 4548 7625 2053 5251 6306 1847 5239 6189 2149 1435 3950 6197 5784 2367 9045 3010 6256 5309 0 4070 9371 4529 8089 6903 5852 8488 4528 5172 3885 7661 8513 2682 7680 9250 6466 1223 5007 8407 6244 1956
4139 5220 6615 5419 7093 4224 5567 1693 9184 4103 6626 6041 4498 1478 3551 2103 4639 2051 9332 8147 6217 3983 5913 5580 9664 3288 4254 3856 5316 2545 8237 5669 5137 5249 9924 3399 4428 3784 2696 4976 3278 1237 6210 2224 2071 4845 7255 5152 5543 5395 5407 1462 4559 4070 0 6020 7761 4755 5689 4474 5157 4268 4829 1673 4678 7088 3425 5764 5478 3397 5523 2527 1412 2754 6973
5716 6434 6799 766 7077 3567 9944 4239 4188 6002 3650 8272 2988 3041 3625 4203 5515 6805 6077 7315 1874 9271 8282 4741 8561 1644 4393 5402 1814 4753 4448 4197 5106 9125 6632 2389 4450 4600 4117 6697 471 8726 7491 3232 1811 6767 4533 4728 4616 5097 2211 7573 4674 9371 6020 0 4303 5994 5492 2709 1245 7540 4611 5665 3677 2936 5401 5457 5516 4118 3935 1545 4874 2414 2207
6090 3516 3439 4659 5273 6310 5571 2629 3851 116 1318 5889 4215 6915 6245 6827 5380 2980 5316 4910 4712 5929 7106 4794 4717 7839 3198 3787 4774 808 3134 5010 6639 6102 5691 4314 1524 5050 4433 6662 3275 5564 6462 6412 6676 6278 2514 6381 5267 2440 4467 5503 4759 4529 7761 4303 0 4525 3161 3631 3972 1959 7151 5623 6642 2937 3444 898 5439 5001 1969 2967 6045 7503 5683
5599 8713 7622 4196 8147 5465 8853 9520 4602 1353 2227 1958 5030 8297 5726 8169 4691 6399 2173 5099 5445 8231 4363 7270 2197 6494 5481 2600 1560 2527 2381 7166 3632 7009 7384 5486 9067 4860 4534 5149 5328 2431 7237 3219 741 7214 8288 1196 5440 2396 4813 2700 3212 8089 4755 5994 4525 0 3689 6460 3869 1938 6830 4919 6482 3387 5778 7254 3764 457 1957 6550 2466 3470 5661
4935 5513 4949 7699 8896 6281 1306 3250 7388 7570 5264 1203 5763 7079 2404 4637 5762 6151 3469 3668 2810 6707 2601 4299 4432 4128 7338 1806 9024 3048 3066 5654 4594 4733 3490 5334 4328 7068 2738 3353 5790 6670 3770 2153 5112 3515 5930 6618 1697 5720 3975 2060 4907 6903 5689 5492 3161 3689 0 4842 2076 5033 5502 5428 6043 7194 1303 1721 1183 7853 5439 6757 5982 5671 3718
6245 4283 2152 515 8714 1196 6363 6470 5013 5087 2963 4306 2343 1561 3702 7822 6545 3491 3550 4615 2910 2570 8087 3538 7104 2873 4596 4799 4706 7956 4570 6642 4102 888 3421 4703 2301 515 6776 5022 3022 3300 5767 2657 3676 4849 4913 2986 7186 9186 6842 4225 1656 5852 4474 2709 3631 6460 4842 0 4472 3993 5097 2798 1666 4709 5729 6405 4507 1703 5990 4807 6609 3533 8379
7884 5319 6937 4491 3505 5579 1939 3384 3885 2749 7019 9469 6089 4577 6207 8726 4003 3247 4209 4189 7067 9270 4902 5283 4355 5229 9558 4270 5264 4325 337 3772 4244 5070 8931 2761 1488 8875 7151 4540 6487 5140 9633 3703 5174 771 3385 5608 3271 5817 2089 5128 3472 8488 5157 1245 3972 3869 2076 4472 0 6151 3942 7706 1668 5028 6731 5166 1496 3028 2487 3386 6700 3952 5277
6609 3428 6295 9121 6343 4775 6865 2828 8157 4936 8001 721 3253 6898 6241 2603 2582 5328 3462 5477 4066 1506 2352 5842 3190 7530 7814 3048 7075 7421 761 4780 2904 5642 2630 7233 5571 4424 5454 4814 6366 6042 4504 6711 6324 5143 1721 5181 4849 5056 5179 6752 4148 4528 4268 7540 1959 1938 5033 3993 6151 0 4206 5728 3177 5828 2683 6946 5201 5093 3583 6940 3107 4278 3174
3905 5537 7214 1728 5717 8901 1816 6380 4539 7771 9175 4010 7424 4672 1770 2626 6353 6305 7576 1764 5901 6583 1726 4082 4921 4986 8177 2068 1472 4613 5575 5478 1842 2409 3978 3790 1801 5596 4809 5529 4039 5866 4561 9475 4580 7346 5795 7823 7142 7907 1078 4287 2656 5172 4829 4611 7151 6830 5502 5097 3942 4206 0 8996 6570 3894 1777 2705 566 4480 5712 4704 7344 5721 3494
6308 6422 5592 7995 1329 4797 6560 7091 5604 6573 1778 6349 4699 7787 8849 3030 6096 8171 8546 2690 1515 2634 5268 5623 4427 6546 5863 5097 5406 3110 4033 4403 4799 8688 4141 1206 7387 2388 7570 2457 4674 3806 3507 2969 6315 4149 6904 1569 2638 4535 6539 4411 3228 3885 1673 5665 5623 4919 5428 2798 7706 5728 8996 0 6973 7700 1503 4353 5470 5628 4837 3349 4608 8712 4632
6956 2527 3970 2759 6601 6888 5483 6741 5559 1745 4398 7391 4963 3533 1672 7330 3960 4685 3972 992 6742 4824 4607 2810 6228 4930 5755 5664 1677 5900 7305 7670 4347 2966 4251 2514 5102 2518 2008 5077 5226 3494 3986 4406 5615 7309 8016 4407 4434 4419 4604 6316 4196 7661 4678 3677 6642 6482 6043 1666 1668 3177 6570 6973 0 4306 6038 6970 5891 4968 6699 1955 3749 7989 5755
4816 4845 6087 3281 3009 6218 1852 3973 3461 5163 8417 5142 6031 4842 4039 6936 4269 3890 2228 7428 8020 2684 6253 1294 6766 4871 4844 6028 6118 6849 4384 3912 3533 8118 1600 5451 7064 3282 5737 1133 4085 5206 4456 269 6744 4723 7837 7989 2044 4773 7656 1568 5879 8513 7088 2936 2937 3387 7194 4709 5028 5828 3894 7700 4306 0 8731 7978 1823 5409 6074 7301 3945 2297 9055
5173 4714 7719 7873 3904 6401 8496 4607 5586 5494 4940 8083 7562 2186 5639 2848 7955 5999 7992 5666 4841 4092 5785 8883 9353 7677 2987 6043 5217 6878 1792 2695 4573 3957 3899 2520 4596 7332 3239 3768 4560 8993 6548 3402 4529 7394 7535 3238 3523 945 5239 3712 5957 2682 3425 5401 3444 5778 1303 5729 6731 2683 1777 1503 6038 8731 0 703 7500 1603 5971 1722 4613 1862 332
7360 4325 3528 9642 7303 3802 7351 9337 444 2774 2102 8625 6420 3804 6043 4435 4444 4246 7693 5908 5832 608 7777 4779 4252 8487 2926 4883 4631 5502 3288 5085 5488 2906 1169 6027 6394 6645 1958 7928 3964 8824 8450 5986 1299 4075 1649 322 6408 4179 8056 3158 4566 7680 5764 5457 898 7254 1721 6405 5166 6946 2705 4353 6970 7978 703 0 6504 6173 4986 3758 8395 6668 4035
4574 6450 6227 1602 3810 2069 5433 5414 6785 4139 8761 6479 5754 3621 3504 5850 4732 4632 3585 7198 3041 5486 4268 2859 7824 2117 3268 8034 6447 4625 6361 4924 2016 2723 8833 5075 869 4793 3808 6892 7565 6401 4711 4620 4319 5416 8055 6666 2570 4015 2788 2006 3550 9250 5478 5516 5439 3764 1183 4507 1496 5201 566 5470 5891 1823 7500 6504 0 3445 931 3674 8690 6092 5519
5033 6032 6402 6228 6998 4375 5900 2737 989 5048 4625 5376 3293 3790 5345 4036 5555 6908 3407 5454 3387 2298 5822 5779 7433 5647 5023 5969 5894 6631 450 5907 7059 9191 7031 4194 7847 5157 2728 8976 4035 3319 7901 3616 9062 6425 4219 7657 4586 2064 7452 2948 7814 6466 3397 4118 5001 457 7853 1703 3028 5093 4480 5628 4968 5409 1603 6173 3445 0 4972 4295 4834 6222 6325
4196 4527 1086 7674 4699 1265 5159 7933 3427 1821 5220 6359 6437 4774 4724 2282 3227 9375 7361 3064 6328 5827 5729 6701 5020 4552 4605 5918 3587 6345 4823 5881 6106 5186 8485 5606 6419 6915 5627 4956 2340 4428 2852 4701 8763 7865 7983 3867 2528 4928 5308 6433 4823 1223 5523 3935 1969 1957 5439 5990 2487 3583 5712 4837 6699 6074 5971 4986 931 4972 0 4652 6402 7270 5176
1904 4534 5991 6063 3505 734 8206 5834 6801 5157 7946 6399 4869 5510 6226 5447 7763 4725 4886 5334 5237 3229 1635 3194 3971 4931 2940 8463 4724 1175 5176 8619 6325 4252 2752 5915 8951 4188 1309 4517 6887 5658 7652 5486 2534 4525 2685 6217 1674 4679 1289 8356 4475 5007 2527 1545 2967 6550 6757 4807 3386 6940 4704 3349 1955 7301 1722 3758 3674 4295 4652 0 2476 4219 6566
3191 5109 4492 2418 7939 1626 6714 5623 3640 6378 7145 2812 5172 213 4242 8876 3065 1578 4618 6742 3865 4601 5365 3627 4756 7229 6084 1741 4979 6832 4713 5026 6767 2695 7487 7295 4144 5975 5135 8393 5220 5260 4102 5953 1404 4506 3650 4044 6347 6681 3848 6412 6086 8407 1412 4874 6045 2466 5982 6609 6700 3107 7344 4608 3749 3945 4613 8395 8690 4834 6402 2476 0 3714 306
6554 3861 362 8231 4646 4430 5131 1785 6278 6311 7945 5275 4698 3127 8011 4901 3475 5136 3015 4297 7873 7354 5281 8111 3512 1841 3291 5269 3111 6327 6649 8086 6609 4939 4868 4738 5063 4849 7582 3578 1623 6448 7660 5676 1430 5291 3476 7938 3272 3023 6405 1781 5570 6244 2754 2414 7503 3470 5671 3533 3952 4278 5721 8712 7989 2297 1862 6668 6092 6222 7270 4219 3714 0 8296
5441 6464 5983 8542 9347 4654 4279 4211 1768 4576 4547 2426 4491 3510 3876 2273 8230 1736 5529 4946 4277 5017 8807 6783 1726 6316 2629 5561 5830 6776 3878 4765 5009 5848 4455 525 3254 3512 8014 3317 2676 3251 3966 8097 6106 5843 5350 6726 2481 4284 3008 5145 3869 1956 6973 2207 5683 5661 3718 8379 5277 3174 3494 4632 5755 9055 332 4035 5519 6325 5176 6566 306 8296 0
EOF
