NAME: family_B_clustered_n50_s0
TYPE: TSP
COMMENT: family_B_clustered generated explicit tsp
DIMENSION: 50
EDGE_WEIGHT_TYPE: EXPLICIT
EDGE_WEIGHT_FORMAT: FULL_MATRIX
EDGE_WEIGHT_SECTION
0 85 64 51 27 31 5 8 2 18 81 65 91 2759 3016 3926 3323 3080 2859 2899 3837 2193 3539 3177 1506 2485 3643 2885 1583 3412 3324 3616 1939 1723 3657 1555 2853 1700 2249 2702 2556 2508 1570 1513 1810 1520 3176 2814 3117 2143
85 0 61 76 38 46 99 80 98 38 68 95 65 3600 3221 3260 2472 3687 1837 2947 3303 3613 2813 2438 2275 2557 2714 3297 3723 1682 3835 2828 2394 3181 2928 2136 2304 3298 2985 2761 2344 3401 2479 2320 3725 2159 2067 3285 3057 1621
64 61 0 9 38 83 40 78 32 24 79 87 8 1646 3178 2340 2934 1875 3650 2625 3737 3490 3263 2076 3417 1630 2925 2511 3991 1996 3866 1726 3057 2950 3747 2246 3755 3179 3725 1998 3395 3855 1621 2412 3091 1763 2775 3072 3409 3817
51 76 9 0 41 44 47 95 20 50 5 43 94 3050 2374 3987 3009 3872 1540 2650 3587 3394 2518 2743 2550 2823 2075 3464 1694 2536 2204 3336 3373 3277 3811 3830 1961 1787 1830 3322 3925 3818 3170 3919 3678 1536 1798 3659 1705 3952
27 38 38 41 0 82 95 36 15 52 97 37 89 2459 3555 2073 2699 2317 2080 3731 3504 1849 3808 3927 2165 2566 2847 3142 2606 1871 3827 3230 1601 3535 3330 1958 3035 2754 1570 3818 3298 2275 1539 1728 3394 1873 2781 3746 3822 2169
31 46 83 44 82 0 7 49 84 62 7 65 35 2065 2575 3683 3915 1852 2905 3403 2147 2181 2104 2024 3720 2046 2064 1813 1811 3446 2220 3504 2965 3646 2885 3410 3524 1652 2901 2636 2221 2631 2532 2729 3545 3563 3066 3275 3897 3092
5 99 40 47 95 7 0 37 9 55 23 59 3 3620 3861 1863 3547 2516 1604 3774 3852 1607 2983 3556 3474 2538 3649 3574 1783 1524 1755 2412 1774 1696 2146 3131 2810 2184 3876 3256 3086 3859 3463 1817 1592 3661 2519 1648 2691 2451
8 80 78 95 36 49 37 0 43 43 32 49 49 3941 3231 3439 1520 2272 3959 2174 2774 3657 3096 3703 1910 2776 3089 2360 2935 3987 3341 2289 1659 1956 2180 3700 2177 3530 2184 3169 2817 3896 2915 3814 3904 3370 3070 3651 3991 2117
2 98 32 20 15 84 9 43 0 56 14 11 67 1618 3286 3552 1917 3200 2488 3733 3775 2943 2903 3276 2945 3364 1985 3455 2815 3379 2808 2266 1722 2813 3954 1589 2928 2617 1516 2858 3431 3353 3945 2822 2974 3914 2299 3496 1968 2404
18 38 24 50 52 62 55 43 56 0 67 58 20 3148 2944 3801 3005 3710 3906 1718 1680 2756 2749 2887 3360 2288 1943 3200 2470 3824 1657 3272 3314 2177 1719 2295 2487 3948 3683 2077 2680 2999 3781 1837 3414 3813 3788 2192 1818 2984
81 68 79 5 97 7 23 32 14 67 0 8 13 1675 2027 3672 3181 3085 3963 2741 1599 1908 2150 3184 2392 2295 1780 3277 1561 2650 3361 2768 3217 3474 2062 1731 1640 2946 2160 1993 3337 3520 3886 2722 2806 3971 2759 1957 2139 3907
65 95 87 43 37 65 59 49 11 58 8 0 5 3502 3118 2703 3583 3533 2599 3007 3409 3137 2713 3784 3706 1663 2867 3587 1711 2454 2771 2313 3238 3985 2409 3452 1792 2713 1513 2556 1535 3693 3923 1717 3545 3271 2251 3472 3905 3497
91 65 8 94 89 35 3 49 67 20 13 5 0 3231 2305 3016 3491 3286 2063 2530 2405 3236 2543 2548 2853 2948 1781 3812 2517 1938 1500 2587 3360 2240 3629 1999 1847 2477 3259 2248 3552 1552 3954 1617 3609 1508 2560 2273 3949 3137
2759 3600 1646 3050 2459 2065 3620 3941 1618 3148 1675 3502 3231 0 97 42 50 50 75 51 91 20 48 25 86 14 3253 3779 2234 2197 3419 2978 2926 3710 1734 2182 2478 3793 1684 2631 2690 1536 2571 3121 2559 2264 2965 3952 1806 2215
3016 3221 3178 2374 3555 2575 3861 3231 3286 2944 2027 3118 2305 97 0 93 30 68 35 82 58 89 64 58 49 4 1801 3278 3098 2922 1792 3564 3490 2830 2135 3533 2804 3992 2201 2376 3509 1927 2304 2479 3315 3382 3471 2598 3038 2970
3926 3260 2340 3987 2073 3683 1863 3439 3552 3801 3672 2703 3016 42 93 0 77 13 32 72 20 28 97 19 99 86 1890 2911 2309 2711 3024 3747 3828 1715 1947 3240 2015 2319 2963 1938 3986 3186 2068 2407 3120 2324 3054 3859 2413 1998
3323 2472 2934 3009 2699 3915 3547 1520 1917 3005 3181 3583 3491 50 30 77 0 29 51 56 3 64 17 63 88 20 3473 1585 2892 3167 2056 3453 2894 2544 1530 1836 3282 2517 3291 3902 3115 3354 3028 2250 1684 3032 2116 1802 2935 3025
3080 3687 1875 3872 2317 1852 2516 2272 3200 3710 3085 3533 3286 50 68 13 29 0 40 63 99 76 92 7 16 36 2974 3238 3240 3766 1841 1928 2281 1919 3289 2529 3752 2209 2354 2247 2097 3601 3554 2239 2962 3696 2691 3756 2140 2064
2859 1837 3650 1540 2080 2905 1604 3959 2488 3906 3963 2599 2063 75 35 32 51 40 0 8 63 2 18 58 44 19 2781 3938 3958 1768 3382 2630 2664 2486 3592 2080 2961 3371 2535 3109 1796 3314 2259 1707 2238 2381 3111 2799 3582 2566
2899 2947 2625 2650 3731 3403 3774 2174 3733 1718 2741 3007 2530 51 82 72 56 63 8 0 88 5 33 20 38 94 1838 1906 2520 3630 1520 3555 3448 2478 1607 2666 3253 3560 1896 3201 2887 3592 3275 3393 3637 3228 2485 3782 2891 3557
3837 3303 3737 3587 3504 2147 3852 2774 3775 1680 1599 3409 2405 91 58 20 3 99 63 88 0 11 18 55 75 95 1716 3650 2564 3875 2491 3798 2005 2357 3844 3961 1736 1863 1512 3837 2307 2826 3976 3597 2161 2433 3576 2736 1932 3853
2193 3613 3490 3394 1849 2181 1607 3657 2943 2756 1908 3137 3236 20 89 28 64 76 2 5 11 0 59 77 95 61 3291 3646 3951 2841 2936 3171 3958 2628 3592 2194 3445 1779 3721 2350 3078 1853 2390 1739 2820 3967 2066 2172 3443 1971
3539 2813 3263 2518 3808 2104 2983 3096 2903 2749 2150 2713 2543 48 64 97 17 92 18 33 18 59 0 17 22 58 2759 2839 1568 3179 2283 3401 3583 1774 2236 3062 1937 2534 2375 3035 3359 3234 2293 2963 3504 3332 3469 2800 2953 2657
3177 2438 2076 2743 3927 2024 3556 3703 3276 2887 3184 3784 2548 25 58 19 63 7 58 20 55 77 17 0 61 29 2649 2072 2760 3238 3463 3239 1935 1988 2434 3929 1569 3177 2235 2828 1717 3602 3681 2716 3449 2689 3317 2145 2295 1890
1506 2275 3417 2550 2165 3720 3474 1910 2945 3360 2392 3706 2853 86 49 99 88 16 44 38 75 95 22 61 0 45 3279 3453 3610 1977 3194 2175 2422 2426 2939 2970 2908 1662 3841 3630 2469 2929 1911 3086 3692 3820 3736 1637 1620 3342
2485 2557 1630 2823 2566 2046 2538 2776 3364 2288 2295 1663 2948 14 4 86 20 36 19 94 95 61 58 29 45 0 1995 1972 3090 1649 3472 1947 3016 3076 1978 2502 1794 3952 2764 1870 3538 3349 2042 2347 1687 2891 2877 1632 1979 2636
3643 2714 2925 2075 2847 2064 3649 3089 1985 1943 1780 2867 1781 3253 1801 1890 3473 2974 2781 1838 1716 3291 2759 2649 3279 1995 0 7 74 77 71 82 80 40 45 30 17 28 3308 2402 3991 2942 3163 2819 3492 2388 3030 3093 3664 3189
2885 3297 2511 3464 3142 1813 3574 2360 3455 3200 3277 3587 3812 3779 3278 2911 1585 3238 3938 1906 3650 3646 2839 2072 3453 1972 7 0 60 56 6 39 31 62 32 59 50 34 2767 2258 2041 2864 3971 3030 3042 3026 3705 2457 2559 2914
1583 3723 3991 1694 2606 1811 1783 2935 2815 2470 1561 1711 2517 2234 3098 2309 2892 3240 3958 2520 2564 3951 1568 2760 3610 3090 74 60 0 56 98 18 43 21 84 55 9 19 3688 2606 3854 1729 2154 2868 1530 2477 2707 2094 1956 3816
3412 1682 1996 2536 1871 3446 1524 3987 3379 3824 2650 2454 1938 2197 2922 2711 3167 3766 1768 3630 3875 2841 3179 3238 1977 1649 77 56 56 0 97 50 89 49 96 5 60 5 2787 3708 3581 2034 3130 1917 2121 2567 3835 3177 2599 2013
3324 3835 3866 2204 3827 2220 1755 3341 2808 1657 3361 2771 1500 3419 1792 3024 2056 1841 3382 1520 2491 2936 2283 3463 3194 3472 71 6 98 97 0 77 59 50 65 19 91 30 2695 2936 1937 1857 2687 1534 3010 2584 2097 3405 2315 3035
3616 2828 1726 3336 3230 3504 2412 2289 2266 3272 2768 2313 2587 2978 3564 3747 3453 1928 2630 3555 3798 3171 3401 3239 2175 1947 82 39 18 50 77 0 21 33 63 72 64 48 2129 3998 3777 3440 2228 3576 2946 2148 3452 1880 2948 1998
1939 2394 3057 3373 1601 2965 1774 1659 1722 3314 3217 3238 3360 2926 3490 3828 2894 2281 2664 3448 2005 3958 3583 1935 2422 3016 80 31 43 89 59 21 0 8 43 45 51 1 1986 1705 3449 1623 3671 2032 2290 2341 2770 2413 2985 2445
1723 3181 2950 3277 3535 3646 1696 1956 2813 2177 3474 3985 2240 3710 2830 1715 2544 1919 2486 2478 2357 2628 1774 1988 2426 3076 40 62 21 49 50 33 8 0 72 98 15 12 2202 2007 3326 3313 2920 3982 3749 3954 2619 2884 2516 2205
3657 2928 3747 3811 3330 2885 2146 2180 3954 1719 2062 2409 3629 1734 2135 1947 1530 3289 3592 1607 3844 3592 2236 2434 2939 1978 45 32 84 96 65 63 43 72 0 31 74 23 1866 3126 2843 2161 2258 3655 1601 2176 2896 3183 2934 2920
1555 2136 2246 3830 1958 3410 3131 3700 1589 2295 1731 3452 1999 2182 3533 3240 1836 2529 2080 2666 3961 2194 3062 3929 2970 2502 30 59 55 5 19 72 45 98 31 0 77 63 3071 3738 3397 1924 3918 1874 3862 1804 3955 1691 3716 2835
2853 2304 3755 1961 3035 3524 2810 2177 2928 2487 1640 1792 1847 2478 2804 2015 3282 3752 2961 3253 1736 3445 1937 1569 2908 1794 17 50 9 60 91 64 51 15 74 77 0 56 1914 1828 3517 2110 1556 2637 2436 2628 2683 1663 2041 2174
1700 3298 3179 1787 2754 1652 2184 3530 2617 3948 2946 2713 2477 3793 3992 2319 2517 2209 3371 3560 1863 1779 2534 3177 1662 3952 28 34 19 5 30 48 1 12 23 63 56 0 2389 2558 2056 3503 2204 2595 3817 3993 2542 2469 2464 2388
2249 2985 3725 1830 1570 2901 3876 2184 1516 3683 2160 1513 3259 1684 2201 2963 3291 2354 2535 1896 1512 3721 2375 2235 3841 2764 3308 2767 3688 2787 2695 2129 1986 2202 1866 3071 1914 2389 0 61 64 66 78 66 27 9 41 58 91 73
2702 2761 1998 3322 3818 2636 3256 3169 2858 2077 1993 2556 2248 2631 2376 1938 3902 2247 3109 3201 3837 2350 3035 2828 3630 1870 2402 2258 2606 3708 2936 3998 1705 2007 3126 3738 1828 2558 61 0 32 79 65 59 85 13 49 9 74 32
2556 2344 3395 3925 3298 2221 3086 2817 3431 2680 3337 1535 3552 2690 3509 3986 3115 2097 1796 2887 2307 3078 3359 1717 2469 3538 3991 2041 3854 3581 1937 3777 3449 3326 2843 3397 3517 2056 64 32 0 77 92 85 47 62 89 12 46 30
2508 3401 3855 3818 2275 2631 3859 3896 3353 2999 3520 3693 1552 1536 1927 3186 3354 3601 3314 3592 2826 1853 3234 3602 2929 3349 2942 2864 1729 2034 1857 3440 1623 3313 2161 1924 2110 3503 66 79 77 0 75 98 49 45 71 26 32 17
1570 2479 1621 3170 1539 2532 3463 2915 3945 3781 3886 3923 3954 2571 2304 2068 3028 3554 2259 3275 3976 2390 2293 3681 1911 2042 3163 3971 2154 3130 2687 2228 3671 2920 2258 3918 1556 2204 78 65 92 75 0 89 51 27 62 1 37 72
1513 2320 2412 3919 1728 2729 1817 3814 2822 1837 2722 1717 1617 3121 2479 2407 2250 2239 1707 3393 3597 1739 2963 2716 3086 2347 2819 3030 2868 1917 1534 3576 2032 3982 3655 1874 2637 2595 66 59 85 98 89 0 96 67 13 66 71 69
1810 3725 3091 3678 3394 3545 1592 3904 2974 3414 2806 3545 3609 2559 3315 3120 1684 2962 2238 3637 2161 2820 3504 3449 3692 1687 3492 3042 1530 2121 3010 2946 2290 3749 1601 3862 2436 3817 27 85 47 49 51 96 0 14 59 39 12 98
1520 2159 1763 1536 1873 3563 3661 3370 3914 3813 3971 3271 1508 2264 3382 2324 3032 3696 2381 3228 2433 3967 3332 2689 3820 2891 2388 3026 2477 2567 2584 2148 2341 3954 2176 1804 2628 3993 9 13 62 45 27 67 14 0 67 84 1 42
3176 2067 2775 1798 2781 3066 2519 3070 2299 3788 2759 2251 2560 2965 3471 3054 2116 2691 3111 2485 3576 2066 3469 3317 3736 2877 3030 3705 2707 3835 2097 3452 2770 2619 2896 3955 2683 2542 41 49 89 71 62 13 59 67 0 19 90 42
2814 3285 3072 3659 3746 3275 1648 3651 3496 2192 1957 3472 2273 3952 2598 3859 1802 3756 2799 3782 2736 2172 2800 2145 1637 1632 3093 2457 2094 3177 3405 1880 2413 2884 3183 1691 1663 2469 58 9 12 26 1 66 39 84 19 0 66 38
3117 3057 3409 1705 3822 3897 2691 3991 1968 1818 2139 3905 3949 1806 3038 2413 2935 2140 3582 2891 1932 3443 2953 2295 1620 1979 3664 2559 1956 2599 2315 2948 2985 2516 2934 3716 2041 2464 91 74 46 32 37 71 12 1 90 66 0 93
2143 1621 3817 3952 2169 3092 2451 2117 2404 2984 3907 3497 3137 2215 2970 1998 3025 2064 2566 3557 3853 1971 2657 1890 3342 2636 3189 2914 3816 2013 3035 1998 2445 2205 2920 2835 2174 2388 73 32 30 17 72 69 98 42 42 38 93 0
EOF
