NAME: family_A_random_n50_s0
TYPE: TSP
COMMENT: family_A_random generated explicit tsp
DIMENSION: 50
EDGE_WEIGHT_TYPE: EXPLICIT
EDGE_WEIGHT_FORMAT: FULL_MATRIX
EDGE_WEIGHT_SECTION
0 7004 4560 1598 2687 1568 943 1438 5705 7429 3669 4668 5444 4064 8644 4240 7758 5236 5070 8384 4154 5274 8263 4020 5078 9022 7634 2297 8181 7559 8071 1451 5378 6828 3107 2881 1566 5281 2526 6138 5727 2281 2607 5186 4082 5126 3761 6880 3641 5349
7004 0 6240 7112 6425 6112 1947 7489 6349 6422 6110 8351 8004 3584 8994 4304 3905 6287 7785 6493 2284 5362 4354 3838 3625 5267 2836 4809 6842 5599 4600 3893 5565 2671 3617 5028 7226 2900 7652 3669 1706 6413 3875 3731 4106 6545 2163 2035 3423 7638
4560 6240 0 5923 5593 5430 908 1662 7348 6607 5411 987 7487 5179 4814 5500 5241 1290 7743 3809 3776 3654 7752 3183 6562 1410 5963 4318 5125 4817 5763 8011 6997 3818 6507 8998 4365 5325 6737 1724 5131 7372 7340 6723 6088 7028 7026 5930 2215 7442
1598 7112 5923 0 2910 9415 4844 8084 1019 4783 5802 8007 4954 3364 2861 3061 5841 7288 4609 6179 5785 6743 5779 8189 8227 8106 3286 3904 735 7917 8714 7687 6445 5490 7685 4545 3349 8338 1029 8182 8275 5462 4287 4462 5418 8721 2369 9012 3789 6302
2687 6425 5593 2910 0 5102 1247 7252 6664 1531 5608 2712 5728 7186 2536 6132 8383 1770 5026 7665 3130 4120 3920 5129 9452 4868 5968 4299 4791 8782 2280 7195 5501 6941 2746 2128 4565 9135 7656 1577 7123 6232 2407 6681 8774 8955 5275 7318 4258 4295
1568 6112 5430 9415 5102 0 1021 5415 7254 2260 8979 5051 4493 6144 6770 5812 779 6605 5662 3433 6970 3685 3991 6176 7510 4911 7663 5896 6775 2511 4197 2833 2127 3597 3966 8540 9330 4928 7502 6708 2689 5116 5923 1556 3447 6106 6683 2844 7775 8322
943 1947 908 4844 1247 1021 0 6095 5519 2671 6571 5060 3775 5855 7405 3857 912 8490 3390 2545 2842 5036 5873 4088 2200 7004 5153 6922 8074 8037 5036 2175 8965 2091 6426 8720 5442 7721 1807 2978 4806 3315 6193 7782 8619 4287 2912 1803 4873 6330
1438 7489 1662 8084 7252 5415 6095 0 5785 7109 7048 9201 8539 3050 6293 3305 549 3899 2082 5043 5413 4421 4559 3907 7751 9126 3753 5689 5545 5475 7958 1530 7350 7175 5392 5285 3216 2383 4638 8333 2359 5468 6362 1110 3426 4458 5557 6192 4230 4568
5705 6349 7348 1019 6664 7254 5519 5785 0 4674 5188 6285 7619 8052 4970 4527 7186 3974 4628 4571 4314 4088 4133 3718 8226 4935 5241 7485 2435 4622 5621 3638 7387 6658 2574 3021 5477 6071 5487 6076 7447 4621 6310 4667 4691 4975 3362 610 4377 6623
7429 6422 6607 4783 1531 2260 2671 7109 4674 0 2988 8424 2967 3951 4405 4671 5049 7072 4003 1849 343 5316 4574 4042 7111 7798 9029 6420 5108 6918 3202 1721 5074 6832 4499 5892 7059 6477 6629 5904 5209 5857 5985 7517 6432 8657 7443 3558 5384 7291
3669 6110 5411 5802 5608 8979 6571 7048 5188 2988 0 4186 655 7496 5704 4868 6744 4416 4445 7561 6766 5254 6150 4809 3731 4224 8452 6106 2916 2144 6141 4325 2992 4878 6345 3885 7611 2926 915 2784 6936 3734 5321 5607 3848 3282 2089 8138 4528 7082
4668 8351 987 8007 2712 5051 5060 9201 6285 8424 4186 0 6641 8485 4109 4772 5913 4450 4051 6123 3102 8505 5882 4790 4327 5207 7401 4512 5415 4419 5103 3725 4964 4470 2264 5946 3891 3528 6602 6672 5778 5525 9131 3614 2650 6396 1565 7161 5013 6818
5444 8004 7487 4954 5728 4493 3775 8539 7619 2967 655 6641 0 4488 2110 5691 6802 6735 1727 6736 5207 5411 3126 5860 5577 6923 8743 4940 6641 3669 8277 4030 4134 6037 2357 6396 6817 2318 9809 5044 4430 3741 4633 3570 7531 7283 8838 1066 4239 4422
4064 3584 5179 3364 7186 6144 5855 3050 8052 3951 7496 8485 4488 0 5008 3531 4102 3191 7898 3701 4063 8297 5278 7247 747 7474 3713 2341 8555 5113 4439 121 2571 8041 5195 7130 7561 6760 5563 7194 2957 3434 4393 1970 911 6330 3875 2223 7076 5318
8644 8994 4814 2861 2536 6770 7405 6293 4970 4405 5704 4109 2110 5008 0 6417 3285 5427 5755 4521 8836 5567 1682 4274 9311 3670 6614 1313 2538 3924 4238 2289 2034 4302 5320 4195 4305 9846 9141 2626 6794 4804 2993 2152 6832 6034 7623 8250 5081 5673
4240 4304 5500 3061 6132 5812 3857 3305 4527 4671 4868 4772 5691 3531 6417 0 4830 4283 3979 6899 4899 8263 5250 2380 3560 2460 3553 7747 1791 7057 4404 8834 5185 4920 5779 6868 2841 7292 3014 8389 1852 5283 7446 5570 7763 5375 7000 3474 6219 3720
7758 3905 5241 5841 8383 779 912 549 7186 5049 6744 5913 6802 4102 3285 4830 0 2453 7564 6917 6384 7685 5849 5643 8493 8403 3017 5173 7699 5153 4413 8447 2540 4929 5069 8219 3878 7590 1055 5568 2805 5249 7987 2901 6183 5485 2292 4883 5641 3066
5236 6287 1290 7288 1770 6605 8490 3899 3974 7072 4416 4450 6735 3191 5427 4283 2453 0 4833 5441 8428 3898 6273 5224 3095 2358 3762 3525 5329 6307 7598 4676 3724 1140 5012 9071 2070 5556 6291 3190 682 6726 4923 6727 4631 5888 6684 3136 1873 3596
5070 7785 7743 4609 5026 5662 3390 2082 4628 4003 4445 4051 1727 7898 5755 3979 7564 4833 0 7446 7072 8379 3145 4823 5768 5402 3840 5747 3654 4382 1676 4025 5349 970 3680 5586 9280 6920 2399 5180 5041 2937 3778 3956 3591 7547 1989 4858 5391 1165
8384 6493 3809 6179 7665 3433 2545 5043 4571 1849 7561 6123 6736 3701 4521 6899 6917 5441 7446 0 9132 4140 5831 6471 1189 3146 3564 3865 4566 7850 6718 3055 5800 2418 2339 5615 6398 6343 5698 4508 5742 3810 5966 5170 3057 9461 1311 6376 2239 9095
4154 2284 3776 5785 3130 6970 2842 5413 4314 343 6766 3102 5207 4063 8836 4899 6384 8428 7072 9132 0 5917 4078 4167 8950 4796 3106 6897 4423 3824 7020 9158 3464 3793 2941 5006 7678 6472 4560 1347 7805 4626 4886 3963 1416 3839 7043 4451 3818 6037
5274 5362 3654 6743 4120 3685 5036 4421 4088 5316 5254 8505 5411 8297 5567 8263 7685 3898 8379 4140 5917 0 3511 6139 4339 6221 4881 1410 4703 5997 1860 6220 1973 5445 2733 5120 6660 3039 5602 7562 5279 2020 698 3089 5167 3720 6809 2851 7694 8417
8263 4354 7752 5779 3920 3991 5873 4559 4133 4574 6150 5882 3126 5278 1682 5250 5849 6273 3145 5831 4078 3511 0 7753 7108 1876 9827 1089 5160 2619 9407 1056 6264 4510 4719 5230 1441 8445 3116 2715 3689 3029 3655 2975 2983 1305 6050 3253 4820 4679
4020 3838 3183 8189 5129 6176 4088 3907 3718 4042 4809 4790 5860 7247 4274 2380 5643 5224 4823 6471 4167 6139 7753 0 6172 3284 2823 4104 6041 6553 4639 9341 6629 2440 6233 7061 3799 3111 4122 5149 5147 3960 3448 5248 3258 4604 5036 8899 6922 3733
5078 3625 6562 8227 9452 7510 2200 7751 8226 7111 3731 4327 5577 747 9311 3560 8493 3095 5768 1189 8950 4339 7108 6172 0 5453 2390 4035 7028 6821 5274 5845 8812 5551 6818 6002 7306 2438 4923 7455 2183 6059 4994 4301 3430 1219 3125 6284 5167 5337
9022 5267 1410 8106 4868 4911 7004 9126 4935 7798 4224 5207 6923 7474 3670 2460 8403 2358 5402 3146 4796 6221 1876 3284 5453 0 5387 5415 6620 5859 8626 2344 7918 4057 4317 8476 8673 3724 5339 4752 7036 5812 6443 8070 6296 1424 6186 3254 6733 2866
7634 2836 5963 3286 5968 7663 5153 3753 5241 9029 8452 7401 8743 3713 6614 3553 3017 3762 3840 3564 3106 4881 9827 2823 2390 5387 0 6508 6791 4289 5187 4979 2249 1966 2312 5431 8316 5676 9819 2290 3121 7073 2777 6734 6444 9748 7942 4673 5093 1657
2297 4809 4318 3904 4299 5896 6922 5689 7485 6420 6106 4512 4940 2341 1313 7747 5173 3525 5747 3865 6897 1410 1089 4104 4035 5415 6508 0 3599 3464 9385 2923 4259 2085 2435 4101 3944 7661 7028 6667 3170 5347 3104 6051 5552 6539 4091 7996 5061 3493
8181 6842 5125 735 4791 6775 8074 5545 2435 5108 2916 5415 6641 8555 2538 1791 7699 5329 3654 4566 4423 4703 5160 6041 7028 6620 6791 3599 0 6780 7162 3664 6332 9321 4076 9058 6490 4848 3757 4376 4250 1302 9168 4544 6992 2990 3002 2051 6525 4398
7559 5599 4817 7917 8782 2511 8037 5475 4622 6918 2144 4419 3669 5113 3924 7057 5153 6307 4382 7850 3824 5997 2619 6553 6821 5859 4289 3464 6780 0 5492 2851 4324 6661 8710 7439 4755 4529 3077 4168 3629 7140 7624 8828 2976 5419 6464 8918 3324 1503
8071 4600 5763 8714 2280 4197 5036 7958 5621 3202 6141 5103 8277 4439 4238 4404 4413 7598 1676 6718 7020 1860 9407 4639 5274 8626 5187 9385 7162 5492 0 6221 5001 3757 6372 6728 3836 5258 4847 3927 4154 4975 2688 7620 1685 4565 6203 7758 4239 7961
1451 3893 8011 7687 7195 2833 2175 1530 3638 1721 4325 3725 4030 121 2289 8834 8447 4676 4025 3055 9158 6220 1056 9341 5845 2344 4979 2923 3664 2851 6221 0 4242 4221 5125 2942 5840 6693 6337 6792 5319 2065 7232 2618 3794 2217 7833 2503 3820 7884
5378 5565 6997 6445 5501 2127 8965 7350 7387 5074 2992 4964 4134 2571 2034 5185 2540 3724 5349 5800 3464 1973 6264 6629 8812 7918 2249 4259 6332 4324 5001 4242 0 3150 2919 7492 3996 4898 5817 5360 6640 3729 1534 6365 951 4537 5367 9000 8803 5076
6828 2671 3818 5490 6941 3597 2091 7175 6658 6832 4878 4470 6037 8041 4302 4920 4929 1140 970 2418 3793 5445 4510 2440 5551 4057 1966 2085 9321 6661 3757 4221 3150 0 6563 1894 3974 6121 4200 1953 3918 4988 4280 8320 3886 4429 2697 5204 5348 6339
3107 3617 6507 7685 2746 3966 6426 5392 2574 4499 6345 2264 2357 5195 5320 5779 5069 5012 3680 2339 2941 2733 4719 6233 6818 4317 2312 2435 4076 8710 6372 5125 2919 6563 0 3534 5827 6755 3403 4702 5777 8516 2667 5791 7055 2965 8109 4886 6531 6307
2881 5028 8998 4545 2128 8540 8720 5285 3021 5892 3885 5946 6396 7130 4195 6868 8219 9071 5586 5615 5006 5120 5230 7061 6002 8476 5431 4101 9058 7439 6728 2942 7492 1894 3534 0 5292 1854 8511 5438 575 4720 4472 2326 5413 6539 5077 4023 5199 7141
1566 7226 4365 3349 4565 9330 5442 3216 5477 7059 7611 3891 6817 7561 4305 2841 3878 2070 9280 6398 7678 6660 1441 3799 7306 8673 8316 3944 6490 4755 3836 5840 3996 3974 5827 5292 0 6262 6817 3533 2797 4673 2248 431 6279 7345 5314 3662 7128 4401
5281 2900 5325 8338 9135 4928 7721 2383 6071 6477 2926 3528 2318 6760 9846 7292 7590 5556 6920 6343 6472 3039 8445 3111 2438 3724 5676 7661 4848 4529 5258 6693 4898 6121 6755 1854 6262 0 8012 4384 9584 3451 7351 6681 2135 5952 4322 6644 6090 3042
2526 7652 6737 1029 7656 7502 1807 4638 5487 6629 915 6602 9809 5563 9141 3014 1055 6291 2399 5698 4560 5602 3116 4122 4923 5339 9819 7028 3757 3077 4847 6337 5817 4200 3403 8511 6817 8012 0 5562 5462 5948 9016 3355 4818 4290 5729 4325 2914 3617
6138 3669 1724 8182 1577 6708 2978 8333 6076 5904 2784 6672 5044 7194 2626 8389 5568 3190 5180 4508 1347 7562 2715 5149 7455 4752 2290 6667 4376 4168 3927 6792 5360 1953 4702 5438 3533 4384 5562 0 6213 7706 5958 478 4636 6824 4487 4913 2125 3984
5727 1706 5131 8275 7123 2689 4806 2359 7447 5209 6936 5778 4430 2957 6794 1852 2805 682 5041 5742 7805 5279 3689 5147 2183 7036 3121 3170 4250 3629 4154 5319 6640 3918 5777 575 2797 9584 5462 6213 0 7612 2908 3524 4917 424 4597 5693 8179 6007
2281 6413 7372 5462 6232 5116 3315 5468 4621 5857 3734 5525 3741 3434 4804 5283 5249 6726 2937 3810 4626 2020 3029 3960 6059 5812 7073 5347 1302 7140 4975 2065 3729 4988 8516 4720 4673 3451 5948 7706 7612 0 3880 3960 3467 6055 6974 1780 1138 3241
2607 3875 7340 4287 2407 5923 6193 6362 6310 5985 5321 9131 4633 4393 2993 7446 7987 4923 3778 5966 4886 698 3655 3448 4994 6443 2777 3104 9168 7624 2688 7232 1534 4280 2667 4472 2248 7351 9016 5958 2908 3880 0 8291 9159 7535 1581 3729 5041 5819
5186 3731 6723 4462 6681 1556 7782 1110 4667 7517 5607 3614 3570 1970 2152 5570 2901 6727 3956 5170 3963 3089 2975 5248 4301 8070 6734 6051 4544 8828 7620 2618 6365 8320 5791 2326 431 6681 3355 478 3524 3960 8291 0 5795 7321 6057 5912 2716 2621
4082 4106 6088 5418 8774 3447 8619 3426 4691 6432 3848 2650 7531 911 6832 7763 6183 4631 3591 3057 1416 5167 2983 3258 3430 6296 6444 5552 6992 2976 1685 3794 951 3886 7055 5413 6279 2135 4818 4636 4917 3467 9159 5795 0 3229 2767 7786 4024 4350
5126 6545 7028 8721 8955 6106 4287 4458 4975 8657 3282 6396 7283 6330 6034 5375 5485 5888 7547 9461 3839 3720 1305 4604 1219 1424 9748 6539 2990 5419 4565 2217 4537 4429 2965 6539 7345 5952 4290 6824 424 6055 7535 7321 3229 0 5813 936 6878 8833
3761 2163 7026 2369 5275 6683 2912 5557 3362 7443 2089 1565 8838 3875 7623 7000 2292 6684 1989 1311 7043 6809 6050 5036 3125 6186 7942 4091 3002 6464 6203 7833 5367 2697 8109 5077 5314 4322 5729 4487 4597 6974 1581 6057 2767 5813 0 8361 5779 8007
6880 2035 5930 9012 7318 2844 1803 6192 610 3558 8138 7161 1066 2223 8250 3474 4883 3136 4858 6376 4451 2851 3253 8899 6284 3254 4673 7996 2051 8918 7758 2503 9000 5204 4886 4023 3662 6644 4325 4913 5693 1780 3729 5912 7786 936 8361 0 4509 1032
3641 3423 2215 3789 4258 7775 4873 4230 4377 5384 4528 5013 4239 7076 5081 6219 5641 1873 5391 2239 3818 7694 4820 6922 5167 6733 5093 5061 6525 3324 4239 3820 8803 5348 6531 5199 7128 6090 2914 2125 8179 1138 5041 2716 4024 6878 5779 4509 0 8353
5349 7638 7442 6302 4295 8322 6330 4568 6623 7291 7082 6818 4422 5318 5673 3720 3066 3596 1165 9095 6037 8417 4679 3733 5337 2866 1657 3493 4398 1503 7961 7884 5076 6339 6307 7141 4401 3042 3617 3984 6007 3241 5819 2621 4350 8833 8007 1032 8353 0
EOF
