NAME: family_B_clustered_n75_s0
TYPE: TSP
COMMENT: family_B_clustered generated explicit tsp
DIMENSION: 75
EDGE_WEIGHT_TYPE: EXPLICIT
EDGE_WEIGHT_FORMAT: FULL_MATRIX
EDGE_WEIGHT_SECTION
0 85 64 51 27 31 5 8 2 18 81 65 91 50 61 97 73 63 54 2899 3837 2193 3539 3177 1506 2485 3643 2885 1583 3412 3324 3616 1939 1723 3657 1555 2853 1700 2249 2702 2556 2508 1570 1513 1810 1520 3176 2814 3117 2143 3038 3410 2459 2652 3993 3512 3952 2448 3213 3875 3126 3600 3221 3260 2472 3687 1837 2947 3303 3613 2813 2438 2275 2557 2714
85 0 72 89 8 93 53 36 67 57 26 32 72 59 50 34 76 39 33 3725 2159 2067 3285 3057 1621 1710 2442 3581 2502 3467 2291 2098 3479 3691 1698 1646 3178 2340 2934 1875 3650 2625 3737 3490 3263 2076 3417 1630 2925 2511 3991 1996 3866 1726 3057 2950 3747 2246 3755 3179 3725 1998 3395 3855 1621 2412 3091 1763 2775 3072 3409 3817 2524 2600 2685
64 72 0 95 20 50 5 43 94 62 35 99 60 94 2 46 83 76 41 2743 2550 2823 2075 3464 1694 2536 2204 3336 3373 3277 3811 3830 1961 1787 1830 3322 3925 3818 3170 3919 3678 1536 1798 3659 1705 3952 3568 3893 2400 1871 2792 3931 2418 3724 2459 3555 2073 2699 2317 2080 3731 3504 1849 3808 3927 2165 2566 2847 3142 2606 1871 3827 3230 1601 3535
51 89 95 0 73 19 61 50 3 92 72 31 2 10 76 15 51 89 92 2169 1665 2737 3603 3061 1666 3125 2360 2065 2575 3683 3915 1852 2905 3403 2147 2181 2104 2024 3720 2046 2064 1813 1811 3446 2220 3504 2965 3646 2885 3410 3524 1652 2901 2636 2221 2631 2532 2729 3545 3563 3066 3275 3897 3092 2423 1705 2881 2078 2984 1564 3620 3861 1863 3547 2516
27 8 20 73 0 5 91 94 5 59 82 79 42 86 83 12 1 11 37 1774 1696 2146 3131 2810 2184 3876 3256 3086 3859 3463 1817 1592 3661 2519 1648 2691 2451 2577 2574 2285 2722 2728 3941 3231 3439 1520 2272 3959 2174 2774 3657 3096 3703 1910 2776 3089 2360 2935 3987 3341 2289 1659 1956 2180 3700 2177 3530 2184 3169 2817 3896 2915 3814 3904 3370
31 93 50 19 5 0 63 86 99 25 56 14 11 67 5 71 82 17 68 2488 3733 3775 2943 2903 3276 2945 3364 1985 3455 2815 3379 2808 2266 1722 2813 3954 1589 2928 2617 1516 2858 3431 3353 3945 2822 2974 3914 2299 3496 1968 2404 3181 2949 1987 3148 2944 3801 3005 3710 3906 1718 1680 2756 2749 2887 3360 2288 1943 3200 2470 3824 1657 3272 3314 2177
5 53 5 61 91 63 0 9 32 40 97 87 23 47 60 91 14 76 92 3788 2192 1818 2984 1683 1824 1675 2027 3672 3181 3085 3963 2741 1599 1908 2150 3184 2392 2295 1780 3277 1561 2650 3361 2768 3217 3474 2062 1731 1640 2946 2160 1993 3337 3520 3886 2722 2806 3971 2759 1957 2139 3907 1608 3502 3118 2703 3583 3533 2599 3007 3409 3137 2713 3784 3706
8 36 43 50 94 86 9 0 7 55 83 9 38 51 33 69 99 37 78 1792 2713 1513 2556 1535 3693 3923 1717 3545 3271 2251 3472 3905 3497 3231 2305 3016 3491 3286 2063 2530 2405 3236 2543 2548 2853 2948 1781 3812 2517 1938 1500 2587 3360 2240 3629 1999 1847 2477 3259 2248 3552 1552 3954 1617 3609 1508 2560 2273 3949 3137 3934 2536 2759 2755 3383
2 67 94 3 5 99 32 7 0 51 91 20 48 25 86 14 70 91 30 2197 3419 2978 2926 3710 1734 2182 2478 3793 1684 2631 2690 1536 2571 3121 2559 2264 2965 3952 1806 2215 3834 2241 3210 2378 3559 2963 3742 3093 2958 2721 1600 1801 3278 3098 2922 1792 3564 3490 2830 2135 3533 2804 3992 2201 2376 3509 1927 2304 2479 3315 3382 3471 2598 3038 2970
18 57 62 92 59 25 40 55 51 0 77 13 32 72 20 28 97 19 99 3657 1890 2911 2309 2711 3024 3747 3828 1715 1947 3240 2015 2319 2963 1938 3986 3186 2068 2407 3120 2324 3054 3859 2413 1998 2214 2780 2889 1560 3107 1908 3074 3708 1983 3473 1585 2892 3167 2056 3453 2894 2544 1530 1836 3282 2517 3291 3902 3115 3354 3028 2250 1684 3032 2116 1802
81 26 35 72 82 56 97 83 91 77 0 57 61 40 63 99 76 92 7 1880 2396 2974 3238 3240 3766 1841 1928 2281 1919 3289 2529 3752 2209 2354 2247 2097 3601 3554 2239 2962 3696 2691 3756 2140 2064 1681 3078 1544 1945 2949 2601 1977 2781 3938 3958 1768 3382 2630 2664 2486 3592 2080 2961 3371 2535 3109 1796 3314 2259 1707 2238 2381 3111 2799 3582
65 32 99 31 79 14 87 9 20 13 57 0 43 88 5 33 20 38 94 1838 1906 2520 3630 1520 3555 3448 2478 1607 2666 3253 3560 1896 3201 2887 3592 3275 3393 3637 3228 2485 3782 2891 3557 1757 1947 2868 3370 3877 1716 3650 2564 3875 2491 3798 2005 2357 3844 3961 1736 1863 1512 3837 2307 2826 3976 3597 2161 2433 3576 2736 1932 3853 2965 3441 3896
91 72 60 2 42 11 23 38 48 32 61 43 0 61 71 86 98 54 57 3171 3958 2628 3592 2194 3445 1779 3721 2350 3078 1853 2390 1739 2820 3967 2066 2172 3443 1971 1925 2039 2942 2759 2839 1568 3179 2283 3401 3583 1774 2236 3062 1937 2534 2375 3035 3359 3234 2293 2963 3504 3332 3469 2800 2953 2657 3031 2216 2649 2072 2760 3238 3463 3239 1935 1988
50 59 94 10 86 67 47 51 25 72 40 88 61 0 38 97 3 67 30 2828 1717 3602 3681 2716 3449 2689 3317 2145 2295 1890 2635 3279 3453 3610 1977 3194 2175 2422 2426 2939 2970 2908 1662 3841 3630 2469 2929 1911 3086 3692 3820 3736 1637 1620 3342 1995 1972 3090 1649 3472 1947 3016 3076 1978 2502 1794 3952 2764 1870 3538 3349 2042 2347 1687 2891
61 50 2 76 83 5 60 33 86 20 63 5 71 38 0 55 6 19 46 1668 3354 3433 3274 3553 3502 2495 2623 2235 1925 2192 3308 2402 3991 2942 3163 2819 3492 2388 3030 3093 3664 3189 2995 2895 1637 2468 2280 3059 2289 2979 2746 2350 2767 2258 2041 2864 3971 3030 3042 3026 3705 2457 2559 2914 2896 3964 1949 2570 2026 3607 2883 1703 1962 3688 2606
97 34 46 15 12 71 91 69 14 28 99 33 86 97 55 0 94 10 26 2868 1530 2477 2707 2094 1956 3816 3929 2750 3744 2715 3901 1608 3009 1605 2787 3708 3581 2034 3130 1917 2121 2567 3835 3177 2599 2013 3433 2976 2752 3134 1958 3784 2239 2695 2936 1937 1857 2687 1534 3010 2584 2097 3405 2315 3035 2024 2310 3066 3293 3100 2711 2129 3998 3777 3440
73 76 83 51 1 82 14 99 70 97 76 20 98 3 6 94 0 29 83 2946 2148 3452 1880 2948 1998 1684 2580 2617 2780 1514 1986 1705 3449 1623 3671 2032 2290 2341 2770 2413 2985 2445 3305 3973 1868 1798 2202 2007 3326 3313 2920 3982 3749 3954 2619 2884 2516 2205 2266 3358 2078 1866 3126 2843 2161 2258 3655 1601 2176 2896 3183 2934 2920 3433 3071
63 39 76 89 11 17 76 37 91 19 92 38 54 67 19 10 29 0 63 3738 3397 1924 3918 1874 3862 1804 3955 1691 3716 2835 2908 1914 1828 3517 2110 1556 2637 2436 2628 2683 1663 2041 2174 2389 2558 2056 3503 2204 2595 3817 3993 2542 2469 2464 2388 3027 3098 3160 3450 3150 2174 1711 2530 2954 3790 3339 2295 3488 3138 2971 3640 1826 2732 1709 3353
54 33 41 92 37 68 92 78 30 99 7 94 57 30 46 26 83 63 0 2307 3432 3818 3640 2681 3051 3738 1787 2649 2232 3387 3969 2712 2633 3271 2136 2292 1915 3724 2767 2164 3053 1515 2414 3302 3907 3191 1814 3142 3288 3218 1849 2965 2473 1788 3959 3173 3600 1516 2542 1957 3766 2552 3157 2445 3834 1797 1824 2567 2959 3059 3669 2443 3873 3271 2933
2899 3725 2743 2169 1774 2488 3788 1792 2197 3657 1880 1838 3171 2828 1668 2868 2946 3738 2307 0 23 74 15 6 75 25 67 56 43 46 14 31 66 38 75 94 17 19 3223 2136 2389 3780 3787 3810 3378 1620 2184 3079 3845 2143 1563 3250 1962 3705 2104 1816 3330 2012 2815 3929 2660 2240 2056 2735 3391 3334 1792 2978 2118 2416 3515 3563 2627 2120 3692
3837 2159 2550 1665 1696 3733 2192 2713 3419 1890 2396 1906 3958 1717 3354 1530 2148 3397 3432 23 0 85 60 42 79 39 19 95 32 69 38 97 49 57 47 88 82 54 1932 2347 3628 3939 3722 3900 1688 2550 1523 1666 2231 2947 2501 2518 3926 3994 1678 2370 3453 2404 2688 2792 1824 2625 2415 2532 2452 1506 2108 3231 2235 3974 2549 2405 3905 1999 2647
2193 2067 2823 2737 2146 3775 1818 1513 2978 2911 2974 2520 2628 3602 3433 2477 3452 1924 3818 74 85 0 80 95 93 4 50 7 43 3 29 66 84 22 41 58 77 79 3989 2329 2872 2114 1515 3313 2650 2689 2782 1873 3317 1718 1669 3342 2449 3651 3565 3725 1989 2775 3895 1883 3590 2064 2249 2633 2731 3629 3602 3125 2625 2185 2176 3389 2416 2588 2242
3539 3285 2075 3603 3131 2943 2984 2556 2926 2309 3238 3630 3592 3681 3274 2707 1880 3918 3640 15 60 80 0 98 41 43 87 83 13 2 86 72 92 40 22 50 17 20 3282 3823 2204 1999 3677 2903 3177 2993 3293 3646 1717 2666 3554 3574 3603 2809 2128 3890 3843 3291 2589 3780 2267 3855 3319 3505 3298 1805 1759 1811 3889 3040 3798 2178 2825 2462 3304
3177 3057 3464 3061 2810 2903 1683 1535 3710 2711 3240 1520 2194 2716 3553 2094 2948 1874 2681 6 42 95 98 0 18 78 76 66 85 99 14 83 52 83 40 7 79 15 2662 3280 3327 1618 2915 1719 3945 2790 2549 2504 3969 3351 2538 3319 1956 2499 3455 3521 2179 2734 2914 3640 3115 2805 1999 2731 1586 3128 3967 2980 3543 2485 1809 2466 3619 3082 2145
1506 1621 1694 1666 2184 3276 1824 3693 1734 3024 3766 3555 3445 3449 3502 1956 1998 3862 3051 75 79 93 41 18 0 77 25 25 77 31 75 99 84 80 14 53 75 88 2674 2040 2314 2578 3335 1890 3612 3943 2306 3748 1887 1967 3979 2968 3797 2737 2224 2132 3536 1730 1724 3030 3781 2091 3436 3212 1992 3248 2239 2790 2988 1937 2389 3259 3340 1992 2980
2485 1710 2536 3125 3876 2945 1675 3923 2182 3747 1841 3448 1779 2689 2495 3816 1684 1804 3738 25 39 4 43 78 77 0 12 21 93 61 92 2 13 12 33 16 45 36 3196 1529 2599 3824 3631 2098 1995 2176 3743 2439 1836 3851 3478 2379 3074 2577 1540 2246 2574 3940 2785 2412 1856 1708 3001 3144 3064 3291 1867 2430 2792 2028 3185 2523 3659 2597 2165
3643 2442 2204 2360 3256 3364 2027 1717 2478 3828 1928 2478 3721 3317 2623 3929 2580 3955 1787 67 19 50 87 76 25 12 0 99 98 85 51 62 20 20 81 69 50 76 1947 1688 2771 2448 2072 2317 2075 2926 2598 3132 1554 1953 2415 2674 3532 3980 1592 1539 3576 2427 3770 2335 3524 2513 1668 3672 1920 2595 2105 3707 2399 2938 1617 2561 1924 2130 1847
2885 3581 3336 2065 3086 1985 3672 3545 3793 1715 2281 1607 2350 2145 2235 2750 2617 1691 2649 56 95 7 83 66 25 21 99 0 82 89 64 50 22 56 13 46 13 15 3772 2645 2508 2585 3550 2703 3738 2201 2065 2019 1581 1505 1950 2297 3432 2419 1538 2504 2910 1530 1978 3880 3416 3154 2698 2060 2872 3407 2233 2600 2641 3168 1614 3086 3523 1639 3768
1583 2502 3373 2575 3859 3455 3181 3271 1684 1947 1919 2666 3078 2295 1925 3744 2780 3716 2232 43 32 43 13 85 77 93 98 82 0 60 75 33 50 74 84 60 1 54 3164 2203 3418 3438 2316 2209 3641 3224 1500 2173 3080 3058 2252 3755 3071 2337 2128 2456 2024 2451 3065 3475 2742 2649 1968 2771 3715 3155 3705 2791 2873 1767 3265 3757 2628 2922 3503
3412 3467 3277 3683 3463 2815 3085 2251 2631 3240 3289 3253 1853 1890 2192 2715 1514 2835 3387 46 69 3 2 99 31 61 85 89 60 0 34 83 35 76 77 25 68 3 3381 3145 1586 2528 3643 3735 2398 3649 3702 2834 1829 2443 3161 3282 3998 3273 3120 3205 3388 3606 3998 2943 2069 2790 3700 2792 3924 3722 3606 2416 3673 3604 2582 2762 3073 1713 1501
3324 2291 3811 3915 1817 3379 3963 3472 2690 2015 2529 3560 2390 2635 3308 3901 1986 2908 3969 14 38 29 86 14 75 92 51 64 75 34 0 45 60 29 87 53 2 85 2745 1948 2970 2688 1622 2956 3231 3424 2082 3852 3561 2876 2545 3804 2624 2341 2738 3410 2993 3409 2462 2878 2370 1934 2588 2465 3688 2227 3862 3917 1891 3111 3298 3772 3926 2240 2925
3616 2098 3830 1852 1592 2808 2741 3905 1536 2319 3752 1896 1739 3279 2402 1608 1705 1914 2712 31 97 66 72 83 99 2 62 50 33 83 45 0 43 53 57 63 36 26 2641 3852 2998 3428 1570 1748 2349 1513 1500 2966 2706 2666 3020 3555 1732 3391 2105 3249 3509 3964 3600 3157 2469 2254 3535 1945 2192 2182 3265 3984 2863 3716 2600 3695 3141 3484 1533
1939 3479 1961 2905 3661 2266 1599 3497 2571 2963 2209 3201 2820 3453 3991 3009 3449 1828 2633 66 49 84 92 52 84 13 20 22 50 35 60 43 0 88 17 35 30 84 3201 1918 3265 2192 3201 2853 3419 3749 1698 3132 1764 3803 3638 3865 2392 3029 2920 1673 2758 2805 3066 2147 1692 1560 3424 3277 1808 3766 3203 1992 2505 3905 2730 1518 3179 3909 2427
1723 3691 1787 3403 2519 1722 1908 3231 3121 1938 2354 2887 3967 3610 2942 1605 1623 3517 3271 38 57 22 40 83 80 12 20 56 74 76 29 53 88 0 84 5 7 96 2329 2806 2145 3355 2447 2828 3817 3549 3935 2911 1580 1806 2210 3104 3802 1931 1778 3559 2980 3202 2307 3849 3056 3072 3585 2062 3233 2892 2755 3429 2188 3279 3512 2355 2098 3138 2121
3657 1698 1830 2147 1648 2813 2150 2305 2559 3986 2247 3592 2066 1977 3163 2787 3671 2110 2136 75 47 41 22 40 14 33 81 13 84 77 87 57 17 84 0 93 9 68 2623 2418 2890 3776 1864 3569 2544 3637 3393 1767 2051 2227 1714 3475 2800 2187 3355 1684 1595 3208 3382 3498 2971 3104 1972 2362 1847 2899 3195 1553 1931 2906 2939 3642 3336 1695 1738
1555 1646 3322 2181 2691 3954 3184 3016 2264 3186 2097 3275 2172 3194 2819 3708 2032 1556 2292 94 88 58 50 7 53 16 69 46 60 25 53 63 35 5 93 0 38 8 1912 2153 2450 3355 1532 2790 3569 3436 2740 2313 2589 2910 3004 3881 3625 3325 2228 3014 2168 2662 1623 2171 2165 3117 1665 2207 1603 1983 2881 2155 1959 3366 1685 1828 3791 3920 1871
2853 3178 3925 2104 2451 1589 2392 3491 2965 2068 3601 3393 3443 2175 3492 3581 2290 2637 1915 17 82 77 17 79 75 45 50 13 1 68 2 36 30 7 9 38 0 81 1737 2650 3926 2674 3167 3779 3314 1560 2908 1802 1675 3546 3604 3602 2545 2569 2481 3613 1838 3755 1783 2296 2805 1522 2921 1506 2796 1959 3032 2771 3694 2804 2760 2425 2447 3073 2141
1700 2340 3818 2024 2577 2928 2295 3286 3952 2407 3554 3637 1971 2422 2388 2034 2341 2436 3724 19 54 79 20 15 88 36 76 15 54 3 85 26 84 96 68 8 81 0 2078 2267 2857 2902 2631 3488 1839 2602 3248 1601 1925 1970 3673 1726 2987 2333 2901 3210 3492 2976 3124 3155 2060 2636 3855 1774 1848 2240 2790 2777 3260 2742 2137 2109 3161 3563 3962
2249 2934 3170 3720 2574 2617 1780 2063 1806 3120 2239 3228 1925 2426 3030 3130 2770 2628 2767 3223 1932 3989 3282 2662 2674 3196 1947 3772 3164 3381 2745 2641 3201 2329 2623 1912 1737 2078 0 43 77 84 60 27 14 94 61 12 42 77 50 2 28 24 44 87 36 2375 3695 3831 1553 3823 2148 3500 1969 2490 2610 3645 3922 2642 2893 1815 1653 3629 3899
2702 1875 3919 2046 2285 1516 3277 2530 2215 2324 2962 2485 2039 2939 3093 1917 2413 2683 2164 2136 2347 2329 3823 3280 2040 1529 1688 2645 2203 3145 1948 3852 1918 2806 2418 2153 2650 2267 43 0 81 21 14 54 86 91 52 42 74 90 27 56 22 80 84 27 60 2074 1869 1589 2414 2384 3647 3290 2670 2045 2342 1804 2352 2577 3561 3720 2635 2231 3870
2556 3650 3678 2064 2722 2858 1561 2405 3834 3054 3696 3782 2942 2970 3664 2121 2985 1663 3053 2389 3628 2872 2204 3327 2314 2599 2771 2508 3418 1586 2970 2998 3265 2145 2890 2450 3926 2857 77 81 0 92 31 85 75 40 29 9 77 45 2 15 13 80 26 60 87 2554 2306 2095 2708 3520 1767 3519 2916 3703 1739 3968 1854 2361 3502 2925 2109 3741 1653
2508 2625 1536 1813 2728 3431 2650 3236 2241 3859 2691 2891 2759 2908 3189 2567 2445 2041 1515 3780 3939 2114 1999 1618 2578 3824 2448 2585 3438 2528 2688 3428 2192 3355 3776 3355 2674 2902 84 21 92 0 53 60 96 15 16 6 11 83 53 40 23 86 48 74 48 2002 1904 1712 1550 1928 3092 2736 3172 2394 2175 3579 3656 2673 3680 2886 3265 2468 1542
1570 3737 1798 1811 3941 3353 3361 2543 3210 2413 3756 3557 2839 1662 2995 3835 3305 2174 2414 3787 3722 1515 3677 2915 3335 3631 2072 3550 2316 3643 1622 1570 3201 2447 1864 1532 3167 2631 60 14 31 53 0 75 49 69 36 68 96 77 82 40 54 12 92 81 52 2363 2894 3229 3936 3971 2298 3254 3896 3766 3062 1533 1610 3009 1767 1743 3998 3681 2317
1513 3490 3659 3446 3231 3945 2768 2548 2378 1998 2140 1757 1568 3841 2895 3177 3973 2389 3302 3810 3900 3313 2903 1719 1890 2098 2317 2703 2209 3735 2956 1748 2853 2828 3569 2790 3779 3488 27 54 85 60 75 0 96 56 4 65 14 35 83 98 69 30 98 2 75 3227 2985 2145 2848 2104 1524 3332 3459 2066 2460 3827 1766 3785 2867 2796 2424 2855 3014
1810 3263 1705 2220 3439 2822 3217 2853 3559 2214 2064 1947 3179 3630 1637 2599 1868 2558 3907 3378 1688 2650 3177 3945 3612 1995 2075 3738 3641 2398 3231 2349 3419 3817 2544 3569 3314 1839 14 86 75 96 49 96 0 3 2 83 17 94 54 27 61 35 9 93 64 3850 3603 2300 2216 3144 2803 1675 3765 2842 3257 3836 2016 3855 3916 2990 2355 3109 3560
1520 2076 3952 3504 1520 2974 3474 2948 2963 2780 1681 2868 2283 2469 2468 2013 1798 2056 3191 1620 2550 2689 2993 2790 3943 2176 2926 2201 3224 3649 3424 1513 3749 3549 3637 3436 1560 2602 94 91 40 15 69 56 3 0 10 45 11 79 54 92 49 90 79 80 73 2307 2078 3781 3753 1883 1944 2150 1628 3115 3809 3370 1817 1625 3753 2172 3516 2422 3449
3176 3417 3568 2965 2272 3914 2062 1781 3742 2889 3078 3370 3401 2929 2280 3433 2202 3503 1814 2184 1523 2782 3293 2549 2306 3743 2598 2065 1500 3702 2082 1500 1698 3935 3393 2740 2908 3248 61 52 29 16 36 4 2 10 0 84 87 1 30 89 59 34 90 62 3 3839 3538 1653 3941 2863 3881 2055 1810 3255 1733 3544 2242 2115 3025 3649 3506 1943 3423
2814 1630 3893 3646 3959 2299 1731 3812 3093 1560 1544 3877 3583 1911 3059 2976 2007 2204 3142 3079 1666 1873 3646 2504 3748 2439 3132 2019 2173 2834 3852 2966 3132 2911 1767 2313 1802 1601 12 42 9 6 68 65 83 45 84 0 48 63 13 47 31 25 38 9 69 3256 2292 3161 2824 3015 3128 3172 3464 3004 2233 3781 1640 3058 2092 1898 2864 2851 3694
3117 2925 2400 2885 2174 3496 1640 2517 2958 3107 1945 1716 1774 3086 2289 2752 3326 2595 3288 3845 2231 3317 1717 3969 1887 1836 1554 1581 3080 1829 3561 2706 1764 1580 2051 2589 1675 1925 42 74 77 11 96 14 17 11 87 48 0 65 66 52 61 58 4 65 50 3675 2327 2884 2368 3009 3898 2269 1908 3487 1720 2672 2262 2293 3106 2411 2174 2345 3264
2143 2511 1871 3410 2774 1968 2946 1938 2721 1908 2949 3650 2236 3692 2979 3134 3313 3817 3218 2143 2947 1718 2666 3351 1967 3851 1953 1505 3058 2443 2876 2666 3803 1806 2227 2910 3546 1970 77 90 45 83 77 35 94 79 1 63 65 0 45 69 98 44 60 83 39 2309 2639 3057 2988 2850 1970 1679 2727 2368 1589 2907 1913 3940 3434 3459 3282 2702 2293
3038 3991 2792 3524 3657 2404 2160 1500 1600 3074 2601 2564 3062 3820 2746 1958 2920 3993 1849 1563 2501 1669 3554 2538 3979 3478 2415 1950 2252 3161 2545 3020 3638 2210 1714 3004 3604 3673 50 27 2 53 82 83 54 54 30 13 66 45 0 20 27 27 70 5 99 2953 2427 2560 3008 3146 3468 2828 1528 2541 3458 2380 2243 1601 1952 3957 3492 1687 3912
3410 1996 3931 1652 3096 3181 1993 2587 1801 3708 1977 3875 1937 3736 2350 3784 3982 2542 2965 3250 2518 3342 3574 3319 2968 2379 2674 2297 3755 3282 3804 3555 3865 3104 3475 3881 3602 1726 2 56 15 40 40 98 27 92 89 47 52 69 20 0 3 57 22 60 14 2271 3486 3904 1879 3788 2349 1622 1533 3158 3828 2373 2302 1669 3607 2661 3904 3555 3318
2459 3866 2418 2901 3703 2949 3337 3360 3278 1983 2781 2491 2534 1637 2767 2239 3749 2469 2473 1962 3926 2449 3603 1956 3797 3074 3532 3432 3071 3998 2624 1732 2392 3802 2800 3625 2545 2987 28 22 13 23 54 69 61 49 59 31 61 98 27 3 0 72 26 86 49 2056 3456 1524 3246 3991 3568 3335 2861 1882 3143 2340 2407 3937 1978 3883 3243 2904 1507
2652 1726 3724 2636 1910 1987 3520 2240 3098 3473 3938 3798 2375 1620 2258 2695 3954 2464 1788 3705 3994 3651 2809 2499 2737 2577 3980 2419 2337 3273 2341 3391 3029 1931 2187 3325 2569 2333 24 80 80 86 12 30 35 90 34 25 58 44 27 57 72 0 84 78 6 1518 2138 3042 2340 2986 3131 1763 3743 2980 1821 3394 2649 2839 3833 3181 3176 3271 3422
3993 3057 2459 2221 2776 3148 3886 3629 2922 1585 3958 2005 3035 3342 2041 2936 2619 2388 3959 2104 1678 3565 2128 3455 2224 1540 1592 1538 2128 3120 2738 2105 2920 1778 3355 2228 2481 2901 44 84 26 48 92 98 9 79 90 38 4 60 70 22 26 84 0 21 97 3816 3291 2318 1576 2959 3547 1757 3383 3991 1896 3135 2771 2654 3850 2915 1700 1567 2195
3512 2950 3555 2631 3089 2944 2722 1999 1792 2892 1768 2357 3359 1995 2864 1937 2884 3027 3173 1816 2370 3725 3890 3521 2132 2246 1539 2504 2456 3205 3410 3249 1673 3559 1684 3014 3613 3210 87 27 60 74 81 2 93 80 62 9 65 83 5 60 86 78 21 0 24 3491 3936 2675 1702 3350 1854 3491 2932 2389 3434 1642 3632 1993 3653 2633 3400 2083 2369
3952 3747 2073 2532 2360 3801 2806 1847 3564 3167 3382 3844 3234 1972 3971 1857 2516 3098 3600 3330 3453 1989 3843 2179 3536 2574 3576 2910 2024 3388 2993 3509 2758 2980 1595 2168 1838 3492 36 60 87 48 52 75 64 73 3 69 50 39 99 14 49 6 97 24 0 3979 2953 2310 3532 2725 1847 3802 1703 2960 2646 2975 2275 2306 1509 3927 2792 3669 2432
2448 2246 2699 2729 2935 3005 3971 2477 3490 2056 2630 3961 2293 3090 3030 2687 2205 3160 1516 2012 2404 2775 3291 2734 1730 3940 2427 1530 2451 3606 3409 3964 2805 3202 3208 2662 3755 2976 2375 2074 2554 2002 2363 3227 3850 2307 3839 3256 3675 2309 2953 2271 2056 1518 3816 3491 3979 0 91 88 48 34 9 66 50 57 25 30 56 47 62 37 63 24 36
3213 3755 2317 3545 3987 3710 2759 3259 2830 3453 2664 1736 2963 1649 3042 1534 2266 3450 2542 2815 2688 3895 2589 2914 1724 2785 3770 1978 3065 3998 2462 3600 3066 2307 3382 1623 1783 3124 3695 1869 2306 1904 2894 2985 3603 2078 3538 2292 2327 2639 2427 3486 3456 2138 3291 3936 2953 91 0 9 79 6 5 23 69 9 95 15 80 13 24 37 84 24 67
3875 3179 2080 3563 3341 3906 1957 2248 2135 2894 2486 1863 3504 3472 3026 3010 3358 3150 1957 3929 2792 1883 3780 3640 3030 2412 2335 3880 3475 2943 2878 3157 2147 3849 3498 2171 2296 3155 3831 1589 2095 1712 3229 2145 2300 3781 1653 3161 2884 3057 2560 3904 1524 3042 2318 2675 2310 88 9 0 1 25 4 24 99 62 25 75 5 20 62 67 55 4 39
3126 3725 3731 3066 2289 1718 2139 3552 3533 2544 3592 1512 3332 1947 3705 2584 2078 2174 3766 2660 1824 3590 2267 3115 3781 1856 3524 3416 2742 2069 2370 2469 1692 3056 2971 2165 2805 2060 1553 2414 2708 1550 3936 2848 2216 3753 3941 2824 2368 2988 3008 1879 3246 2340 1576 1702 3532 48 79 1 0 75 73 9 93 63 40 94 38 34 51 2 24 42 18
3600 1998 3504 3275 1659 1680 3907 1552 2804 1530 2080 3837 3469 3016 2457 2097 1866 1711 2552 2240 2625 2064 3855 2805 2091 1708 2513 3154 2649 2790 1934 2254 1560 3072 3104 3117 1522 2636 3823 2384 3520 1928 3971 2104 3144 1883 2863 3015 3009 2850 3146 3788 3991 2986 2959 3350 2725 34 6 25 75 0 79 39 55 68 9 2 69 14 91 81 12 33 96
3221 3395 1849 3897 1956 2756 1608 3954 3992 1836 2961 2307 2800 3076 2559 3405 3126 2530 3157 2056 2415 2249 3319 1999 3436 3001 1668 2698 1968 3700 2588 3535 3424 3585 1972 1665 2921 3855 2148 3647 1767 3092 2298 1524 2803 1944 3881 3128 3898 1970 3468 2349 3568 3131 3547 1854 1847 9 5 4 73 79 0 56 24 6 10 55 83 3 35 21 71 45 20
3260 3855 3808 3092 2180 2749 3502 1617 2201 3282 3371 2826 2953 1978 2914 2315 2843 2954 2445 2735 2532 2633 3505 2731 3212 3144 3672 2060 2771 2792 2465 1945 3277 2062 2362 2207 1506 1774 3500 3290 3519 2736 3254 3332 1675 2150 2055 3172 2269 1679 2828 1622 3335 1763 1757 3491 3802 66 23 24 9 39 56 0 52 80 13 12 46 15 78 64 70 43 37
2472 1621 3927 2423 3700 2887 3118 3609 2376 2517 2535 3976 2657 2502 2896 3035 2161 3790 3834 3391 2452 2731 3298 1586 1992 3064 1920 2872 3715 3924 3688 2192 1808 3233 1847 1603 2796 1848 1969 2670 2916 3172 3896 3459 3765 1628 1810 3464 1908 2727 1528 1533 2861 3743 3383 2932 1703 50 69 99 93 55 24 52 0 24 50 59 80 85 27 89 14 58 96
3687 2412 2165 1705 2177 3360 2703 1508 3509 3291 3109 3597 3031 1794 3964 2024 2258 3339 1797 3334 1506 3629 1805 3128 3248 3291 2595 3407 3155 3722 2227 2182 3766 2892 2899 1983 1959 2240 2490 2045 3703 2394 3766 2066 2842 3115 3255 3004 3487 2368 2541 3158 1882 2980 3991 2389 2960 57 9 62 63 68 6 80 24 0 59 87 41 87 66 48 61 4 16
1837 3091 2566 2881 3530 2288 3583 2560 1927 3902 1796 2161 2216 3952 1949 2310 3655 2295 1824 1792 2108 3602 1759 3967 2239 1867 2105 2233 3705 3606 3862 3265 3203 2755 3195 2881 3032 2790 2610 2342 1739 2175 3062 2460 3257 3809 1733 2233 1720 1589 3458 3828 3143 1821 1896 3434 2646 25 95 25 40 9 10 13 50 59 0 74 86 79 45 96 30 4 20
2947 1763 2847 2078 2184 1943 3533 2273 2304 3115 3314 2433 2649 2764 2570 3066 1601 3488 2567 2978 3231 3125 1811 2980 2790 2430 3707 2600 2791 2416 3917 3984 1992 3429 1553 2155 2771 2777 3645 1804 3968 3579 1533 3827 3836 3370 3544 3781 2672 2907 2380 2373 2340 3394 3135 1642 2975 30 15 75 94 2 55 12 59 87 74 0 81 9 34 46 66 64 90
3303 2775 3142 2984 3169 3200 2599 3949 2479 3354 2259 3576 2072 1870 2026 3293 2176 3138 2959 2118 2235 2625 3889 3543 2988 2792 2399 2641 2873 3673 1891 2863 2505 2188 1931 1959 3694 3260 3922 2352 1854 3656 1610 1766 2016 1817 2242 1640 2262 1913 2243 2302 2407 2649 2771 3632 2275 56 80 5 38 69 83 46 80 41 86 81 0 68 25 3 99 81 4
3613 3072 2606 1564 2817 2470 3007 3137 3315 3028 1707 2736 2760 3538 3607 3100 2896 2971 3059 2416 3974 2185 3040 2485 1937 2028 2938 3168 1767 3604 3111 3716 3905 3279 2906 3366 2804 2742 2642 2577 2361 2673 3009 3785 3855 1625 2115 3058 2293 3940 1601 1669 3937 2839 2654 1993 2306 47 13 20 34 14 3 15 85 87 79 9 68 0 5 12 3 48 49
2813 3409 1871 3620 3896 3824 3409 3934 3382 2250 2238 1932 3238 3349 2883 2711 3183 3640 3669 3515 2549 2176 3798 1809 2389 3185 1617 1614 3265 2582 3298 2600 2730 3512 2939 1685 2760 2137 2893 3561 3502 3680 1767 2867 3916 3753 3025 2092 3106 3434 1952 3607 1978 3833 3850 3653 1509 62 24 62 51 91 35 78 27 66 45 34 25 5 0 72 18 92 7
2438 3817 3827 3861 2915 1657 3137 2536 3471 1684 2381 3853 3463 2042 1703 2129 2934 1826 2443 3563 2405 3389 2178 2466 3259 2523 2561 3086 3757 2762 3772 3695 1518 2355 3642 1828 2425 2109 1815 3720 2925 2886 1743 2796 2990 2172 3649 1898 2411 3459 3957 2661 3883 3181 2915 2633 3927 37 37 67 2 81 21 64 89 48 96 46 3 12 72 0 84 47 97
2275 2524 3230 1863 3814 3272 2713 2759 2598 3032 3111 2965 3239 2347 1962 3998 2920 2732 3873 2627 3905 2416 2825 3619 3340 3659 1924 3523 2628 3073 3926 3141 3179 2098 3336 3791 2447 3161 1653 2635 2109 3265 3998 2424 2355 3516 3506 2864 2174 3282 3492 3904 3243 3176 1700 3400 2792 63 84 55 24 12 71 70 14 61 30 66 99 3 18 84 0 14 44
2557 2600 1601 3547 3904 3314 3784 2755 3038 2116 2799 3441 1935 1687 3688 3777 3433 1709 3271 2120 1999 2588 2462 3082 1992 2597 2130 1639 2922 1713 2240 3484 3909 3138 1695 3920 3073 3563 3629 2231 3741 2468 3681 2855 3109 2422 1943 2851 2345 2702 1687 3555 2904 3271 1567 2083 3669 24 24 4 42 33 45 43 58 4 4 64 81 48 92 47 14 0 55
2714 2685 3535 2516 3370 2177 3706 3383 2970 1802 3582 3896 1988 2891 2606 3440 3071 3353 2933 3692 2647 2242 3304 2145 2980 2165 1847 3768 3503 1501 2925 1533 2427 2121 1738 1871 2141 3962 3899 3870 1653 1542 2317 3014 3560 3449 3423 3694 3264 2293 3912 3318 1507 3422 2195 2369 2432 36 67 39 18 96 20 37 96 16 20 90 4 49 7 97 44 55 0
EOF
