NAME: family_A_random_n100_s0
TYPE: TSP
COMMENT: family_A_random generated explicit tsp
DIMENSION: 100
EDGE_WEIGHT_TYPE: EXPLICIT
EDGE_WEIGHT_FORMAT: FULL_MATRIX
EDGE_WEIGHT_SECTION
0 5189 3703 1916 6368 627 3303 3874 5473 6336 6014 9472 5625 7895 9210 7486 8093 5715 3963 4796 5098 6659 7395 1147 4325 7134 5039 653 6465 7719 5323 3345 2770 6261 633 3708 4371 6244 4511 4409 4070 4589 4219 2510 1629 7036 7197 3477 3867 4835 8377 2265 4485 7450 5101 5369 2887 5798 8461 4423 8644 5712 8476 3619 4697 2324 3055 4291 8380 3271 2470 2820 6803 6562 6681 6686 1654 7924 5875 5021 6181 5834 2133 2857 4491 4405 6147 6325 4713 4786 1799 6087 5575 1140 8000 7563 5074 3315 4397 8303
5189 0 3982 1247 5557 6291 4880 4911 4367 5238 3275 2991 4331 4722 8661 5218 7818 1173 8539 4109 2916 4578 5518 2912 6270 1530 6917 5655 8858 4897 4750 5901 7445 2632 6238 6606 555 4000 4475 1666 7436 3437 3976 7937 3500 2810 5935 5696 2978 6006 3918 3940 8418 6124 2085 8058 5288 7435 672 3517 4997 8099 2104 4171 4655 4804 4417 4676 3491 3145 3578 5366 4878 3654 7602 7327 4990 2153 4749 6944 7869 6819 7318 6457 7132 802 5542 7116 4596 9403 4761 6446 6672 3488 5322 9548 6635 8521 2989 6841
3703 3982 0 1673 8455 6553 3886 4957 6569 5239 3058 5464 5115 5061 1374 5908 6005 2919 8194 7215 3497 6592 6547 4797 5873 6604 2719 4228 4459 7932 3204 4689 8039 6850 1356 2278 4647 8091 7128 4681 6456 2390 3872 3900 6379 9635 779 4755 7034 3338 4955 3364 5896 8209 3077 5702 3613 3414 5834 3348 6689 6748 4421 5909 5573 8903 4465 5829 3136 2471 6939 6885 2483 4452 4476 6165 8096 8022 3650 5457 3330 5497 4776 3772 2945 6244 5363 2197 9049 3044 4860 9029 7700 5150 7109 8999 6227 2436 8211 5101
1916 1247 1673 0 1486 2021 4210 4023 7310 5590 9128 5546 6777 7081 4000 4497 3289 7653 4792 914 6521 4390 4989 2682 3441 3125 4196 5021 4857 4648 3322 4805 9374 4318 3399 8956 5985 5243 1306 5869 3478 4961 4767 5457 6119 1829 4394 5408 2086 8689 1993 5448 4922 4144 2976 6198 4304 8706 7565 6812 7116 4940 5490 6131 5622 3034 4548 8260 1351 5915 8913 2819 4601 4364 6170 7740 7722 7082 4141 4200 6290 2818 7127 6794 5048 6317 5522 3835 2973 5981 4777 4580 5720 1087 5511 4840 5610 8122 7063 3582
6368 5557 8455 1486 0 6839 5341 2768 8220 3843 6816 4422 9237 9229 4772 1894 3520 3906 4866 8254 5449 2162 7808 6510 5099 1857 8505 5370 4269 2108 5227 4761 7960 5611 3418 7192 3392 8155 1635 5124 8565 8884 3826 3062 5540 731 4726 3785 4843 6881 5284 6743 8026 3335 4737 4709 3275 3836 5141 2797 5392 4830 4231 5825 6764 3681 4161 4565 4433 2396 4189 3429 3339 1182 7630 4095 5702 3944 5137 6189 6865 2693 1615 6983 4214 8984 8201 4410 7441 8793 5855 7337 8019 5871 4247 5681 7922 1072 5770 4493
627 6291 6553 2021 6839 0 2021 6856 1060 5816 4735 3645 3453 8499 8437 4221 5059 7379 6112 7352 7292 5214 3942 4345 6508 7955 6481 2163 4091 3403 3533 3769 4759 3724 4087 2459 4716 3660 1779 529 6763 8026 5816 4790 5837 3912 2633 3929 4556 5791 4829 6341 275 7079 1292 4564 3381 6847 7194 5878 2941 4996 5348 6912 5453 9155 1472 5717 3839 6367 919 6773 6418 5190 5749 7855 7087 6421 6711 2906 3661 2382 4985 4811 4590 5858 4571 4656 4846 4457 6371 5291 5710 3557 3348 4775 6226 4789 5453 4855
3303 4880 3886 4210 5341 2021 0 7035 3925 4196 1044 7847 4610 5356 5882 9061 6655 8861 3652 2738 5646 4178 6546 4551 7144 8574 5563 5735 4472 3344 5358 2201 3951 7964 3154 1491 9434 3599 9360 6476 2501 7522 5370 4707 3091 6406 8814 3464 1532 5908 1715 5569 4823 1893 8224 8298 5853 4568 7728 4392 7221 8287 2147 5116 1901 6116 3751 2816 5197 5385 7867 7671 4885 7908 4989 7078 7216 4388 5978 4133 6343 4311 1532 4963 2925 4786 5376 8215 6486 6765 6012 1598 5979 2915 1861 5112 7017 5185 5860 5767
3874 4911 4957 4023 2768 6856 7035 0 4556 2527 2167 2720 4123 4445 4052 8735 4858 3342 3177 3206 6382 8235 2186 4775 5977 3141 8578 3520 3670 628 3419 1333 3227 5196 5270 5890 4705 6530 6188 3676 5163 6864 3001 3987 6394 2164 3128 7133 6695 5015 3151 8429 3698 2134 3680 5969 5470 4932 6239 2327 6737 2941 3071 2626 5946 4842 2332 4013 4149 6730 4862 6031 4536 6021 3273 3522 6329 5279 1938 8082 7120 8192 4798 7487 4398 7331 3612 8819 3887 5003 4767 5823 3753 6947 7653 4110 6311 6773 5789 6673
5473 4367 6569 7310 8220 1060 3925 4556 0 3467 5391 5686 7771 3018 2947 8183 4963 2284 7184 7743 6704 9716 4779 6294 7616 9478 5135 3851 7642 6656 4059 4348 1558 6114 4389 8272 6499 7513 3093 4675 482 5759 7649 4471 4600 4664 4903 3679 5209 6238 3022 6249 5135 4604 4240 7464 5936 1928 4136 7922 1102 5359 1771 6946 3942 4149 2058 7371 4219 7722 4338 6574 6101 3464 7464 5142 4647 2254 6525 4220 6471 7143 5387 1494 3623 9749 2163 4981 5915 2868 1819 8104 6514 6906 6737 5119 7868 4131 4096 4616
6336 5238 5239 5590 3843 5816 4196 2527 3467 0 3002 6071 3761 8940 6756 2622 6653 5106 6995 6846 7650 6640 4280 3270 6332 2691 1640 5800 5146 8926 1011 7572 6879 2184 5015 3866 6981 5568 4937 6939 4088 3506 1721 3694 4649 4548 2487 2340 3481 386 6935 6031 7995 7898 6640 2444 7193 5745 3277 4202 4263 2351 6420 4133 5365 7487 4075 2026 7683 7855 4798 7905 3964 4220 3921 2232 6154 7482 5847 5113 6505 4602 3426 5426 3309 7093 7553 5969 4306 5942 7586 3771 5102 3397 7450 8944 4695 6731 4116 4593
6014 3275 3058 9128 6816 4735 1044 2167 5391 3002 0 5102 1887 5793 5489 7525 3395 7937 5417 4841 4978 6859 3061 2710 7447 4409 5673 7268 1830 4912 6964 7850 8252 7029 4992 6147 7784 5395 5204 3623 7428 2121 2982 6273 2447 5080 6872 3257 5553 4167 6087 7866 5259 5268 5137 5178 3785 6846 3873 5847 1290 8237 7674 6185 2210 5481 6017 4588 4247 4175 3005 2015 459 3322 7013 4291 1768 4638 5332 6788 1527 9244 2031 5396 5453 7389 3006 5631 3751 6025 9614 3761 2886 3309 3724 5565 4882 4593 9528 6504
9472 2991 5464 5546 4422 3645 7847 2720 5686 6071 5102 0 4448 8756 1198 5091 3170 3367 6687 6199 8117 7369 4362 4560 7050 916 5245 1376 6052 2729 7775 423 6703 6274 4723 2223 1085 6681 2327 1891 5397 3888 4666 6466 3079 5693 6346 5983 6853 4584 4079 5456 5801 7102 6508 4942 2343 2219 5505 6958 7077 6983 7745 3367 3881 997 6678 5084 9250 6866 5419 7943 7364 7095 5032 3970 3016 712 5926 3063 6128 7364 4539 2835 5108 5411 849 6894 3320 6089 7661 3775 6181 7669 1807 5833 4349 6521 5165 4416
5625 4331 5115 6777 9237 3453 4610 4123 7771 3761 1887 4448 0 5378 8483 7763 6743 1381 4009 5733 8183 5118 7797 6074 8012 3912 3570 2703 4169 7118 5341 2035 6483 8322 5818 4855 7504 1163 1124 4412 2432 4739 4776 4432 4947 3157 2344 7913 3538 4888 6453 3513 1901 4243 3454 2522 7063 6252 5756 4128 2440 3758 8104 8446 4174 4909 7193 5576 5362 6121 2130 7004 5795 7567 7781 4870 2618 2683 5825 5365 7019 696 4915 5491 4921 8211 8014 6553 1934 9176 7717 6432 6315 4281 5536 2620 9572 6217 3569 5204
7895 4722 5061 7081 9229 8499 5356 4445 3018 8940 5793 8756 5378 0 6749 2396 2231 4624 5651 3859 3493 6179 5296 1182 5669 8564 4101 4672 5887 4042 6187 6736 5230 2825 59 3954 3874 6255 9090 3195 6292 4989 3244 6563 7570 5460 7987 4676 5126 4642 2816 888 3177 7449 4363 5242 4083 7070 8163 4922 8335 3929 7701 1627 446 5779 5896 6362 5270 1224 4285 3392 1654 7315 3093 8281 7028 6274 5694 6513 5885 3412 7785 4177 1739 5843 6463 8586 7199 6748 7035 3330 6120 6126 6527 3146 2851 8706 2879 2293
9210 8661 1374 4000 4772 8437 5882 4052 2947 6756 5489 1198 8483 6749 0 2079 5500 5925 5097 7212 6615 4956 3084 7033 7118 5897 7158 3360 4939 5275 7653 8476 4458 4716 6077 8758 3752 8831 5547 818 4242 1927 7305 3334 7156 4876 4210 4850 5077 1105 8553 4446 7845 8696 6092 3647 5012 3553 8099 2024 801 6468 4829 3307 8530 6664 1309 5433 1187 7207 2914 6969 6629 5659 7652 3829 3669 3653 6460 6937 6375 6211 4963 7774 8430 7581 2771 4419 7278 2761 7891 5113 7819 8115 3040 2920 6909 6599 5558 1760
7486 5218 5908 4497 1894 4221 9061 8735 8183 2622 7525 5091 7763 2396 2079 0 3791 5176 1650 4456 6223 6322 7506 3473 2403 6563 4489 8498 6273 2876 1617 4818 497 4878 5302 8564 4117 7912 7142 4607 5329 3801 4770 4911 4092 6028 6566 6307 4541 5063 4659 3342 7454 4810 9058 174 5209 4465 3631 5421 2482 4869 6053 4120 6582 8112 6063 3450 2292 1968 6068 5173 967 8235 5983 4347 7615 4976 3450 6289 2299 5687 4224 4776 1196 4475 5968 4430 5754 8138 4230 5914 5375 2865 6055 6562 4517 6190 3879 6885
8093 7818 6005 3289 3520 5059 6655 4858 4963 6653 3395 3170 6743 2231 5500 3791 0 7363 4374 3614 2435 3960 6669 3698 8628 5300 1798 3277 7951 4749 7989 6383 7260 6191 908 7703 2640 5442 1894 7510 4903 4381 1056 3839 1649 5023 2370 4176 7125 3509 7025 1383 3506 2669 4334 5111 944 5455 6169 2412 6885 8060 3012 5752 2561 4092 4453 4748 170 5073 5662 4101 5609 2342 4099 6274 4643 1106 9213 7407 6853 3957 5410 5986 8071 4093 5188 3719 7036 1094 8128 5862 3695 6425 4885 8347 5483 6004 6244 5942
5715 1173 2919 7653 3906 7379 8861 3342 2284 5106 7937 3367 1381 4624 5925 5176 7363 0 3605 6078 2160 1608 2635 6180 4232 6698 2317 4465 3275 5142 4908 5567 6396 7232 1884 4771 4536 5974 7716 4912 3444 7418 2876 8721 4037 3245 5633 2077 6348 7711 464 4394 7383 6496 3223 7876 7297 7523 4845 3596 4220 7881 5009 4745 6605 7412 6301 4376 6241 3043 2670 6144 5250 4916 7904 8488 7460 4708 5026 7095 3909 6668 5730 1864 3213 3460 6498 2650 9310 4898 4538 4653 3720 3688 6559 5555 1694 5820 7910 8560
3963 8539 8194 4792 4866 6112 3652 3177 7184 6995 5417 6687 4009 5651 5097 1650 4374 3605 0 3113 6068 6917 1591 4947 6714 6867 9706 3624 4525 3968 3237 7517 4524 3157 1468 6959 9399 4044 4096 1503 772 3444 731 180 3847 5765 6301 3233 6673 582 8589 1440 6774 4028 9111 8203 4434 2539 2075 4765 1083 2183 4179 4150 5304 4174 7183 5803 4844 5197 7018 3089 6224 4513 3075 5344 5275 6868 2261 6824 2268 3741 6571 4125 6624 5342 5522 4326 7798 6632 7049 3608 3578 6575 5124 7039 2864 5646 4238 4101
4796 4109 7215 914 8254 7352 2738 3206 7743 6846 4841 6199 5733 3859 7212 4456 3614 6078 3113 0 2622 7556 2160 3068 5820 8908 7455 4668 4512 1582 3318 6867 9410 4706 5534 5594 6619 4888 5383 5486 4425 4836 7723 1823 8164 3744 6497 5643 2196 7683 4234 4823 5514 4642 3747 5685 2218 4870 6308 4488 5905 8095 3736 7349 3757 7565 3835 2358 2079 4482 2205 7254 3837 4023 4598 2175 3174 3867 6170 7055 6832 6589 3401 6685 969 5245 8379 2991 5351 7618 6380 8049 4932 967 2233 2264 926 3350 5399 3734
5098 2916 3497 6521 5449 7292 5646 6382 6704 7650 4978 8117 8183 3493 6615 6223 2435 2160 6068 2622 0 2826 1957 4877 1763 6875 5648 2112 3943 1091 691 5826 6875 948 7322 5027 3915 6398 5193 5683 7395 8300 4203 5400 4799 5182 6230 9124 8747 2310 6092 4012 6623 4215 7702 2648 6171 2734 2946 3884 1257 6417 3194 6172 3685 5827 3323 4712 2550 6329 3797 4584 1159 3201 2735 3931 3153 6007 3887 5130 6284 2131 4438 1324 8075 3569 7670 4293 6558 6849 7480 6898 3381 7755 1877 3023 7135 4863 1616 5043
6659 4578 6592 4390 2162 5214 4178 8235 9716 6640 6859 7369 5118 6179 4956 6322 3960 1608 6917 7556 2826 0 5551 4363 4914 7989 3643 4231 6916 4738 4605 8412 5524 8430 3832 4062 4065 5805 5421 5449 4343 1440 4565 7613 7091 9005 1380 5380 3105 8168 4997 5958 4831 7186 5013 3002 6593 4037 4624 7406 3460 6856 4927 5493 1066 4280 5686 4444 5808 6203 5384 3439 1380 2345 6061 7698 6978 5873 5635 7646 5047 3793 6412 3858 3924 3028 4514 7509 4243 1317 784 5129 8978 3789 3266 9072 5044 3628 5598 4640
7395 5518 6547 4989 7808 3942 6546 2186 4779 4280 3061 4362 7797 5296 3084 7506 6669 2635 1591 2160 1957 5551 0 6687 3859 7917 6993 6663 6490 2988 1147 4947 3809 5787 5343 4797 3883 3764 4448 4279 6708 3733 7590 3007 7829 3391 3458 8551 3925 7531 4477 6023 8760 7946 7588 6366 2903 1865 7781 6756 2841 3570 7401 5597 9816 5816 5274 6876 6935 4680 4150 1257 918 6753 4083 904 5774 7632 2970 6491 3210 1653 6614 4077 3217 8092 7335 3599 2653 5525 200 6485 4493 6351 4041 3732 5195 2140 4414 8390
1147 2912 4797 2682 6510 4345 4551 4775 6294 3270 2710 4560 6074 1182 7033 3473 3698 6180 4947 3068 4877 4363 6687 0 5988 2738 7705 6601 5132 7972 5916 6079 8756 2546 9138 6646 4295 3998 7918 7424 842 4615 2798 5107 6203 7643 5520 8809 4127 5840 4516 3577 5429 9201 5222 786 5794 5768 3602 5973 6129 5205 1542 856 7152 5796 8623 3177 7513 6685 5287 2713 3131 8735 4597 4308 4955 7823 825 7719 8009 2081 9524 4385 6317 1602 1748 4880 3648 8341 2677 2867 7551 4834 5026 2629 3935 5160 8047 1011
4325 6270 5873 3441 5099 6508 7144 5977 7616 6332 7447 7050 8012 5669 7118 2403 8628 4232 6714 5820 1763 4914 3859 5988 0 7627 5003 7316 3558 3389 6745 5951 7412 3466 4838 4917 5163 4852 3556 1462 8342 5441 3747 1674 3536 6677 4755 2339 2951 7348 2402 6909 6317 2790 3347 5216 4838 4397 4453 6750 5928 3186 2163 2684 4825 4939 2288 5450 2181 9748 7891 6543 3649 2874 3286 2944 5787 4177 5983 3851 9165 4394 2721 3521 4632 3792 5018 6451 2241 5658 7242 2214 2666 1583 5711 9155 4607 5086 7729 4016
7134 1530 6604 3125 1857 7955 8574 3141 9478 2691 4409 916 3912 8564 5897 6563 5300 6698 6867 8908 6875 7989 7917 2738 7627 0 2783 5229 4497 8441 7006 4245 6038 2982 4221 7984 6437 3283 9085 1467 7293 4298 7439 3555 7186 5031 4345 4400 1508 7024 5434 3964 6946 881 7856 4666 4394 3904 6417 5593 7815 5600 4566 8214 4718 3203 6180 8946 3753 3686 4510 4396 5575 3794 7520 6619 1428 6878 6456 6182 5645 3190 3086 4024 1441 5502 4423 9492 6160 3484 6838 5459 6778 3367 2703 4805 3786 5799 5976 4665
5039 6917 2719 4196 8505 6481 5563 8578 5135 1640 5673 5245 3570 4101 7158 4489 1798 2317 9706 7455 5648 3643 6993 7705 5003 2783 0 7758 3099 3416 3672 6314 5984 4871 6640 2031 7590 3438 5495 4646 8287 2185 1809 3112 3963 5213 9525 3993 6757 1744 1714 3792 4389 3354 8005 242 4230 4359 2635 8899 3280 2228 7948 1868 3912 3808 4744 2798 467 2134 5918 6947 847 6486 7086 3069 6786 5445 6551 4446 4200 3697 3244 1083 6675 5649 7574 7463 2321 4496 5828 2831 8463 7132 3728 5530 6343 5785 4395 3257
653 5655 4228 5021 5370 2163 5735 3520 3851 5800 7268 1376 2703 4672 3360 8498 3277 4465 3624 4668 2112 4231 6663 6601 7316 5229 7758 0 7662 5303 7568 5478 5734 8912 3779 5622 3185 1106 2991 5026 6015 6740 5838 7172 2287 3996 2782 7442 2646 4753 5606 8056 8170 7422 4602 5434 4688 9083 8258 707 4667 5190 1150 3351 4255 4831 4391 8163 3878 8687 4199 6271 4592 4055 6091 5384 3909 5935 8817 5587 7766 8828 1399 4574 3768 8290 6539 4098 657 5624 8544 9469 6083 4870 7251 5489 7613 5604 7487 7341
6465 8858 4459 4857 4269 4091 4472 3670 7642 5146 1830 6052 4169 5887 4939 6273 7951 3275 4525 4512 3943 6916 6490 5132 3558 4497 3099 7662 0 1304 5293 6308 6769 6810 1291 5800 6030 7925 2260 6399 5319 3290 5778 4277 4598 8896 6516 7510 5603 5946 6677 7461 2759 5676 8384 3496 5991 8489 1695 3247 7441 5220 6313 3986 3092 5729 7745 3353 3735 2528 2892 5652 7097 6243 8493 2398 5792 7657 4001 3599 5176 6243 2660 1688 4737 4497 6089 5687 8542 5953 4755 1045 7647 4954 5339 2743 3483 4692 9300 5954
7719 4897 7932 4648 2108 3403 3344 628 6656 8926 4912 2729 7118 4042 5275 2876 4749 5142 3968 1582 1091 4738 2988 7972 3389 8441 3416 5303 1304 0 5765 5048 5649 6066 3793 7688 7978 2807 5020 2633 2368 3717 5029 4173 9186 2790 4323 1992 6477 8062 7865 6418 1824 6734 5841 826 7514 8398 5563 6458 4292 4298 8170 7195 7324 6120 3942 1609 6454 1749 1055 7935 3860 4980 5233 1104 6075 4149 3919 5650 3498 7174 5350 3297 4195 1061 6638 6672 3862 1958 4502 8496 5126 6378 6872 8299 5283 6770 5504 6708
5323 4750 3204 3322 5227 3533 5358 3419 4059 1011 6964 7775 5341 6187 7653 1617 7989 4908 3237 3318 691 4605 1147 5916 6745 7006 3672 7568 5293 5765 0 8121 5338 8085 3311 6204 3754 7122 4552 9786 8307 4834 2299 4392 4178 671 8385 5083 4920 5645 7220 9445 5540 99 2507 1674 1407 3958 9000 4052 4599 4903 6021 1627 4858 4440 4884 5037 7939 4117 4525 7716 7117 5700 2233 7584 4082 4291 6424 8110 967 5593 3151 1631 3948 8400 4069 2269 5092 8728 6395 4736 8022 3324 5575 6470 5626 3619 6053 2059
3345 5901 4689 4805 4761 3769 2201 1333 4348 7572 7850 423 2035 6736 8476 4818 6383 5567 7517 6867 5826 8412 4947 6079 5951 4245 6314 5478 6308 5048 8121 0 1283 2514 4947 8570 4456 6426 3262 6535 8529 9593 9480 3625 6569 5685 3200 4426 5546 2927 4025 2245 2623 5605 5075 7009 2431 5291 2931 5060 4957 2725 4808 8509 5470 5686 6013 4430 3467 9039 6221 4572 8310 6303 4762 3308 8876 2495 3508 1779 5531 8126 5776 7080 6244 3643 260 8747 6337 7041 4725 6746 3871 6701 4776 7787 6871 3750 2160 5324
2770 7445 8039 9374 7960 4759 3951 3227 1558 6879 8252 6703 6483 5230 4458 497 7260 6396 4524 9410 6875 5524 3809 8756 7412 6038 5984 5734 6769 5649 5338 1283 0 2078 6899 4264 7565 6430 5751 2862 8874 3429 7711 2974 4247 3907 6138 5090 5189 5682 7787 2667 3207 6570 5018 3215 3052 5063 4985 3569 4010 4814 5591 5073 1839 5757 885 6555 5933 1095 7125 2396 3112 3881 1834 2879 759 2008 3125 4608 1551 3846 7037 2369 4457 1285 5373 6996 5644 1489 2452 5485 4686 7962 3763 4342 4766 2836 3696 7694
6261 2632 6850 4318 5611 3724 7964 5196 6114 2184 7029 6274 8322 2825 4716 4878 6191 7232 3157 4706 948 8430 5787 2546 3466 2982 4871 8912 6810 6066 8085 2514 2078 0 5887 3617 4523 6441 5398 4965 4800 3827 6815 6018 6406 3568 2515 5981 5729 7629 1476 5502 6846 2507 3848 3894 5306 2934 1260 2253 7370 2989 4894 5915 5955 3292 3888 2155 8453 7953 7631 5259 3593 2511 7773 6497 3063 3502 5793 4168 1893 8889 3590 2870 4698 4949 8653 4840 4038 6668 979 4383 7518 4586 4744 6476 7177 6994 2542 4371
633 6238 1356 3399 3418 4087 3154 5270 4389 5015 4992 4723 5818 59 6077 5302 908 1884 1468 5534 7322 3832 5343 9138 4838 4221 6640 3779 1291 3793 3311 4947 6899 5887 0 4840 3685 8293 7844 8018 5910 6517 8041 5852 6913 8581 6736 3808 4509 2237 623 8457 4316 2662 3889 8345 4627 1178 2305 4879 4732 6298 5575 4462 5581 3339 3264 7832 7237 4801 5929 6964 7664 3633 3881 4204 3968 3985 9469 5071 6763 2072 3779 5837 4496 3175 2909 4986 225 5978 5141 4838 5304 6704 9517 5386 8455 4607 4986 6710
3708 6606 2278 8956 7192 2459 1491 5890 8272 3866 6147 2223 4855 3954 8758 8564 7703 4771 6959 5594 5027 4062 4797 6646 4917 7984 2031 5622 5800 7688 6204 8570 4264 3617 4840 0 6333 5548 6807 5924 7251 4817 6768 2878 3932 955 5389 1189 6135 6266 5268 4413 896 3179 8339 6281 7287 7918 6396 9383 4725 7997 4394 3888 7753 2205 4302 5609 2735 6112 5185 3600 6037 2104 8894 5213 4059 1679 3920 8036 9327 3154 3975 4781 5520 6176 4802 9187 232 3773 6697 5294 1262 4193 8212 4015 2779 5061 4202 7747
4371 555 4647 5985 3392 4716 9434 4705 6499 6981 7784 1085 7504 3874 3752 4117 2640 4536 9399 6619 3915 4065 3883 4295 5163 6437 7590 3185 6030 7978 3754 4456 7565 4523 3685 6333 0 2525 6616 5132 3854 7205 4618 1024 2844 6127 2458 5433 4847 7163 6433 711 6053 4793 7721 5410 5046 4609 5999 4069 3873 3557 5406 3467 4276 763 2240 6130 3755 2999 4633 4327 4353 7127 2127 1884 7903 4997 4666 2097 8201 8695 8430 4430 7205 1898 5293 7717 6350 7209 6396 5525 9159 4448 2808 4068 6038 6480 5590 3875
6244 4000 8091 5243 8155 3660 3599 6530 7513 5568 5395 6681 1163 6255 8831 7912 5442 5974 4044 4888 6398 5805 3764 3998 4852 3283 3438 1106 7925 2807 7122 6426 6430 6441 8293 5548 2525 0 1749 5133 1632 1490 2088 3636 1647 8308 1870 4001 2656 4021 6612 5367 2867 3656 3170 2089 2457 6934 4532 3065 1837 1626 4031 5706 5259 2597 6462 5395 5963 4634 3312 3282 2386 3637 2724 3088 4868 7042 8416 2903 1828 3543 3655 1942 4377 2764 6957 7056 9314 2419 4604 1212 3272 3303 4750 7277 4651 1500 3653 3818
4511 4475 7128 1306 1635 1779 9360 6188 3093 4937 5204 2327 1124 9090 5547 7142 1894 7716 4096 5383 5193 5421 4448 7918 3556 9085 5495 2991 2260 5020 4552 3262 5751 5398 7844 6807 6616 1749 0 5872 4915 1015 4514 9436 1120 4963 3701 6822 4418 5852 5090 3432 3173 4238 6574 4596 7209 7598 6036 8581 8998 2981 6544 9244 8104 3717 4920 7967 6112 6411 3810 715 3159 7528 4142 5088 4562 5325 2685 4678 5343 7398 5290 5362 1900 3774 2899 4080 3169 2453 3491 4298 7194 3243 3795 8006 7676 6489 2172 5720
4409 1666 4681 5869 5124 529 6476 3676 4675 6939 3623 1891 4412 3195 818 4607 7510 4912 1503 5486 5683 5449 4279 7424 1462 1467 4646 5026 6399 2633 9786 6535 2862 4965 8018 5924 5132 5133 5872 0 8458 6626 3820 5841 5143 5334 3090 5472 7933 3682 6003 6163 3727 6685 8458 4901 5865 2821 6923 5499 4201 3155 3440 5805 5773 5517 2900 7078 4906 7255 4440 6412 6352 2215 1063 6307 4975 3206 5834 8283 3726 9341 6361 5000 7875 8671 3385 5531 2236 3720 4228 3281 5614 6394 6105 3988 5344 4583 1447 6396
4070 7436 6456 3478 8565 6763 2501 5163 482 4088 7428 5397 2432 6292 4242 5329 4903 3444 772 4425 7395 4343 6708 842 8342 7293 8287 6015 5319 2368 8307 8529 8874 4800 5910 7251 3854 1632 4915 8458 0 2382 6632 5471 9022 3249 2507 6483 4970 3757 2283 7144 5057 8188 4904 4603 3020 3166 6653 5840 4661 3692 1328 2730 5723 2574 7180 1453 8251 5497 2843 6801 8906 5072 7586 3373 915 3148 2170 1723 4882 2349 5218 5500 5265 2630 3301 7176 4694 3163 1714 3046 5914 1612 3215 6071 6712 3287 4399 5400
4589 3437 2390 4961 8884 8026 7522 6864 5759 3506 2121 3888 4739 4989 1927 3801 4381 7418 3444 4836 8300 1440 3733 4615 5441 4298 2185 6740 3290 3717 4834 9593 3429 3827 6517 4817 7205 1490 1015 6626 2382 0 5657 5706 6060 3106 7341 5852 4104 9005 3742 4912 3299 4576 6950 2704 3089 2751 7184 5659 5046 7539 5228 5616 4085 832 4408 9466 7047 588 6026 4427 3680 5774 2105 1853 3065 5066 7809 2408 3460 3365 6880 4125 2507 2600 5068 6653 3468 5567 4857 3668 3584 3704 5042 3264 4193 8708 1228 2994
4219 3976 3872 4767 3826 5816 5370 3001 7649 1721 2982 4666 4776 3244 7305 4770 1056 2876 731 7723 4203 4565 7590 2798 3747 7439 1809 5838 5778 5029 2299 9480 7711 6815 8041 6768 4618 2088 4514 3820 6632 5657 0 8095 5523 6266 6565 8207 2352 4730 3343 6161 7765 990 3457 4629 8458 6007 5076 7308 4839 4477 6090 8193 4897 5991 4541 1656 4124 5113 5096 4431 6229 5965 5003 5145 8264 3961 7282 6797 5165 7435 6615 6449 850 2336 2689 5703 6592 5666 4309 4603 8455 3282 5555 5027 9005 3417 8928 5144
2510 7937 3900 5457 3062 4790 4707 3987 4471 3694 6273 6466 4432 6563 3334 4911 3839 8721 180 1823 5400 7613 3007 5107 1674 3555 3112 7172 4277 4173 4392 3625 2974 6018 5852 2878 1024 3636 9436 5841 5471 5706 8095 0 1209 2876 3980 5971 4779 3625 5069 4593 3172 5324 7798 5809 2754 5400 5234 6138 3874 1110 7194 9179 5719 5853 2708 8529 6396 2440 3888 9540 1699 4098 5849 7251 8270 2592 5133 4462 2650 5166 6857 6679 4003 4712 844 7176 2091 3934 5119 5772 6894 2427 9547 3485 5475 3695 2888 4357
1629 3500 6379 6119 5540 5837 3091 6394 4600 4649 2447 3079 4947 7570 7156 4092 1649 4037 3847 8164 4799 7091 7829 6203 3536 7186 3963 2287 4598 9186 4178 6569 4247 6406 6913 3932 2844 1647 1120 5143 9022 6060 5523 1209 0 2577 4149 4031 5968 5537 5262 2450 1999 3865 6160 5807 3343 2004 4682 3014 935 3180 3303 2624 7941 6473 3279 6707 4563 6907 4480 1942 6039 6579 8116 5102 5011 3618 8748 4583 1732 1899 4291 4240 7165 4263 2964 5597 2269 3404 8672 2983 3766 3966 2804 2922 4961 3648 1060 4544
7036 2810 9635 1829 731 3912 6406 2164 4664 4548 5080 5693 3157 5460 4876 6028 5023 3245 5765 3744 5182 9005 3391 7643 6677 5031 5213 3996 8896 2790 671 5685 3907 3568 8581 955 6127 8308 4963 5334 3249 3106 6266 2876 2577 0 2220 5679 5076 5426 4789 3651 6538 7811 6870 3615 4616 6905 2602 4523 4863 5807 1423 4459 3051 5610 2284 5615 2422 5943 2308 2763 7241 3640 7329 6471 5241 6357 5364 4927 4983 7971 6055 8116 7361 3121 1367 3685 7221 9391 6328 5347 2967 5423 7828 2863 1266 2714 4904 4126
7197 5935 779 4394 4726 2633 8814 3128 4903 2487 6872 6346 2344 7987 4210 6566 2370 5633 6301 6497 6230 1380 3458 5520 4755 4345 9525 2782 6516 4323 8385 3200 6138 2515 6736 5389 2458 1870 3701 3090 2507 7341 6565 3980 4149 2220 0 3614 5294 7239 757 7091 8085 3535 2060 7457 2994 8798 3969 6201 8226 4508 7329 5605 4696 4808 6599 7253 5922 3340 3816 7898 3285 7047 5136 4068 9453 3457 4281 5109 3035 3649 5288 1365 2131 1305 4957 3291 3986 1423 2666 2330 4744 8099 7729 5903 6267 4623 8504 7377
3477 5696 4755 5408 3785 3929 3464 7133 3679 2340 3257 5983 7913 4676 4850 6307 4176 2077 3233 5643 9124 5380 8551 8809 2339 4400 3993 7442 7510 1992 5083 4426 5090 5981 3808 1189 5433 4001 6822 5472 6483 5852 8207 5971 4031 5679 3614 0 4445 2804 9565 7168 5646 5254 4929 4785 4018 6638 7846 5952 2945 6315 5459 6202 6325 8479 2591 1752 913 5970 3429 8453 1643 1932 3495 3591 7550 3008 5152 6392 5229 2678 4536 3199 6469 4336 4116 5188 3890 2122 4583 1188 6302 4917 3696 4213 4158 3192 8266 7422
3867 2978 7034 2086 4843 4556 1532 6695 5209 3481 5553 6853 3538 5126 5077 4541 7125 6348 6673 2196 8747 3105 3925 4127 2951 1508 6757 2646 5603 6477 4920 5546 5189 5729 4509 6135 4847 2656 4418 7933 4970 4104 2352 4779 5968 5076 5294 4445 0 1549 4941 5208 2605 6042 7558 3477 4832 8884 7324 1110 5308 7473 5637 6619 7609 6297 4391 6355 7878 3338 6494 2502 6560 6976 9835 8629 5059 3122 3541 3733 4847 3944 2872 5519 6277 5223 6964 7441 1190 6905 4516 6296 3190 4383 5461 5267 4232 6906 4984 6020
4835 6006 3338 8689 6881 5791 5908 5015 6238 386 4167 4584 4888 4642 1105 5063 3509 7711 582 7683 2310 8168 7531 5840 7348 7024 1744 4753 5946 8062 5645 2927 5682 7629 2237 6266 7163 4021 5852 3682 3757 9005 4730 3625 5537 5426 7239 2804 1549 0 4331 5387 8791 7227 7874 5216 8935 3841 7158 6268 3519 6297 7694 1832 6134 481 4862 5711 8579 3693 4095 3977 4362 5340 5076 7379 1919 3776 6494 7932 1570 3142 7199 871 2690 4585 5348 8721 439 347 4312 8978 8276 7000 6006 7065 8342 5545 2353 2535
8377 3918 4955 1993 5284 4829 1715 3151 3022 6935 6087 4079 6453 2816 8553 4659 7025 464 8589 4234 6092 4997 4477 4516 2402 5434 1714 5606 6677 7865 7220 4025 7787 1476 623 5268 6433 6612 5090 6003 2283 3742 3343 5069 5262 4789 757 9565 4941 4331 0 5226 3953 2756 1894 2086 3049 7547 3140 5750 2951 2090 7363 5325 7230 4394 7449 4655 4038 6101 3247 5016 3313 7821 3117 3392 3482 2671 6764 3327 5223 3763 2801 2060 4979 4923 5468 4459 3058 3175 6103 4075 7597 4463 5463 7523 4978 5344 4911 3461
2265 3940 3364 5448 6743 6341 5569 8429 6249 6031 7866 5456 3513 888 4446 3342 1383 4394 1440 4823 4012 5958 6023 3577 6909 3964 3792 8056 7461 6418 9445 2245 2667 5502 8457 4413 711 5367 3432 6163 7144 4912 6161 4593 2450 3651 7091 7168 5208 5387 5226 0 2924 7287 6683 6197 5358 1372 2034 4086 4528 8792 1415 2725 3881 5193 3525 9579 8241 4872 2998 4378 9260 4215 6596 7005 6014 6896 3967 6399 2241 3275 3690 4722 3834 6660 3548 3014 4462 5365 6185 4833 3108 475 4372 3533 4609 6591 3495 9078
4485 8418 5896 4922 8026 275 4823 3698 5135 7995 5259 5801 1901 3177 7845 7454 3506 7383 6774 5514 6623 4831 8760 5429 6317 6946 4389 8170 2759 1824 5540 2623 3207 6846 4316 896 6053 2867 3173 3727 5057 3299 7765 3172 1999 6538 8085 5646 2605 8791 3953 2924 0 7312 5156 2243 4227 4609 2863 3929 2970 8939 3379 7056 2419 2377 4691 6870 6744 3737 1913 5447 4135 7912 1673 3112 6089 4537 7002 6979 1226 9527 3256 2120 4742 7712 7546 1971 5560 4946 1302 6184 818 4825 9167 6650 4765 7596 5744 1670
7450 6124 8209 4144 3335 7079 1893 2134 4604 7898 5268 7102 4243 7449 8696 4810 2669 6496 4028 4642 4215 7186 7946 9201 2790 881 3354 7422 5676 6734 99 5605 6570 2507 2662 3179 4793 3656 4238 6685 8188 4576 990 5324 3865 7811 3535 5254 6042 7227 2756 7287 7312 0 4578 6387 8613 5155 7882 4835 2077 7968 4028 2551 4203 4030 7499 8182 4156 4845 3435 3270 3752 1992 7200 963 7144 6672 4575 4917 5734 5473 7584 7624 2884 5437 4993 981 3797 3088 4606 5935 4681 3814 4755 3554 7134 5058 1735 4726
5101 2085 3077 2976 4737 1292 8224 3680 4240 6640 5137 6508 3454 4363 6092 9058 4334 3223 9111 3747 7702 5013 7588 5222 3347 7856 8005 4602 8384 5841 2507 5075 5018 3848 3889 8339 7721 3170 6574 8458 4904 6950 3457 7798 6160 6870 2060 4929 7558 7874 1894 6683 5156 4578 0 5851 4546 2547 5098 8604 4781 5019 2752 4676 3829 3167 3582 6203 7133 3430 5742 2600 8624 6957 297 5653 4409 987 8309 6365 7210 6746 2505 6598 4795 5598 7113 5632 254 4695 5480 3767 3470 1294 5449 7591 4291 2583 6730 3443
5369 8058 5702 6198 4709 4564 8298 5969 7464 2444 5178 4942 2522 5242 3647 174 5111 7876 8203 5685 2648 3002 6366 786 5216 4666 242 5434 3496 826 1674 7009 3215 3894 8345 6281 5410 2089 4596 4901 4603 2704 4629 5809 5807 3615 7457 4785 3477 5216 2086 6197 2243 6387 5851 0 4544 1159 1884 2111 1501 5483 4743 1940 2339 1117 3493 1465 2667 3963 4179 2708 7651 3871 364 6317 5192 8371 7347 5147 5287 4115 7733 4210 2292 5078 5196 3083 8228 5456 4849 1398 2352 5291 3587 8970 4209 4788 4933 2339
2887 5288 3613 4304 3275 3381 5853 5470 5936 7193 3785 2343 7063 4083 5012 5209 944 7297 4434 2218 6171 6593 2903 5794 4838 4394 4230 4688 5991 7514 1407 2431 3052 5306 4627 7287 5046 2457 7209 5865 3020 3089 8458 2754 3343 4616 2994 4018 4832 8935 3049 5358 4227 8613 4546 4544 0 7577 6983 4944 4469 5020 2396 6306 7108 5701 3552 1769 5051 6439 1434 4289 9000 7051 4726 6978 6633 5024 3446 6839 4682 8031 6636 6085 6890 2586 4395 2522 4769 8428 6257 4057 8994 6094 5711 7602 4972 7010 7378 4605
5798 7435 3414 8706 3836 6847 4568 4932 1928 5745 6846 2219 6252 7070 3553 4465 5455 7523 2539 4870 2734 4037 1865 5768 4397 3904 4359 9083 8489 8398 3958 5291 5063 2934 1178 7918 4609 6934 7598 2821 3166 2751 6007 5400 2004 6905 8798 6638 8884 3841 7547 1372 4609 5155 2547 1159 7577 0 3610 6899 3220 2690 3931 2288 6406 8103 7479 3672 7450 3115 1769 8245 477 5813 6882 5713 4258 7508 7891 6087 3219 1914 3400 5118 6403 6562 6968 5645 5335 7048 4375 6025 6297 5673 7957 4158 1375 7691 3710 5217
8461 672 5834 7565 5141 7194 7728 6239 4136 3277 3873 5505 5756 8163 8099 3631 6169 4845 2075 6308 2946 4624 7781 3602 4453 6417 2635 8258 1695 5563 9000 2931 4985 1260 2305 6396 5999 4532 6036 6923 6653 7184 5076 5234 4682 2602 3969 7846 7324 7158 3140 2034 2863 7882 5098 1884 6983 3610 0 3224 5470 8279 7410 5610 5370 5278 4177 5420 3625 2919 2674 2483 7814 3403 3844 5561 3074 1687 4212 2684 8247 2998 4542 5520 7294 3904 4539 4471 3576 4459 5620 5126 3868 2820 3990 4828 3315 3279 4872 3158
4423 3517 3348 6812 2797 5878 4392 2327 7922 4202 5847 6958 4128 4922 2024 5421 2412 3596 4765 4488 3884 7406 6756 5973 6750 5593 8899 707 3247 6458 4052 5060 3569 2253 4879 9383 4069 3065 8581 5499 5840 5659 7308 6138 3014 4523 6201 5952 1110 6268 5750 4086 3929 4835 8604 2111 4944 6899 3224 0 8680 1331 2556 6990 7958 4567 5300 2909 7263 5609 6595 6845 6548 2135 3967 3741 8454 8647 2572 9479 5713 6596 7645 2959 7462 7521 4499 3669 7936 6821 4672 1381 4764 7438 3217 3265 4148 3159 2570 2701
8644 4997 6689 7116 5392 2941 7221 6737 1102 4263 1290 7077 2440 8335 801 2482 6885 4220 1083 5905 1257 3460 2841 6129 5928 7815 3280 4667 7441 4292 4599 4957 4010 7370 4732 4725 3873 1837 8998 4201 4661 5046 4839 3874 935 4863 8226 2945 5308 3519 2951 4528 2970 2077 4781 1501 4469 3220 5470 8680 0 5698 7887 4769 7733 5594 4477 4971 4169 1903 5064 5974 5212 8611 4134 9018 1819 4853 6473 3620 7567 5310 3362 5630 4997 2524 6267 5857 3877 2912 4948 8657 3408 5235 3450 5172 4239 6318 3158 8018
5712 8099 6748 4940 4830 4996 8287 2941 5359 2351 8237 6983 3758 3929 6468 4869 8060 7881 2183 8095 6417 6856 3570 5205 3186 5600 2228 5190 5220 4298 4903 2725 4814 2989 6298 7997 3557 1626 2981 3155 3692 7539 4477 1110 3180 5807 4508 6315 7473 6297 2090 8792 8939 7968 5019 5483 5020 2690 8279 1331 5698 0 4461 5854 4413 5745 5448 3885 5131 3498 3880 4469 6137 2978 4988 5637 7187 4824 6056 3332 4660 3243 2718 4264 4401 7862 2411 3922 4058 5156 6791 3490 5488 6997 804 3672 1980 5853 4145 6409
8476 2104 4421 5490 4231 5348 2147 3071 1771 6420 7674 7745 8104 7701 4829 6053 3012 5009 4179 3736 3194 4927 7401 1542 2163 4566 7948 1150 6313 8170 6021 4808 5591 4894 5575 4394 5406 4031 6544 3440 1328 5228 6090 7194 3303 1423 7329 5459 5637 7694 7363 1415 3379 4028 2752 4743 2396 3931 7410 2556 7887 4461 0 4644 6210 8460 7191 5872 2590 9034 1598 7031 2837 5546 5033 2481 4331 3695 7770 3497 6101 5229 4402 3674 5612 3776 6194 6433 6806 2027 4857 7288 4127 8232 7515 8107 6253 5277 6547 6790
3619 4171 5909 6131 5825 6912 5116 2626 6946 4133 6185 3367 8446 1627 3307 4120 5752 4745 4150 7349 6172 5493 5597 856 2684 8214 1868 3351 3986 7195 1627 8509 5073 5915 4462 3888 3467 5706 9244 5805 2730 5616 8193 9179 2624 4459 5605 6202 6619 1832 5325 2725 7056 2551 4676 1940 6306 2288 5610 6990 4769 5854 4644 0 5620 6537 5716 3363 7020 6532 3225 5790 831 1640 2550 5300 6470 4274 662 4448 1784 3084 7529 3766 3484 5253 4385 2281 1877 6636 2783 6564 5406 2872 4443 3486 1491 7664 5534 2698
4697 4655 5573 5622 6764 5453 1901 5946 3942 5365 2210 3881 4174 446 8530 6582 2561 6605 5304 3757 3685 1066 9816 7152 4825 4718 3912 4255 3092 7324 4858 5470 1839 5955 5581 7753 4276 5259 8104 5773 5723 4085 4897 5719 7941 3051 4696 6325 7609 6134 7230 3881 2419 4203 3829 2339 7108 6406 5370 7958 7733 4413 6210 5620 0 7407 3325 6222 2210 6933 4665 4802 7329 4217 4452 9122 7141 5190 4566 6549 7605 6689 2874 4590 7570 4644 5170 4402 7785 7372 2318 3972 6362 5742 5690 5758 6516 6476 4148 5966
2324 4804 8903 3034 3681 9155 6116 4842 4149 7487 5481 997 4909 5779 6664 8112 4092 7412 4174 7565 5827 4280 5816 5796 4939 3203 3808 4831 5729 6120 4440 5686 5757 3292 3339 2205 763 2597 3717 5517 2574 832 5991 5853 6473 5610 4808 8479 6297 481 4394 5193 2377 4030 3167 1117 5701 8103 5278 4567 5594 5745 8460 6537 7407 0 939 3361 9623 7817 9263 8712 5582 4946 9061 4098 4362 5435 3010 3178 5561 6337 2032 1213 1079 5752 2168 2991 3444 5562 8347 5331 1365 810 6005 6175 3996 5054 3446 5927
3055 4417 4465 4548 4161 1472 3751 2332 2058 4075 6017 6678 7193 5896 1309 6063 4453 6301 7183 3835 3323 5686 5274 8623 2288 6180 4744 4391 7745 3942 4884 6013 885 3888 3264 4302 2240 6462 4920 2900 7180 4408 4541 2708 3279 2284 6599 2591 4391 4862 7449 3525 4691 7499 3582 3493 3552 7479 4177 5300 4477 5448 7191 5716 3325 939 0 6173 4974 2548 1909 3232 8194 1957 3023 4682 7184 5730 5962 4839 2823 7810 3509 8522 785 8521 3671 4492 1661 8735 6182 5869 3815 5190 3900 6302 5318 5025 2795 1082
4291 4676 5829 8260 4565 5717 2816 4013 7371 2026 4588 5084 5576 6362 5433 3450 4748 4376 5803 2358 4712 4444 6876 3177 5450 8946 2798 8163 3353 1609 5037 4430 6555 2155 7832 5609 6130 5395 7967 7078 1453 9466 1656 8529 6707 5615 7253 1752 6355 5711 4655 9579 6870 8182 6203 1465 1769 3672 5420 2909 4971 3885 5872 3363 6222 3361 6173 0 4811 5356 3019 5283 6284 3232 7602 5484 8589 2839 8127 1745 5092 8875 4686 5074 8050 5505 5973 5195 6551 2343 8442 455 3158 3934 5284 4236 3990 6746 5317 9288
8380 3491 3136 1351 4433 3839 5197 4149 4219 7683 4247 9250 5362 5270 1187 2292 170 6241 4844 2079 2550 5808 6935 7513 2181 3753 467 3878 3735 6454 7939 3467 5933 8453 7237 2735 3755 5963 6112 4906 8251 7047 4124 6396 4563 2422 5922 913 7878 8579 4038 8241 6744 4156 7133 2667 5051 7450 3625 7263 4169 5131 2590 7020 2210 9623 4974 4811 0 4012 3722 5419 6463 3991 7857 361 5921 4448 2635 8457 4806 3297 3123 2221 4377 6728 3933 1181 2069 6811 3763 5558 2724 1463 2714 7354 7225 7688 2259 6356
3271 3145 2471 5915 2396 6367 5385 6730 7722 7855 4175 6866 6121 1224 7207 1968 5073 3043 5197 4482 6329 6203 4680 6685 9748 3686 2134 8687 2528 1749 4117 9039 1095 7953 4801 6112 2999 4634 6411 7255 5497 588 5113 2440 6907 5943 3340 5970 3338 3693 6101 4872 3737 4845 3430 3963 6439 3115 2919 5609 1903 3498 9034 6532 6933 7817 2548 5356 4012 0 6014 6726 3825 6948 3697 8517 7076 7154 4807 8154 4500 5847 4023 4843 5041 4925 7113 7854 9180 5514 5209 5273 8511 4856 2563 7298 2919 4739 4881 1117
2470 3578 6939 8913 4189 919 7867 4862 4338 4798 3005 5419 2130 4285 2914 6068 5662 2670 7018 2205 3797 5384 4150 5287 7891 4510 5918 4199 2892 1055 4525 6221 7125 7631 5929 5185 4633 3312 3810 4440 2843 6026 5096 3888 4480 2308 3816 3429 6494 4095 3247 2998 1913 3435 5742 4179 1434 1769 2674 6595 5064 3880 1598 3225 4665 9263 1909 3019 3722 6014 0 3656 6660 2388 6096 4582 3548 2355 6297 8415 4803 6620 5448 4640 4986 2201 4721 2151 1474 2116 3224 5748 5583 2141 6701 5883 4580 4456 4347 8976
2820 5366 6885 2819 3429 6773 7671 6031 6574 7905 2015 7943 7004 3392 6969 5173 4101 6144 3089 7254 4584 3439 1257 2713 6543 4396 6947 6271 5652 7935 7716 4572 2396 5259 6964 3600 4327 3282 715 6412 6801 4427 4431 9540 1942 2763 7898 8453 2502 3977 5016 4378 5447 3270 2600 2708 4289 8245 2483 6845 5974 4469 7031 5790 4802 8712 3232 5283 5419 6726 3656 0 6340 5312 4371 7604 4699 5162 4486 2965 5144 5885 6605 6781 4653 1407 9517 4839 8005 6934 6969 3236 3699 8664 2953 6729 8004 3888 4985 3939
6803 4878 2483 4601 3339 6418 4885 4536 6101 3964 459 7364 5795 1654 6629 967 5609 5250 6224 3837 1159 1380 918 3131 3649 5575 847 4592 7097 3860 7117 8310 3112 3593 7664 6037 4353 2386 3159 6352 8906 3680 6229 1699 6039 7241 3285 1643 6560 4362 3313 9260 4135 3752 8624 7651 9000 477 7814 6548 5212 6137 2837 831 7329 5582 8194 6284 6463 3825 6660 6340 0 5093 8075 4379 1753 3176 2442 1456 6624 6789 2549 3884 4846 6367 8603 3848 5440 4035 5853 3668 6863 5598 9164 2337 5745 4582 4929 5650
6562 3654 4452 4364 1182 5190 7908 6021 3464 4220 3322 7095 7567 7315 5659 8235 2342 4916 4513 4023 3201 2345 6753 8735 2874 3794 6486 4055 6243 4980 5700 6303 3881 2511 3633 2104 7127 3637 7528 2215 5072 5774 5965 4098 6579 3640 7047 1932 6976 5340 7821 4215 7912 1992 6957 3871 7051 5813 3403 2135 8611 2978 5546 1640 4217 4946 1957 3232 3991 6948 2388 5312 5093 0 8197 5701 4255 2296 7781 7280 4680 3121 7697 5223 5464 4664 5176 5820 4054 4945 6647 6764 8278 1683 9362 342 6366 6133 6932 3182
6681 7602 4476 6170 7630 5749 4989 3273 7464 3921 7013 5032 7781 3093 7652 5983 4099 7904 3075 4598 2735 6061 4083 4597 3286 7520 7086 6091 8493 5233 2233 4762 1834 7773 3881 8894 2127 2724 4142 1063 7586 2105 5003 5849 8116 7329 5136 3495 9835 5076 3117 6596 1673 7200 297 364 4726 6882 3844 3967 4134 4988 5033 2550 4452 9061 3023 7602 7857 3697 6096 4371 8075 8197 0 4415 2675 1954 4624 5618 6185 5714 5116 5058 4171 569 7892 2451 8782 1276 4347 4774 6997 5548 7746 5751 7520 1746 2753 7006
6686 7327 6165 7740 4095 7855 7078 3522 5142 2232 4291 3970 4870 8281 3829 4347 6274 8488 5344 2175 3931 7698 904 4308 2944 6619 3069 5384 2398 1104 7584 3308 2879 6497 4204 5213 1884 3088 5088 6307 3373 1853 5145 7251 5102 6471 4068 3591 8629 7379 3392 7005 3112 963 5653 6317 6978 5713 5561 3741 9018 5637 2481 5300 9122 4098 4682 5484 361 8517 4582 7604 4379 5701 4415 0 6876 3196 5523 6577 6959 4375 4333 3980 2286 6360 4169 8433 5547 6162 5771 7941 3467 6999 4546 1899 5328 5997 9392 4121
1654 4990 8096 7722 5702 7087 7216 6329 4647 6154 1768 3016 2618 7028 3669 7615 4643 7460 5275 3174 3153 6978 5774 4955 5787 1428 6786 3909 5792 6075 4082 8876 759 3063 3968 4059 7903 4868 4562 4975 915 3065 8264 8270 5011 5241 9453 7550 5059 1919 3482 6014 6089 7144 4409 5192 6633 4258 3074 8454 1819 7187 4331 6470 7141 4362 7184 8589 5921 7076 3548 4699 1753 4255 2675 6876 0 7327 5218 2234 5877 4475 7975 5075 4071 7775 5968 5446 4525 669 2183 2790 2593 3484 6439 2596 6826 1779 7008 3933
7924 2153 8022 7082 3944 6421 4388 5279 2254 7482 4638 712 2683 6274 3653 4976 1106 4708 6868 3867 6007 5873 7632 7823 4177 6878 5445 5935 7657 4149 4291 2495 2008 3502 3985 1679 4997 7042 5325 3206 3148 5066 3961 2592 3618 6357 3457 3008 3122 3776 2671 6896 4537 6672 987 8371 5024 7508 1687 8647 4853 4824 3695 4274 5190 5435 5730 2839 4448 7154 2355 5162 3176 2296 1954 3196 7327 0 6635 5216 6033 1503 4511 1176 2393 1578 6934 8281 6748 8234 8214 1328 6479 1660 4099 4056 3269 3199 7433 1130
5875 4749 3650 4141 5137 6711 5978 1938 6525 5847 5332 5926 5825 5694 6460 3450 9213 5026 2261 6170 3887 5635 2970 825 5983 6456 6551 8817 4001 3919 6424 3508 3125 5793 9469 3920 4666 8416 2685 5834 2170 7809 7282 5133 8748 5364 4281 5152 3541 6494 6764 3967 7002 4575 8309 7347 3446 7891 4212 2572 6473 6056 7770 662 4566 3010 5962 8127 2635 4807 6297 4486 2442 7781 4624 5523 5218 6635 0 7424 8445 7590 3357 5934 9397 6688 5245 7108 3324 5763 3221 4464 6224 2788 5727 3122 5056 4888 4884 6110
5021 6944 5457 4200 6189 2906 4133 8082 4220 5113 6788 3063 5365 6513 6937 6289 7407 7095 6824 7055 5130 7646 6491 7719 3851 6182 4446 5587 3599 5650 8110 1779 4608 4168 5071 8036 2097 2903 4678 8283 1723 2408 6797 4462 4583 4927 5109 6392 3733 7932 3327 6399 6979 4917 6365 5147 6839 6087 2684 9479 3620 3332 3497 4448 6549 3178 4839 1745 8457 8154 8415 2965 1456 7280 5618 6577 2234 5216 7424 0 7956 3690 2559 6514 4900 561 3981 3435 5008 4907 3594 5997 5078 4291 5311 5865 5981 447 3168 4731
6181 7869 3330 6290 6865 3661 6343 7120 6471 6505 1527 6128 7019 5885 6375 2299 6853 3909 2268 6832 6284 5047 3210 8009 9165 5645 4200 7766 5176 3498 967 5531 1551 1893 6763 9327 8201 1828 5343 3726 4882 3460 5165 2650 1732 4983 3035 5229 4847 1570 5223 2241 1226 5734 7210 5287 4682 3219 8247 5713 7567 4660 6101 1784 7605 5561 2823 5092 4806 4500 4803 5144 6624 4680 6185 6959 5877 6033 8445 7956 0 1896 8662 2890 6480 766 4297 3571 2038 3938 960 5289 5215 5484 7511 8041 6240 3075 3833 5520
5834 6819 5497 2818 2693 2382 4311 8192 7143 4602 9244 7364 696 3412 6211 5687 3957 6668 3741 6589 2131 3793 1653 2081 4394 3190 3697 8828 6243 7174 5593 8126 3846 8889 2072 3154 8695 3543 7398 9341 2349 3365 7435 5166 1899 7971 3649 2678 3944 3142 3763 3275 9527 5473 6746 4115 8031 1914 2998 6596 5310 3243 5229 3084 6689 6337 7810 8875 3297 5847 6620 5885 6789 3121 5714 4375 4475 1503 7590 3690 1896 0 4438 884 4804 8707 4112 4034 8314 4292 3832 2041 6217 3499 6047 2851 5224 2858 4039 7951
2133 7318 4776 7127 1615 4985 1532 4798 5387 3426 2031 4539 4915 7785 4963 4224 5410 5730 6571 3401 4438 6412 6614 9524 2721 3086 3244 1399 2660 5350 3151 5776 7037 3590 3779 3975 8430 3655 5290 6361 5218 6880 6615 6857 4291 6055 5288 4536 2872 7199 2801 3690 3256 7584 2505 7733 6636 3400 4542 7645 3362 2718 4402 7529 2874 2032 3509 4686 3123 4023 5448 6605 2549 7697 5116 4333 7975 4511 3357 2559 8662 4438 0 3246 3568 7147 5254 8791 3273 7098 5139 7303 7510 6274 4013 5189 4006 3673 6014 1840
2857 6457 3772 6794 6983 4811 4963 7487 1494 5426 5396 2835 5491 4177 7774 4776 5986 1864 4125 6685 1324 3858 4077 4385 3521 4024 1083 4574 1688 3297 1631 7080 2369 2870 5837 4781 4430 1942 5362 5000 5500 4125 6449 6679 4240 8116 1365 3199 5519 871 2060 4722 2120 7624 6598 4210 6085 5118 5520 2959 5630 4264 3674 3766 4590 1213 8522 5074 2221 4843 4640 6781 3884 5223 5058 3980 5075 1176 5934 6514 2890 884 3246 0 6695 4099 6395 1829 5914 7656 3813 3428 7353 7997 2125 7416 6903 3919 4136 8144
4491 7132 2945 5048 4214 4590 2925 4398 3623 3309 5453 5108 4921 1739 8430 1196 8071 3213 6624 969 8075 3924 3217 6317 4632 1441 6675 3768 4737 4195 3948 6244 4457 4698 4496 5520 7205 4377 1900 7875 5265 2507 850 4003 7165 7361 2131 6469 6277 2690 4979 3834 4742 2884 4795 2292 6890 6403 7294 7462 4997 4401 5612 3484 7570 1079 785 8050 4377 5041 4986 4653 4846 5464 4171 2286 4071 2393 9397 4900 6480 4804 3568 6695 0 3792 5553 3567 7776 4408 3376 3972 6044 8089 203 2056 4562 7244 2724 2563
4405 802 6244 6317 8984 5858 4786 7331 9749 7093 7389 5411 8211 5843 7581 4475 4093 3460 5342 5245 3569 3028 8092 1602 3792 5502 5649 8290 4497 1061 8400 3643 1285 4949 3175 6176 1898 2764 3774 8671 2630 2600 2336 4712 4263 3121 1305 4336 5223 4585 4923 6660 7712 5437 5598 5078 2586 6562 3904 7521 2524 7862 3776 5253 4644 5752 8521 5505 6728 4925 2201 1407 6367 4664 569 6360 7775 1578 6688 561 766 8707 7147 4099 3792 0 1781 7479 6116 5694 5401 6986 4214 7838 7080 5111 1935 7632 4204 5082
6147 5542 5363 5522 8201 4571 5376 3612 2163 7553 3006 849 8014 6463 2771 5968 5188 6498 5522 8379 7670 4514 7335 1748 5018 4423 7574 6539 6089 6638 4069 260 5373 8653 2909 4802 5293 6957 2899 3385 3301 5068 2689 844 2964 1367 4957 4116 6964 5348 5468 3548 7546 4993 7113 5196 4395 6968 4539 4499 6267 2411 6194 4385 5170 2168 3671 5973 3933 7113 4721 9517 8603 5176 7892 4169 5968 6934 5245 3981 4297 4112 5254 6395 5553 1781 0 4128 4632 5741 7675 7503 4217 6741 4375 3270 8722 4717 1028 3667
6325 7116 2197 3835 4410 4656 8215 8819 4981 5969 5631 6894 6553 8586 4419 4430 3719 2650 4326 2991 4293 7509 3599 4880 6451 9492 7463 4098 5687 6672 2269 8747 6996 4840 4986 9187 7717 7056 4080 5531 7176 6653 5703 7176 5597 3685 3291 5188 7441 8721 4459 3014 1971 981 5632 3083 2522 5645 4471 3669 5857 3922 6433 2281 4402 2991 4492 5195 1181 7854 2151 4839 3848 5820 2451 8433 5446 8281 7108 3435 3571 4034 8791 1829 3567 7479 4128 0 5030 3702 5960 7999 8599 1788 685 6076 5879 3553 6002 3222
4713 4596 9049 2973 7441 4846 6486 3887 5915 4306 3751 3320 1934 7199 7278 5754 7036 9310 7798 5351 6558 4243 2653 3648 2241 6160 2321 657 8542 3862 5092 6337 5644 4038 225 232 6350 9314 3169 2236 4694 3468 6592 2091 2269 7221 3986 3890 1190 439 3058 4462 5560 3797 254 8228 4769 5335 3576 7936 3877 4058 6806 1877 7785 3444 1661 6551 2069 9180 1474 8005 5440 4054 8782 5547 4525 6748 3324 5008 2038 8314 3273 5914 7776 6116 4632 5030 0 3270 6880 2285 8402 3923 3879 4146 4120 3275 6108 8967
4786 9403 3044 5981 8793 4457 6765 5003 2868 5942 6025 6089 9176 6748 2761 8138 1094 4898 6632 7618 6849 1317 5525 8341 5658 3484 4496 5624 5953 1958 8728 7041 1489 6668 5978 3773 7209 2419 2453 3720 3163 5567 5666 3934 3404 9391 1423 2122 6905 347 3175 5365 4946 3088 4695 5456 8428 7048 4459 6821 2912 5156 2027 6636 7372 5562 8735 2343 6811 5514 2116 6934 4035 4945 1276 6162 669 8234 5763 4907 3938 4292 7098 7656 4408 5694 5741 3702 3270 0 8339 9201 6394 1070 4763 2214 3490 5306 1895 5220
1799 4761 4860 4777 5855 6371 6012 4767 1819 7586 9614 7661 7717 7035 7891 4230 8128 4538 7049 6380 7480 784 200 2677 7242 6838 5828 8544 4755 4502 6395 4725 2452 979 5141 6697 6396 4604 3491 4228 1714 4857 4309 5119 8672 6328 2666 4583 4516 4312 6103 6185 1302 4606 5480 4849 6257 4375 5620 4672 4948 6791 4857 2783 2318 8347 6182 8442 3763 5209 3224 6969 5853 6647 4347 5771 2183 8214 3221 3594 960 3832 5139 3813 3376 5401 7675 5960 6880 8339 0 5189 6236 2577 7387 6667 5693 5232 4328 4082
6087 6446 9029 4580 7337 5291 1598 5823 8104 3771 3761 3775 6432 3330 5113 5914 5862 4653 3608 8049 6898 5129 6485 2867 2214 5459 2831 9469 1045 8496 4736 6746 5485 4383 4838 5294 5525 1212 4298 3281 3046 3668 4603 5772 2983 5347 2330 1188 6296 8978 4075 4833 6184 5935 3767 1398 4057 6025 5126 1381 8657 3490 7288 6564 3972 5331 5869 455 5558 5273 5748 3236 3668 6764 4774 7941 2790 1328 4464 5997 5289 2041 7303 3428 3972 6986 7503 7999 2285 9201 5189 0 5999 3994 6171 6179 5704 3150 5675 5995
5575 6672 7700 5720 8019 5710 5979 3753 6514 5102 2886 6181 6315 6120 7819 5375 3695 3720 3578 4932 3381 8978 4493 7551 2666 6778 8463 6083 7647 5126 8022 3871 4686 7518 5304 1262 9159 3272 7194 5614 5914 3584 8455 6894 3766 2967 4744 6302 3190 8276 7597 3108 818 4681 3470 2352 8994 6297 3868 4764 3408 5488 4127 5406 6362 1365 3815 3158 2724 8511 5583 3699 6863 8278 6997 3467 2593 6479 6224 5078 5215 6217 7510 7353 6044 4214 4217 8599 8402 6394 6236 5999 0 2569 6919 3096 2877 4531 3246 2733
1140 3488 5150 1087 5871 3557 2915 6947 6906 3397 3309 7669 4281 6126 8115 2865 6425 3688 6575 967 7755 3789 6351 4834 1583 3367 7132 4870 4954 6378 3324 6701 7962 4586 6704 4193 4448 3303 3243 6394 1612 3704 3282 2427 3966 5423 8099 4917 4383 7000 4463 475 4825 3814 1294 5291 6094 5673 2820 7438 5235 6997 8232 2872 5742 810 5190 3934 1463 4856 2141 8664 5598 1683 5548 6999 3484 1660 2788 4291 5484 3499 6274 7997 8089 7838 6741 1788 3923 1070 2577 3994 2569 0 5821 6932 7422 8244 1940 3052
8000 5322 7109 5511 4247 3348 1861 7653 6737 7450 3724 1807 5536 6527 3040 6055 4885 6559 5124 2233 1877 3266 4041 5026 5711 2703 3728 7251 5339 6872 5575 4776 3763 4744 9517 8212 2808 4750 3795 6105 3215 5042 5555 9547 2804 7828 7729 3696 5461 6006 5463 4372 9167 4755 5449 3587 5711 7957 3990 3217 3450 804 7515 4443 5690 6005 3900 5284 2714 2563 6701 2953 9164 9362 7746 4546 6439 4099 5727 5311 7511 6047 4013 2125 203 7080 4375 685 3879 4763 7387 6171 6919 5821 0 7610 5151 5008 4258 4982
7563 9548 8999 4840 5681 4775 5112 4110 5119 8944 5565 5833 2620 3146 2920 6562 8347 5555 7039 2264 3023 9072 3732 2629 9155 4805 5530 5489 2743 8299 6470 7787 4342 6476 5386 4015 4068 7277 8006 3988 6071 3264 5027 3485 2922 2863 5903 4213 5267 7065 7523 3533 6650 3554 7591 8970 7602 4158 4828 3265 5172 3672 8107 3486 5758 6175 6302 4236 7354 7298 5883 6729 2337 342 5751 1899 2596 4056 3122 5865 8041 2851 5189 7416 2056 5111 3270 6076 4146 2214 6667 6179 3096 6932 7610 0 3107 4323 1835 8297
5074 6635 6227 5610 7922 6226 7017 6311 7868 4695 4882 4349 9572 2851 6909 4517 5483 1694 2864 926 7135 5044 5195 3935 4607 3786 6343 7613 3483 5283 5626 6871 4766 7177 8455 2779 6038 4651 7676 5344 6712 4193 9005 5475 4961 1266 6267 4158 4232 8342 4978 4609 4765 7134 4291 4209 4972 1375 3315 4148 4239 1980 6253 1491 6516 3996 5318 3990 7225 2919 4580 8004 5745 6366 7520 5328 6826 3269 5056 5981 6240 5224 4006 6903 4562 1935 8722 5879 4120 3490 5693 5704 2877 7422 5151 3107 0 5494 2742 7800
3315 8521 2436 8122 1072 4789 5185 6773 4131 6731 4593 6521 6217 8706 6599 6190 6004 5820 5646 3350 4863 3628 2140 5160 5086 5799 5785 5604 4692 6770 3619 3750 2836 6994 4607 5061 6480 1500 6489 4583 3287 8708 3417 3695 3648 2714 4623 3192 6906 5545 5344 6591 7596 5058 2583 4788 7010 7691 3279 3159 6318 5853 5277 7664 6476 5054 5025 6746 7688 4739 4456 3888 4582 6133 1746 5997 1779 3199 4888 447 3075 2858 3673 3919 7244 7632 4717 3553 3275 5306 5232 3150 4531 8244 5008 4323 5494 0 1936 3713
4397 2989 8211 7063 5770 5453 5860 5789 4096 4116 9528 5165 3569 2879 5558 3879 6244 7910 4238 5399 1616 5598 4414 8047 7729 5976 4395 7487 9300 5504 6053 2160 3696 2542 4986 4202 5590 3653 2172 1447 4399 1228 8928 2888 1060 4904 8504 8266 4984 2353 4911 3495 5744 1735 6730 4933 7378 3710 4872 2570 3158 4145 6547 5534 4148 3446 2795 5317 2259 4881 4347 4985 4929 6932 2753 9392 7008 7433 4884 3168 3833 4039 6014 4136 2724 4204 1028 6002 6108 1895 4328 5675 3246 1940 4258 1835 2742 1936 0 9268
8303 6841 5101 3582 4493 4855 5767 6673 4616 4593 6504 4416 5204 2293 1760 6885 5942 8560 4101 3734 5043 4640 8390 1011 4016 4665 3257 7341 5954 6708 2059 5324 7694 4371 6710 7747 3875 3818 5720 6396 5400 2994 5144 4357 4544 4126 7377 7422 6020 2535 3461 9078 1670 4726 3443 2339 4605 5217 3158 2701 8018 6409 6790 2698 5966 5927 1082 9288 6356 1117 8976 3939 5650 3182 7006 4121 3933 1130 6110 4731 5520 7951 1840 8144 2563 5082 3667 3222 8967 5220 4082 5995 2733 3052 4982 8297 7800 3713 9268 0
EOF
