NAME: family_B_clustered_n100_s0
TYPE: TSP
COMMENT: family_B_clustered generated explicit tsp
DIMENSION: 100
EDGE_WEIGHT_TYPE: EXPLICIT
EDGE_WEIGHT_FORMAT: FULL_MATRIX
EDGE_WEIGHT_SECTION
0 85 64 51 27 31 5 8 2 18 81 65 91 50 61 97 73 63 54 56 93 28 81 67 1 2485 3643 2885 1583 3412 3324 3616 1939 1723 3657 1555 2853 1700 2249 2702 2556 2508 1570 1513 1810 1520 3176 2814 3117 2143 3038 3410 2459 2652 3993 3512 3952 2448 3213 3875 3126 3600 3221 3260 2472 3687 1837 2947 3303 3613 2813 2438 2275 2557 2714 3297 3723 1682 3835 2828 2394 3181 2928 2136 2304 3298 2985 2761 2344 3401 2479 2320 3725 2159 2067 3285 3057 1621 1710 2442
85 0 83 40 78 32 24 79 87 8 6 67 34 57 15 86 45 89 79 70 23 76 6 57 41 3991 1996 3866 1726 3057 2950 3747 2246 3755 3179 3725 1998 3395 3855 1621 2412 3091 1763 2775 3072 3409 3817 2524 2600 2685 3886 1989 2749 1624 2563 3863 3050 2374 3987 3009 3872 1540 2650 3587 3394 2518 2743 2550 2823 2075 3464 1694 2536 2204 3336 3373 3277 3811 3830 1961 1787 1830 3322 3925 3818 3170 3919 3678 1536 1798 3659 1705 3952 3568 3893 2400 1871 2792 3931 2418
64 83 0 89 38 82 23 48 33 24 89 80 14 92 97 27 43 54 66 44 15 93 69 5 81 3330 1958 3035 2754 1570 3818 3298 2275 1539 1728 3394 1873 2781 3746 3822 2169 1665 2737 3603 3061 1666 3125 2360 2065 2575 3683 3915 1852 2905 3403 2147 2181 2104 2024 3720 2046 2064 1813 1811 3446 2220 3504 2965 3646 2885 3410 3524 1652 2901 2636 2221 2631 2532 2729 3545 3563 3066 3275 3897 3092 2423 1705 2881 2078 2984 1564 3620 3861 1863 3547 2516 1604 3774 3852 1607
51 40 89 0 59 82 79 42 86 83 12 1 11 37 11 8 26 65 52 28 95 70 63 94 78 1817 1592 3661 2519 1648 2691 2451 2577 2574 2285 2722 2728 3941 3231 3439 1520 2272 3959 2174 2774 3657 3096 3703 1910 2776 3089 2360 2935 3987 3341 2289 1659 1956 2180 3700 2177 3530 2184 3169 2817 3896 2915 3814 3904 3370 3070 3651 3991 2117 2906 1853 1762 3175 1618 3286 3552 1917 3200 2488 3733 3775 2943 2903 3276 2945 3364 1985 3455 2815 3379 2808 2266 1722 2813 3954
27 78 38 59 0 4 57 45 1 54 77 74 97 53 59 96 32 80 19 36 67 58 20 66 58 3801 3005 3710 3906 1718 1680 2756 2749 2887 3360 2288 1943 3200 2470 3824 1657 3272 3314 2177 1719 2295 2487 3948 3683 2077 2680 2999 3781 1837 3414 3813 3788 2192 1818 2984 1683 1824 1675 2027 3672 3181 3085 3963 2741 1599 1908 2150 3184 2392 2295 1780 3277 1561 2650 3361 2768 3217 3474 2062 1731 1640 2946 2160 1993 3337 3520 3886 2722 2806 3971 2759 1957 2139 3907 1608
31 32 82 82 4 0 80 65 48 83 81 44 60 76 65 49 91 88 7 55 83 9 38 51 33 3238 3985 2409 3452 1792 2713 1513 2556 1535 3693 3923 1717 3545 3271 2251 3472 3905 3497 3231 2305 3016 3491 3286 2063 2530 2405 3236 2543 2548 2853 2948 1781 3812 2517 1938 1500 2587 3360 2240 3629 1999 1847 2477 3259 2248 3552 1552 3954 1617 3609 1508 2560 2273 3949 3137 3934 2536 2759 2755 3383 2772 3784 1979 2690 2116 3659 1843 3253 3779 2234 2197 3419 2978 2926 3710
5 24 23 79 57 80 0 10 28 39 91 8 45 48 2 43 65 42 31 59 98 13 29 93 30 3210 2378 3559 2963 3742 3093 2958 2721 1600 1801 3278 3098 2922 1792 3564 3490 2830 2135 3533 2804 3992 2201 2376 3509 1927 2304 2479 3315 3382 3471 2598 3038 2970 3430 1818 2295 3315 2004 2200 3946 1976 3995 3657 1890 2911 2309 2711 3024 3747 3828 1715 1947 3240 2015 2319 2963 1938 3986 3186 2068 2407 3120 2324 3054 3859 2413 1998 2214 2780 2889 1560 3107 1908 3074 3708
8 79 48 42 45 65 10 0 20 79 4 56 67 23 78 56 42 2 14 71 41 71 96 64 74 3028 2250 1684 3032 2116 1802 2935 3025 2485 3074 3980 3395 3809 1669 1880 2396 2974 3238 3240 3766 1841 1928 2281 1919 3289 2529 3752 2209 2354 2247 2097 3601 3554 2239 2962 3696 2691 3756 2140 2064 1681 3078 1544 1945 2949 2601 1977 2781 3938 3958 1768 3382 2630 2664 2486 3592 2080 2961 3371 2535 3109 1796 3314 2259 1707 2238 2381 3111 2799 3582 2566 3716 1601 2312 1985
2 87 33 86 1 48 28 20 0 38 94 14 17 41 85 1 82 78 39 5 47 70 82 16 68 2887 3592 3275 3393 3637 3228 2485 3782 2891 3557 1757 1947 2868 3370 3877 1716 3650 2564 3875 2491 3798 2005 2357 3844 3961 1736 1863 1512 3837 2307 2826 3976 3597 2161 2433 3576 2736 1932 3853 2965 3441 3896 3028 3291 3646 3951 2841 2936 3171 3958 2628 3592 2194 3445 1779 3721 2350 3078 1853 2390 1739 2820 3967 2066 2172 3443 1971 1925 2039 2942 2759 2839 1568 3179 2283
18 8 24 83 54 83 39 79 38 0 76 83 11 30 62 18 41 35 61 74 69 32 58 80 73 3469 2800 2953 2657 3031 2216 2649 2072 2760 3238 3463 3239 1935 1988 2434 3929 1569 3177 2235 2828 1717 3602 3681 2716 3449 2689 3317 2145 2295 1890 2635 3279 3453 3610 1977 3194 2175 2422 2426 2939 2970 2908 1662 3841 3630 2469 2929 1911 3086 3692 3820 3736 1637 1620 3342 1995 1972 3090 1649 3472 1947 3016 3076 1978 2502 1794 3952 2764 1870 3538 3349 2042 2347 1687 2891
81 6 89 12 77 81 91 4 94 76 0 55 6 19 46 7 74 77 71 82 80 40 45 30 17 2192 3308 2402 3991 2942 3163 2819 3492 2388 3030 3093 3664 3189 2995 2895 1637 2468 2280 3059 2289 2979 2746 2350 2767 2258 2041 2864 3971 3030 3042 3026 3705 2457 2559 2914 2896 3964 1949 2570 2026 3607 2883 1703 1962 3688 2606 3854 1729 2154 2868 1530 2477 2707 2094 1956 3816 3929 2750 3744 2715 3901 1608 3009 1605 2787 3708 3581 2034 3130 1917 2121 2567 3835 3177 2599
65 67 80 1 74 44 8 56 14 83 55 0 21 77 59 50 65 19 91 30 48 57 18 15 48 1534 3010 2584 2097 3405 2315 3035 2024 2310 3066 3293 3100 2711 2129 3998 3777 3440 2228 3576 2946 2148 3452 1880 2948 1998 1684 2580 2617 2780 1514 1986 1705 3449 1623 3671 2032 2290 2341 2770 2413 2985 2445 3305 3973 1868 1798 2202 2007 3326 3313 2920 3982 3749 3954 2619 2884 2516 2205 2266 3358 2078 1866 3126 2843 2161 2258 3655 1601 2176 2896 3183 2934 2920 3433 3071
91 34 14 11 97 60 45 67 17 11 6 21 0 63 89 76 17 96 15 94 13 98 8 88 53 2908 1914 1828 3517 2110 1556 2637 2436 2628 2683 1663 2041 2174 2389 2558 2056 3503 2204 2595 3817 3993 2542 2469 2464 2388 3027 3098 3160 3450 3150 2174 1711 2530 2954 3790 3339 2295 3488 3138 2971 3640 1826 2732 1709 3353 2307 3432 3818 3640 2681 3051 3738 1787 2649 2232 3387 3969 2712 2633 3271 2136 2292 1915 3724 2767 2164 3053 1515 2414 3302 3907 3191 1814 3142 3288
50 57 92 37 53 76 48 23 41 30 19 77 63 0 69 14 59 39 12 98 67 84 1 42 19 3766 2552 3157 2445 3834 1797 1824 2567 2959 3059 3669 2443 3873 3271 2933 2077 3354 1859 1643 3372 2108 3171 2904 2573 2636 1841 2262 3159 2450 3374 3867 1909 1977 3223 2136 2389 3780 3787 3810 3378 1620 2184 3079 3845 2143 1563 3250 1962 3705 2104 1816 3330 2012 2815 3929 2660 2240 2056 2735 3391 3334 1792 2978 2118 2416 3515 3563 2627 2120 3692 3636 3004 2545 3473 2484
61 15 97 11 59 65 2 78 85 62 46 59 89 69 0 19 95 32 69 38 97 49 57 47 88 3556 2847 1932 2347 3628 3939 3722 3900 1688 2550 1523 1666 2231 2947 2501 2518 3926 3994 1678 2370 3453 2404 2688 2792 1824 2625 2415 2532 2452 1506 2108 3231 2235 3974 2549 2405 3905 1999 2647 3517 3875 3826 1576 2755 1665 2564 1569 2208 3164 3609 2050 2520 2941 3427 3488 3989 2329 2872 2114 1515 3313 2650 2689 2782 1873 3317 1718 1669 3342 2449 3651 3565 3725 1989 2775
97 86 27 8 96 49 43 56 1 18 7 50 76 14 19 0 95 16 83 23 30 45 49 85 84 3125 2625 2185 2176 3389 2416 2588 2242 3956 2512 2571 3678 3592 1815 1536 3667 3295 3805 2496 2039 2747 1927 1997 3282 3823 2204 1999 3677 2903 3177 2993 3293 3646 1717 2666 3554 3574 3603 2809 2128 3890 3843 3291 2589 3780 2267 3855 3319 3505 3298 1805 1759 1811 3889 3040 3798 2178 2825 2462 3304 1934 3455 3405 3161 3636 3996 1832 3579 2792 3591 2487 1666 3475 1863 2662
73 45 43 26 32 91 65 42 82 41 74 65 17 59 95 95 0 71 73 5 57 9 97 52 42 2504 3969 3351 2538 3319 1956 2499 3455 3521 2179 2734 2914 3640 3115 2805 1999 2731 1586 3128 3967 2980 3543 2485 1809 2466 3619 3082 2145 3419 2118 2126 3431 2266 3393 3997 3614 3514 1841 2833 3368 3708 2674 2040 2314 2578 3335 1890 3612 3943 2306 3748 1887 1967 3979 2968 3797 2737 2224 2132 3536 1730 1724 3030 3781 2091 3436 3212 1992 3248 2239 2790 2988 1937 2389 3259
63 89 54 65 80 88 42 2 78 35 77 19 96 39 32 16 71 0 73 20 59 12 21 93 61 3815 1535 1815 1779 2331 1903 2618 2384 3196 1529 2599 3824 3631 2098 1995 2176 3743 2439 1836 3851 3478 2379 3074 2577 1540 2246 2574 3940 2785 2412 1856 1708 3001 3144 3064 3291 1867 2430 2792 2028 3185 2523 3659 2597 2165 3988 3965 3646 2772 3052 2003 1984 3523 3219 2745 3397 1947 1688 2771 2448 2072 2317 2075 2926 2598 3132 1554 1953 2415 2674 3532 3980 1592 1539 3576
54 79 66 52 19 7 31 14 39 61 71 91 15 12 69 83 73 73 0 37 90 34 81 41 7 3672 1920 2595 2105 3707 2399 2938 1617 2561 1924 2130 1847 3559 3725 3110 2756 2030 2910 1825 2647 1813 1870 3772 2645 2508 2585 3550 2703 3738 2201 2065 2019 1581 1505 1950 2297 3432 2419 1538 2504 2910 1530 1978 3880 3416 3154 2698 2060 2872 3407 2233 2600 2641 3168 1614 3086 3523 1639 3768 3014 3381 2331 2739 3346 3609 2998 1509 2858 3164 2203 3418 3438 2316 2209 3641
56 70 44 28 36 55 59 71 5 74 82 30 94 98 38 23 5 20 37 0 69 1 27 63 62 2252 3755 3071 2337 2128 2456 2024 2451 3065 3475 2742 2649 1968 2771 3715 3155 3705 2791 2873 1767 3265 3757 2628 2922 3503 2355 3584 2363 3410 3435 2107 3199 1561 3381 3145 1586 2528 3643 3735 2398 3649 3702 2834 1829 2443 3161 3282 3998 3273 3120 3205 3388 3606 3998 2943 2069 2790 3700 2792 3924 3722 3606 2416 3673 3604 2582 2762 3073 1713 1501 2622 3005 2227 3696 2819
93 23 15 95 67 83 98 41 47 69 80 48 13 67 97 30 57 59 90 69 0 2 85 50 18 2970 2688 1622 2956 3231 3424 2082 3852 3561 2876 2545 3804 2624 2341 2738 3410 2993 3409 2462 2878 2370 1934 2588 2465 3688 2227 3862 3917 1891 3111 3298 3772 3926 2240 2925 2572 2826 2918 3077 2386 2156 2641 3852 2998 3428 1570 1748 2349 1513 1500 2966 2706 2666 3020 3555 1732 3391 2105 3249 3509 3964 3600 3157 2469 2254 3535 1945 2192 2182 3265 3984 2863 3716 2600 3695
28 76 93 70 58 9 13 71 70 32 40 57 98 84 49 45 9 12 34 1 2 0 65 79 2 3705 1906 2359 2234 3602 3201 1918 3265 2192 3201 2853 3419 3749 1698 3132 1764 3803 3638 3865 2392 3029 2920 1673 2758 2805 3066 2147 1692 1560 3424 3277 1808 3766 3203 1992 2505 3905 2730 1518 3179 3909 2427 3612 1615 1674 3910 2329 2806 2145 3355 2447 2828 3817 3549 3935 2911 1580 1806 2210 3104 3802 1931 1778 3559 2980 3202 2307 3849 3056 3072 3585 2062 3233 2892 2755
81 6 69 63 20 38 29 96 82 58 45 18 8 1 57 49 97 21 81 27 85 65 0 77 28 3279 3512 2355 2098 3138 2121 3838 1712 3212 2623 2418 2890 3776 1864 3569 2544 3637 3393 1767 2051 2227 1714 3475 2800 2187 3355 1684 1595 3208 3382 3498 2971 3104 1972 2362 1847 2899 3195 1553 1931 2906 2939 3642 3336 1695 1738 2458 1683 1912 2153 2450 3355 1532 2790 3569 3436 2740 2313 2589 2910 3004 3881 3625 3325 2228 3014 2168 2662 1623 2171 2165 3117 1665 2207 1603
67 57 5 94 66 51 93 64 16 80 30 15 88 42 47 85 52 93 41 63 50 79 77 0 20 2881 2155 1959 3366 1685 1828 3791 3920 1871 3533 1737 2650 3926 2674 3167 3779 3314 1560 2908 1802 1675 3546 3604 3602 2545 2569 2481 3613 1838 3755 1783 2296 2805 1522 2921 1506 2796 1959 3032 2771 3694 2804 2760 2425 2447 3073 2141 2078 2267 2857 2902 2631 3488 1839 2602 3248 1601 1925 1970 3673 1726 2987 2333 2901 3210 3492 2976 3124 3155 2060 2636 3855 1774 1848 2240
1 41 81 78 58 33 30 74 68 73 17 48 53 19 88 84 42 61 7 62 18 2 28 20 0 2790 2777 3260 2742 2137 2109 3161 3563 3962 2583 3420 3613 3007 2163 1832 3854 3026 1779 2541 3422 2747 1550 2199 2090 2592 3676 2388 2375 3695 3831 1553 3823 2148 3500 1969 2490 2610 3645 3922 2642 2893 1815 1653 3629 3899 3540 2026 1838 2848 3666 3782 2797 2544 3358 3764 2170 2904 2038 3515 3620 2174 3000 2074 1869 1589 2414 2384 3647 3290 2670 2045 2342 1804 2352 2577
2485 3991 3330 1817 3801 3238 3210 3028 2887 3469 2192 1534 2908 3766 3556 3125 2504 3815 3672 2252 2970 3705 3279 2881 2790 0 82 88 45 29 94 92 31 85 75 40 29 9 77 45 2 15 13 80 26 60 87 42 32 24 2708 3520 1767 3519 2916 3703 1739 3968 1854 2361 3502 2925 2109 3741 1653 2824 3004 3919 1866 1903 1632 1770 3576 2827 2492 2078 3663 2705 3360 2697 2002 1904 1712 1550 1928 3092 2736 3172 2394 2175 3579 3656 2673 3680 2886 3265 2468 1542 3387 2717
3643 1996 1958 1592 3005 3985 2378 2250 3592 2800 3308 3010 1914 2552 2847 2625 3969 1535 1920 3755 2688 1906 3512 2155 2777 82 0 69 36 68 96 77 82 40 54 12 92 81 52 35 56 69 97 98 32 70 95 90 62 2 1610 3009 1767 1743 3998 3681 2317 3900 2892 1585 3138 1833 2374 3581 3966 3217 2252 3954 1536 3391 3227 2985 2145 2848 2104 1524 3332 3459 2066 2460 3827 1766 3785 2867 2796 2424 2855 3014 1566 1541 3590 1912 3850 2849 2174 3024 2362 1705 3834 3090
2885 3866 3035 3661 3710 2409 3559 1684 3275 2953 2402 2584 1828 3157 1932 2185 3351 1815 2595 3071 1622 2359 2355 1959 3260 88 69 0 94 84 32 29 66 52 7 90 54 70 93 21 94 96 60 34 64 82 10 45 11 79 2841 3802 2716 3756 3478 3511 3322 2307 2078 3781 3753 1883 1944 2150 1628 3115 3809 3370 1817 1625 3753 2172 3516 2422 3449 3618 3691 1504 2236 3724 2982 2336 3760 3041 1562 3839 3538 1653 3941 2863 3881 2055 1810 3255 1733 3544 2242 2115 3025 3649
1583 1726 2754 2519 3906 3452 2963 3032 3393 2657 3991 2097 3517 2445 2347 2176 2538 1779 2105 2337 2956 2234 2098 3366 2742 45 36 94 0 80 18 77 48 63 13 47 31 25 38 9 69 70 32 66 53 60 65 67 78 60 2233 3781 1640 3058 2092 1898 2864 2851 3694 3132 3143 2791 3018 2958 1579 3126 2745 3675 2327 2884 2368 3009 3898 2269 1908 3487 1720 2672 2262 2293 3106 2411 2174 2345 3264 2636 3237 3971 2595 3000 3586 2465 2309 2639 3057 2988 2850 1970 1679 2727
3412 3057 1570 1648 1718 1792 3742 2116 3637 3031 2942 3405 2110 3834 3628 3389 3319 2331 3707 2128 3231 3602 3138 1685 2137 29 68 84 80 0 35 4 56 17 97 77 78 71 48 32 20 27 27 70 5 99 58 37 42 60 3146 3468 2828 1528 2541 3458 2380 2243 1601 1952 3957 3492 1687 3912 1563 2923 2038 3004 1840 2271 3486 3904 1879 3788 2349 1622 1533 3158 3828 2373 2302 1669 3607 2661 3904 3555 3318 3295 2151 3669 2730 2056 3456 1524 3246 3991 3568 3335 2861 1882
3324 2950 3818 2691 1680 2713 3093 1802 3228 2216 3163 2315 1556 1797 3939 2416 1956 1903 2399 2456 3424 3201 2121 1828 2109 94 96 32 18 35 0 66 34 36 97 19 95 70 56 1 84 78 6 1 26 62 34 59 65 11 3743 2980 1821 3394 2649 2839 3833 3181 3176 3271 3422 2014 3947 3816 3291 2318 1576 2959 3547 1757 3383 3991 1896 3135 2771 2654 3850 2915 1700 1567 2195 2100 3491 3936 2675 1702 3350 1854 3491 2932 2389 3434 1642 3632 1993 3653 2633 3400 2083 2369
3616 3747 3298 2451 2756 1513 2958 2935 2485 2649 2819 3035 2637 1824 3722 2588 2499 2618 2938 2024 2082 1918 3838 3791 3161 92 77 29 77 4 66 0 99 58 33 81 49 14 92 9 58 46 59 31 32 1 97 52 86 37 3791 3707 2710 2335 1719 3156 2760 2920 2116 2249 2912 2669 3055 2419 3066 2093 2402 1720 3475 1630 1619 2056 3235 1708 3891 1876 3515 1812 2104 2433 3614 2095 3168 1511 2116 1582 2091 3975 3052 2112 3391 1602 2004 3065 3183 2879 1590 2472 3380 3333
1939 2246 2275 2577 2749 2556 2721 3025 3782 2072 3492 2024 2436 2567 3900 2242 3455 2384 1617 2451 3852 3265 1712 3920 3563 31 82 66 48 56 34 99 0 9 93 63 40 94 38 34 51 2 24 42 18 79 39 55 68 9 1536 3227 1845 3796 3520 1782 2330 3912 2897 2090 1638 1742 2876 3574 1569 2370 2018 3269 2619 1989 2809 3503 1813 1784 2647 1870 3451 3098 3264 2571 2422 2096 2740 2971 3497 3639 2157 3722 1850 2962 3922 2979 3682 2529 3685 3160 2692 3036 1588 1886
1723 3755 1539 2574 2887 1535 1600 2485 2891 2760 2388 2310 2628 2959 1688 3956 3521 3196 2561 3065 3561 2192 3212 1871 3962 85 40 52 63 17 36 58 9 0 74 86 79 45 96 30 4 20 81 9 34 46 66 64 90 68 2129 1565 3983 3536 1594 1622 1786 1553 2701 2713 3297 1941 3816 1655 3618 2662 3926 1840 2603 2886 2515 1572 2973 3411 3229 3122 3757 1854 2980 3198 3764 3921 2539 1560 3428 3675 3995 3307 1696 3911 3268 3901 3757 3347 3736 2820 3681 3501 2196 2956
3657 3179 1728 2285 3360 3693 1801 3074 3557 3238 3030 3066 2683 3059 2550 2512 2179 1529 1924 3475 2876 3201 2623 3533 2583 75 54 7 13 97 97 33 93 74 0 41 28 51 86 96 20 27 25 66 73 76 76 15 34 87 1605 2763 3547 3890 1821 3724 1788 3868 1918 1957 2210 3586 2787 3657 1588 3868 3302 3123 2393 2421 2571 2967 3406 1894 3605 3990 3192 3305 3552 2348 2369 3797 1797 3280 3507 2332 2381 3823 1985 2310 3284 2299 3319 1574 2409 3252 3793 1770 2840 1621
1555 3725 3394 2722 2288 3923 3278 3980 1757 3463 3093 3293 1663 3669 1523 2571 2734 2599 2130 2742 2545 2853 2418 1737 3420 40 12 90 47 77 19 81 63 86 41 0 20 65 51 96 82 7 84 76 23 23 85 86 1 2 1559 1985 3986 3937 3601 2938 2564 1829 3150 1511 3887 2522 2798 2586 3850 2832 3535 3201 3571 1884 2334 2295 1700 1632 2369 3991 3334 2559 3500 3196 1746 2213 2947 1855 2412 1983 1859 1537 2491 3220 3115 3974 1787 1729 1695 1913 2664 3504 3101 3090
2853 1998 1873 2728 1943 1717 3098 3395 1947 3239 3664 3100 2041 2443 1666 3678 2914 3824 1847 2649 3804 3419 2890 2650 3613 29 92 54 31 78 95 49 40 79 28 20 0 27 94 96 37 57 43 31 29 92 80 84 19 42 2449 3868 3148 3455 3783 1559 3532 2891 1712 3846 3660 3236 3478 2472 2676 3624 2884 3788 2608 2190 1638 3936 2300 1848 3782 2400 2996 3892 1745 3935 2878 2791 3046 2940 3528 3948 2953 1530 2003 3127 3924 1880 2240 1948 3313 3580 3219 3727 3808 2981
1700 3395 2781 3941 3200 3545 2922 3809 2868 1935 3189 2711 2174 3873 2231 3592 3640 3631 3559 1968 2624 3749 3776 3926 3007 9 81 70 25 71 70 14 94 45 51 65 27 0 76 12 39 22 5 49 65 72 2 30 6 36 1557 3915 2932 2001 3468 2982 1675 3224 2298 1791 2447 1516 3748 1668 3115 3246 2511 2719 3805 3436 3217 3036 3180 2225 3280 1785 2854 2653 2668 2996 3931 3444 2929 2378 2515 3568 1733 3647 1980 2657 3958 3901 3904 3145 1507 2747 1694 1934 3197 3800
2249 3855 3746 3231 2470 3271 1792 1669 3370 1988 2995 2129 2389 3271 2947 1815 3115 2098 3725 2771 2341 1698 1864 2674 2163 77 52 93 38 48 56 92 38 96 86 51 94 76 0 22 73 66 63 21 93 40 51 33 83 25 2100 3437 3887 2259 2390 3786 1534 1971 2650 3737 1504 1883 1684 2239 1946 3959 2717 1618 1665 3595 3282 1909 3895 2797 3501 3895 2662 1797 3821 2442 2733 2770 2562 3130 2892 2340 2281 2121 1581 3769 3089 1520 1573 3953 3946 1873 3856 2077 3840 3329
2702 1621 3822 3439 3824 2251 3564 1880 3877 2434 2895 3998 2558 2933 2501 1536 2805 1995 3110 3715 2738 3132 3569 3167 1832 45 35 21 9 32 1 9 34 30 96 96 96 12 22 0 25 75 90 51 69 3 96 23 43 21 3880 3730 1857 2647 1599 3418 3683 3765 3053 2482 3959 3809 3889 3201 2817 3012 2343 2626 2482 2605 1608 2309 1522 2197 2725 2712 1963 2519 2426 2155 3420 1684 1576 3933 3010 2931 2839 2339 2330 3600 2415 2717 3760 3589 2197 1911 3938 1863 2796 2088
2556 2412 2169 1520 1657 3472 3490 2396 1716 3929 1637 3777 2056 2077 2518 3667 1999 2176 2756 3155 3410 1764 2544 3779 3854 2 56 94 69 20 84 58 51 4 20 82 37 39 73 25 0 78 86 67 76 51 33 2 93 54 3650 2417 2470 2296 2999 2348 3962 2504 3265 2230 1994 2661 2996 3272 3728 3031 2830 2680 2668 1584 3363 3948 2635 2368 3082 2639 1517 3105 3407 2185 3902 2517 3613 3353 3541 3030 2683 3079 3338 3597 2722 3443 1783 2246 1583 2634 2370 3448 3591 2324
2508 3091 1665 2272 3272 3905 2830 2974 3650 1569 2468 3440 3503 3354 3926 3295 2731 3743 2030 3705 2993 3803 3637 3314 3026 15 69 96 70 27 78 46 2 20 27 7 57 22 66 75 78 0 47 85 11 60 4 1 53 96 2121 3148 3096 3177 2239 2951 2608 2408 1853 2158 2514 1750 2921 2646 2826 2189 1755 1712 3650 1806 3284 3688 1872 3819 1775 1831 1933 1894 2525 1854 2112 2436 2071 1762 3069 3020 1798 1901 2032 2871 3786 2553 1794 1575 2056 2909 3771 1670 3452 2775
1570 1763 2737 3959 3314 3497 2135 3238 2564 3177 2280 2228 2204 1859 3994 3805 1586 2439 2910 2791 3409 3638 3393 1560 1779 13 97 60 32 27 6 59 24 81 25 84 43 5 63 90 86 47 0 45 34 96 39 33 44 59 2121 2008 3666 2648 2611 2113 3915 3301 3889 1960 1577 3715 3581 3742 2192 3421 1601 3714 3965 2255 2405 1629 2766 3770 2747 2942 3762 1609 2455 3439 3115 2303 2806 3880 3655 3961 1667 3006 3925 3769 3021 2392 1616 2186 3360 3325 2076 2897 3345 1561
1513 2775 3603 2174 2177 3231 3533 3240 3875 2235 3059 3576 2595 1643 1678 2496 3128 1836 1825 2873 2462 3865 1767 2908 2541 80 98 34 66 70 1 31 42 9 66 76 31 49 21 51 67 85 45 0 24 35 92 1 9 31 3850 2669 1940 2404 3090 2810 2013 1573 3228 3872 3397 2027 1507 1710 3390 3015 2795 3177 2777 2302 1649 3788 3014 1886 3180 1930 3825 3609 1790 2622 1699 2899 3465 3419 2516 2688 3046 3726 1646 2059 1761 2723 1507 1924 2631 2094 2572 3033 3415 3004
1810 3072 3061 2774 1719 2305 2804 3766 2491 2828 2289 2946 3817 3372 2370 2039 3967 3851 2647 1767 2878 2392 2051 1802 3422 26 32 64 53 5 26 32 18 34 73 23 29 65 93 69 76 11 34 24 0 79 38 59 1 90 2620 1785 2174 1578 3988 3128 2946 2579 3714 2534 3228 3264 1728 2056 2726 2870 3874 3814 2828 2299 1853 3002 3406 3057 3445 3751 3336 3485 3151 3514 3627 3055 2575 3104 2350 1588 3739 2831 1714 1992 3922 3495 1946 2563 2335 3680 3504 2113 1812 3870
1520 3409 1666 3657 2295 3016 3992 1841 3798 1717 2979 2148 3993 2108 3453 2747 2980 3478 1813 3265 2370 3029 2227 1675 2747 60 70 82 60 99 62 1 79 46 76 23 92 72 40 3 51 60 96 35 79 0 37 7 65 87 2326 3178 3612 3174 2236 3433 2974 1922 2381 3898 1774 2874 2196 1949 3540 2256 2292 2757 2363 1537 3721 3230 3789 2959 2935 3954 1776 3609 2148 3423 3478 2000 2448 2473 3820 3915 2447 1545 3967 3414 3138 2639 2196 3350 2867 3523 3500 3178 2120 3838
3176 3817 3125 3096 2487 3491 2201 1928 2005 3602 2746 3452 2542 3171 2404 1927 3543 2379 1870 3757 1934 2920 1714 3546 1550 87 95 10 65 58 34 97 39 66 76 85 80 2 51 96 33 4 39 92 38 37 0 30 91 42 2662 2407 3090 3848 1596 3117 2032 2974 3247 3866 2761 2504 3566 3215 3885 1921 3116 3584 3107 2320 3313 2695 2791 1568 2549 1867 3347 3535 3515 3189 1910 1512 3420 3404 2787 3067 2567 3869 2372 3826 2737 2554 2880 1777 2337 2548 2403 2492 2974 2750
2814 2524 2360 3703 3948 3286 2376 2281 2357 3681 2350 1880 2469 2904 2688 1997 2485 3074 3772 2628 2588 1673 3475 3604 2199 42 90 45 67 37 59 52 55 64 15 86 84 30 33 23 2 1 33 1 59 7 30 0 87 25 3454 2315 1601 1660 3194 3381 3669 2198 1980 3202 2470 2191 2404 3603 1537 2095 3451 1801 1576 3452 3361 2070 2862 1936 3282 2927 3484 1656 2586 2896 1696 1545 3770 2570 3899 2538 3915 1713 3397 1705 1556 2967 2399 1510 3847 3329 2307 2421 1769 2157
3117 2600 2065 1910 3683 2063 3509 1919 3844 2716 2767 2948 2464 2573 2792 3282 1809 2577 2645 2922 2465 2758 2800 3602 2090 32 62 11 78 42 65 86 68 90 34 1 19 6 83 43 93 53 44 9 1 65 91 87 0 43 3877 3728 1555 2712 3067 2224 1544 3334 2455 1839 2281 2685 1700 2850 3457 2729 2929 3112 1693 1703 3942 2219 1776 2586 2730 2585 1576 2937 2514 3629 2728 3811 3640 2163 3193 2307 2380 2806 1960 3266 1613 2582 2321 2221 1657 1600 1939 2581 3126 1919
2143 2685 2575 2776 2077 2530 1927 3289 3961 3449 2258 1998 2388 2636 1824 3823 2466 1540 2508 3503 3688 2805 2187 2545 2592 24 2 79 60 60 11 37 9 68 87 2 42 36 25 21 54 96 59 31 90 87 42 25 43 0 2003 3825 2434 1765 1517 3621 3781 3513 3602 2780 1736 1740 3211 3533 2729 3193 3554 3661 1946 2001 1950 2391 3885 3345 2020 3873 2587 3442 1918 3295 2312 2823 2326 3678 3019 2945 2822 1721 3891 3910 3519 3125 3358 2023 2241 2272 2257 2487 2643 1527
3038 3886 3683 3089 2680 2405 2304 2529 1736 2689 2041 1684 3027 1841 2625 2204 3619 2246 2585 2355 2227 3066 3355 2569 3676 2708 1610 2841 2233 3146 3743 3791 1536 2129 1605 1559 2449 1557 2100 3880 3650 2121 2121 3850 2620 2326 2662 3454 3877 2003 0 30 45 19 93 20 95 38 45 34 89 94 43 60 24 87 19 10 24 4 14 83 37 44 40 2876 2484 2181 1585 2583 1902 1831 2242 3979 2932 2874 1894 1747 1562 3628 3591 2575 3254 3087 2600 1893 1521 2488 2069 2744
3410 1989 3915 2360 2999 3236 2479 3752 1863 3317 2864 2580 3098 2262 2415 1999 3082 2574 3550 3584 3862 2147 1684 2481 2388 3520 3009 3802 3781 3468 2980 3707 3227 1565 2763 1985 3868 3915 3437 3730 2417 3148 2008 2669 1785 3178 2407 2315 3728 3825 30 0 21 50 53 82 89 50 1 30 23 27 73 31 56 47 91 27 58 4 31 20 13 58 87 2176 2217 2329 2552 2146 3502 1741 1979 1950 3684 2136 2693 3598 2467 2053 1918 3570 2475 3358 1840 3935 1619 3383 2922 1787
2459 2749 1852 2935 3781 2543 3315 2209 1512 2145 3971 2617 3160 3159 2532 3677 2145 3940 2703 2363 3917 1692 1595 3613 2375 1767 1767 2716 1640 2828 1821 2710 1845 3983 3547 3986 3148 2932 3887 1857 2470 3096 3666 1940 2174 3612 3090 1601 1555 2434 45 21 0 62 94 40 84 74 44 10 43 31 4 82 22 94 71 78 11 19 99 54 3 10 99 1793 2240 1816 2652 2952 2863 3339 2223 2115 2051 3211 1626 2699 3558 2073 3930 3514 1813 3162 3649 3617 3301 3960 3375 3094
2652 1624 2905 3987 1837 2548 3382 2354 3837 2295 3030 2780 3450 2450 2452 2903 3419 2785 3738 3410 1891 1560 3208 1838 3695 3519 1743 3756 3058 1528 3394 2335 3796 3536 3890 3937 3455 2001 2259 2647 2296 3177 2648 2404 1578 3174 3848 1660 2712 1765 19 50 62 0 39 60 6 30 69 45 96 50 66 39 24 91 54 14 13 22 72 40 67 34 45 1724 1521 2926 1650 2893 3204 3769 3231 2281 2938 2647 2069 3674 3157 2147 1763 2580 3069 2946 2930 2853 2388 1833 2047 1603
3993 2563 3403 3341 3414 2853 3471 2247 2307 1890 3042 1514 3150 3374 1506 3177 2118 2412 2201 3435 3111 3424 3382 3755 3831 2916 3998 3478 2092 2541 2649 1719 3520 1594 1821 3601 3783 3468 2390 1599 2999 2239 2611 3090 3988 2236 1596 3194 3067 1517 93 53 94 39 0 72 62 18 27 16 47 63 3 66 13 11 84 26 91 10 98 91 11 1 82 2377 2108 1892 1956 2667 3445 3767 2107 3268 3847 2400 2939 1966 3668 3262 3163 2854 2188 3300 3445 1612 2443 1932 2947 2299
3512 3863 2147 2289 3813 2948 2598 2097 2826 2635 3026 1986 2174 3867 2108 2993 2126 1856 2065 2107 3298 3277 3498 1783 1553 3703 3681 3511 1898 3458 2839 3156 1782 1622 3724 2938 1559 2982 3786 3418 2348 2951 2113 2810 3128 3433 3117 3381 2224 3621 20 82 40 60 72 0 11 47 15 57 71 56 47 54 59 57 21 42 31 28 18 52 19 13 98 3373 1503 3882 2566 1635 3614 3455 2338 2059 2615 2341 2232 1583 3464 3922 2466 2905 2623 1703 2099 2303 2527 3943 3102 1650
3952 3050 2181 1659 3788 1781 3038 3601 3976 3279 3705 1705 1711 1909 3231 3293 3431 1708 2019 3199 3772 1808 2971 2296 3823 1739 2317 3322 2864 2380 3833 2760 2330 1786 1788 2564 3532 1675 1534 3683 3962 2608 3915 2013 2946 2974 2032 3669 1544 3781 95 89 84 6 62 11 0 79 91 35 28 1 8 57 62 25 89 74 37 62 35 6 26 57 31 2697 1668 3683 2763 3667 2353 3087 1915 3709 3305 3800 3733 2204 3517 2198 1838 2605 3783 3632 2522 3612 3786 3651 1709 2191
2448 2374 2104 1956 2192 3812 2970 3554 3597 3453 2457 3449 2530 1977 2235 3646 2266 3001 1581 1561 3926 3766 3104 2805 2148 3968 3900 2307 2851 2243 3181 2920 3912 1553 3868 1829 2891 3224 1971 3765 2504 2408 3301 1573 2579 1922 2974 2198 3334 3513 38 50 74 30 18 47 79 0 98 88 10 3 74 43 71 89 75 42 25 84 75 34 51 10 5 2570 1743 3183 2200 3998 3618 2292 2563 3753 2185 3867 2837 1690 2325 1893 2270 3333 1995 2568 2378 3982 1914 2008 2935 2013
3213 3987 2024 2180 1818 2517 3430 2239 2161 3610 2559 1623 2954 3223 3974 1717 3393 3144 1505 3381 2240 3203 1972 1522 3500 1854 2892 2078 3694 1601 3176 2116 2897 2701 1918 3150 1712 2298 2650 3053 3265 1853 3889 3228 3714 2381 3247 1980 2455 3602 45 1 44 69 27 15 91 98 0 38 16 4 63 22 18 48 49 28 26 88 89 6 14 65 86 3652 3850 3802 3058 2710 1820 2507 2197 1589 2152 2661 2252 3124 2372 2345 3835 1904 2193 2676 3999 1905 2461 2894 1677 2642
3875 3009 3720 3700 2984 1938 1818 2962 2433 1977 2914 3671 3790 2136 2549 2666 3997 3064 1950 3145 2925 1992 2362 2921 1969 2361 1585 3781 3132 1952 3271 2249 2090 2713 1957 1511 3846 1791 3737 2482 2230 2158 1960 3872 2534 3898 3866 3202 1839 2780 34 30 10 45 16 57 35 88 38 0 40 99 57 17 57 63 87 20 18 42 7 74 91 50 65 2401 3865 3722 2788 3680 1610 2456 2453 1736 3472 2357 1559 1966 3571 3362 2667 3096 3089 2762 3407 1540 3483 3915 2853 1533
3126 3872 2046 2177 1683 1500 2295 3696 3576 3194 2896 2032 3339 2389 2405 3554 3614 3291 2297 1586 2572 2505 1847 1506 2490 3502 3138 3753 3143 3957 3422 2912 1638 3297 2210 3887 3660 2447 1504 3959 1994 2514 1577 3397 3228 1774 2761 2470 2281 1736 89 23 43 96 47 71 28 10 16 40 0 80 53 8 43 7 26 60 89 99 34 35 56 72 13 2447 1631 3224 3600 2995 1822 2603 1838 3147 3142 2434 2037 1764 3452 2064 1686 3596 1577 2870 2448 2720 3667 3375 1836 2857
3600 1540 2064 3530 1824 2587 3315 2691 2736 2175 3964 2290 2295 3780 3905 3574 3514 1867 3432 2528 2826 3905 2899 2796 2610 2925 1833 1883 2791 3492 2014 2669 1742 1941 3586 2522 3236 1516 1883 3809 2661 1750 3715 2027 3264 2874 2504 2191 2685 1740 94 27 31 50 63 56 1 3 4 99 80 0 1 12 48 39 45 51 44 17 23 14 71 81 85 3115 2634 2201 3814 2285 3291 2483 1691 1770 3851 3854 2482 3535 3070 2196 1938 3515 2803 2702 2051 3551 3137 2522 2264 2711
3221 2650 1813 2184 1675 3360 2004 3756 1932 2422 1949 2341 3488 3787 1999 3603 1841 2430 2419 3643 2918 2730 3195 1959 3645 2109 2374 1944 3018 1687 3947 3055 2876 3816 2787 2798 3478 3748 1684 3889 2996 2921 3581 1507 1728 2196 3566 2404 1700 3211 43 73 4 66 3 47 8 74 63 57 53 1 0 99 13 11 2 56 57 19 61 30 90 86 62 2753 1945 1722 3558 3321 3713 2610 2880 1706 2947 2711 1976 2613 3354 2959 1982 2585 3630 3002 3019 3259 1784 3973 3966 2894
3260 3587 1811 3169 2027 2240 2200 2140 3853 2426 2570 2770 3138 3810 2647 2809 2833 2792 1538 3735 3077 1518 1553 3032 3922 3741 3581 2150 2958 3912 3816 2419 3574 1655 3657 2586 2472 1668 2239 3201 3272 2646 3742 1710 2056 1949 3215 3603 2850 3533 60 31 82 39 66 54 57 43 22 17 8 12 99 0 10 44 22 71 98 91 77 3 86 4 53 3943 3591 2865 3562 1629 2444 3150 2374 1741 2712 1765 2642 2506 3169 3159 3200 3550 2642 3634 1626 2466 2358 3950 1589 1848
2472 3394 3446 2817 3672 3629 3946 2064 2965 2939 2026 2413 2971 3378 3517 2128 3368 2028 2504 2398 2386 3179 1931 2771 2642 1653 3966 1628 1579 1563 3291 3066 1569 3618 1588 3850 2676 3115 1946 2817 3728 2826 2192 3390 2726 3540 3885 1537 3457 2729 24 56 22 24 13 59 62 71 18 57 43 48 13 10 0 52 67 5 23 3 71 40 47 70 3 2680 1611 2903 2239 2774 1743 1818 3220 3741 2651 1949 3110 3910 3166 1576 1618 2992 2536 1980 3207 1592 3757 1547 3864 3543
3687 2518 2220 3896 3181 1999 1976 1681 3441 2970 3607 2985 3640 1620 3875 3890 3708 3185 2910 3649 2156 3909 2906 3694 2893 2824 3217 3115 3126 2923 2318 2093 2370 2662 3868 2832 3624 3246 3959 3012 3031 2189 3421 3015 2870 2256 1921 2095 2729 3193 87 47 94 91 11 57 25 89 48 63 7 39 11 44 52 0 38 15 58 83 93 12 5 98 97 2335 2636 2070 3623 2694 1919 2073 3839 2091 3436 2961 3132 3758 1932 3997 2595 1677 2964 2657 2504 2019 3732 1627 2876 1999
1837 2743 3504 2915 3085 1847 3995 3078 3896 2908 2883 2445 1826 2184 3826 3843 2674 2523 1530 3702 2641 2427 2939 2804 1815 3004 2252 3809 2745 2038 1576 2402 2018 3926 3302 3535 2884 2511 2717 2343 2830 1755 1601 2795 3874 2292 3116 3451 2929 3554 19 91 71 54 84 21 89 75 49 87 26 45 2 22 67 38 0 9 24 87 72 31 94 17 42 3107 1685 3519 2294 2225 2506 2718 2785 3919 1520 2604 3127 2432 2286 2876 2836 3267 2779 3108 1900 1582 1956 3849 3597 2646
2947 2550 2965 3814 3963 2477 3657 1544 3028 1662 1703 3305 2732 3079 1576 3291 2040 3659 1978 2834 3852 3612 3642 2760 1653 3919 3954 3370 3675 3004 2959 1720 3269 1840 3123 3201 3788 2719 1618 2626 2680 1712 3714 3177 3814 2757 3584 1801 3112 3661 10 27 78 14 26 42 74 42 28 20 60 51 56 71 5 15 9 0 86 70 39 60 10 17 8 3986 1520 3467 3603 3181 2942 2174 2718 1978 1766 1724 3860 2894 3238 2027 1667 2552 2617 3402 3267 3016 2657 2293 1725 1732
3303 2823 3646 3904 2741 3259 1890 1945 3291 3841 1962 3973 1709 3845 2755 2589 2314 2597 3880 1829 2998 1615 3336 2425 3629 1866 1536 1817 2327 1840 3547 3475 2619 2603 2393 3571 2608 3805 1665 2482 2668 3650 3965 2777 2828 2363 3107 1576 1693 1946 24 58 11 13 91 31 37 25 26 18 89 44 57 98 23 58 24 86 0 95 31 38 20 3 54 1872 2556 1668 2397 3981 2465 3050 2519 2427 2565 3124 2317 2022 3399 3852 2822 3081 1528 3722 2526 1906 2062 3456 2988 3395
3613 2075 2885 3370 1599 2248 2911 2949 3646 3630 3688 1868 3353 2143 1665 3780 2578 2165 3416 2443 3428 1674 1695 2447 3899 1903 3391 1625 2884 2271 1757 1630 1989 2886 2421 1884 2190 3436 3595 2605 1584 1806 2255 2302 2299 1537 2320 3452 1703 2001 4 4 19 22 10 28 62 84 88 42 99 17 19 91 3 83 87 70 95 0 84 8 74 21 13 3586 2751 2972 2663 1524 2598 3651 2422 1516 3216 3341 1804 3902 1624 1681 3108 2456 2001 1888 2396 3682 3805 2736 1854 3259
2813 3464 3410 3070 1908 3552 2309 2601 3951 2469 2606 1798 2307 1563 2564 2267 3335 3988 3154 3161 1570 3910 1738 3073 3540 1632 3227 3753 2368 3486 3383 1619 2809 2515 2571 2334 1638 3217 3282 1608 3363 3284 2405 1649 1853 3721 3313 3361 3942 1950 14 31 99 72 98 18 35 75 89 7 34 23 61 77 71 93 72 39 31 84 0 85 75 41 67 1979 3915 3962 2227 3019 3232 2055 3898 3408 3458 2426 1601 2830 2133 2391 3663 1908 2120 3569 3241 3266 2915 2151 3868 2819
2438 1694 3524 3651 2150 1552 2711 1977 2841 2929 3854 2202 3432 3250 1569 3855 1890 3965 2698 3282 1748 2329 2458 2141 2026 1770 2985 2172 3009 3904 3991 2056 3503 1572 2967 2295 3936 3036 1909 2309 3948 3688 1629 3788 3002 3230 2695 2070 2219 2391 83 20 54 40 91 52 6 34 6 74 35 14 30 3 40 12 31 60 38 8 85 0 10 2 22 3612 2328 2055 1577 2269 2965 3726 3757 1991 3040 3190 1751 1638 2798 2930 1877 3425 1561 2916 2419 3986 2213 2977 1644 2551
2275 2536 1652 3991 3184 3954 3024 2781 2936 1911 1729 2007 3818 1962 2208 3319 3612 3646 2060 3998 2349 2806 1683 2078 1838 3576 2145 3516 3898 1879 1896 3235 1813 2973 3406 1700 2300 3180 3895 1522 2635 1872 2766 3014 3406 3789 2791 2862 1776 3885 37 13 3 67 11 19 26 51 14 91 56 71 90 86 47 5 94 10 20 74 75 10 0 68 30 3812 3083 3092 3300 3699 2519 2387 3876 2877 3219 2686 3024 1790 2224 3472 3958 2513 2106 2432 2733 2933 2649 1832 2675 2916
2557 2204 2901 2117 2392 1617 3747 3938 3171 3086 2154 3326 3640 3705 3164 3505 3943 2772 2872 3273 1513 2145 1912 2267 2848 2827 2848 2422 2269 3788 3135 1708 1784 3411 1894 1632 1848 2225 2797 2197 2368 3819 3770 1886 3057 2959 1568 1936 2586 3345 44 58 10 34 1 13 57 10 65 50 72 81 86 4 70 98 17 17 3 21 41 2 68 0 36 3784 3282 1536 3537 3538 1838 3579 1602 3480 2611 3749 3998 1909 3167 2279 3024 2337 2617 3483 3493 2568 1663 3186 3043 2966
2714 3336 2636 2906 2295 3609 3828 3958 3958 3692 2868 3313 2681 2104 3609 3298 2306 3052 3407 3120 1500 3355 2153 2857 3666 2492 2104 3449 1908 2349 2771 3891 2647 3229 3605 2369 3782 3280 3501 2725 3082 1775 2747 3180 3445 2935 2549 3282 2730 2020 40 87 99 45 82 98 31 5 86 65 13 85 62 53 3 97 42 8 54 13 67 22 30 36 0 3536 3871 2407 3065 2626 3545 2256 2150 2640 3312 3144 2009 1500 3033 1604 2062 2805 3571 1997 2457 2057 3630 2595 2162 2885
3297 3373 2221 1853 1780 1508 1715 1768 2628 3820 1530 2920 3051 1816 2050 1805 3748 2003 2233 3205 2966 2447 2450 2902 3782 2078 1524 3618 3487 1622 2654 1876 1870 3122 3990 3991 2400 1785 3895 2712 2639 1831 2942 1930 3751 3954 1867 2927 2585 3873 2876 2176 1793 1724 2377 3373 2697 2570 3652 2401 2447 3115 2753 3943 2680 2335 3107 3986 1872 3586 1979 3612 3812 3784 3536 0 8 74 78 20 15 86 35 84 54 58 99 13 49 43 6 7 64 96 80 16 50 87 8 53
3723 3277 2631 1762 3277 2560 1947 3382 3592 3736 2477 3982 3738 3330 2520 1759 1887 1984 2600 3388 2706 2828 3355 2631 2797 3663 3332 3691 1720 1533 3850 3515 3451 3757 3192 3334 2996 2854 2662 1963 1517 1933 3762 3825 3336 1776 3347 3484 1576 2587 2484 2217 2240 1521 2108 1503 1668 1743 3850 3865 1631 2634 1945 3591 1611 2636 1685 1520 2556 2751 3915 2328 3083 3282 3871 8 0 71 32 90 8 7 56 28 39 18 12 21 9 34 47 17 14 18 27 56 98 74 70 42
1682 3811 2532 3175 1561 2273 3240 2630 2194 1637 2707 3749 1787 2012 2941 1811 1967 3523 2641 3606 2666 3817 1532 3488 2544 2705 3459 1504 2672 3158 2915 1812 3098 1854 3305 2559 3892 2653 1797 2519 3105 1894 1609 3609 3485 3609 3535 1656 2937 3442 2181 2329 1816 2926 1892 3882 3683 3183 3802 3722 3224 2201 1722 2865 2903 2070 3519 3467 1668 2972 3962 2055 3092 1536 2407 74 71 0 72 90 97 5 19 39 89 68 9 61 68 57 28 64 84 91 90 58 52 2 39 4
3835 3830 2729 1618 2650 3949 2015 2664 3445 1620 2094 3954 2649 2815 3427 3889 3979 3219 3168 3998 3020 3549 2790 1839 3358 3360 2066 2236 2262 3828 1700 2104 3264 2980 3552 3500 1745 2668 3821 2426 3407 2525 2455 1790 3151 2148 3515 2586 2514 1918 1585 2552 2652 1650 1956 2566 2763 2200 3058 2788 3600 3814 3558 3562 2239 3623 2294 3603 2397 2663 2227 1577 3300 3537 3065 78 32 72 0 36 98 94 95 86 20 87 65 67 78 2 82 44 77 92 33 10 97 36 90 90
2828 1961 3545 3286 3361 3137 2319 2486 1779 3342 1956 2619 2232 3929 3488 3040 2968 2745 1614 2943 3555 3935 3569 2602 3764 2697 2460 3724 2293 2373 1567 2433 2571 3198 2348 3196 3935 2996 2442 2155 2185 1854 3439 2622 3514 3423 3189 2896 3629 3295 2583 2146 2952 2893 2667 1635 3667 3998 2710 3680 2995 2285 3321 1629 2774 2694 2225 3181 3981 1524 3019 2269 3699 3538 2626 20 90 90 36 0 31 28 64 78 5 29 29 42 25 18 98 88 46 93 35 64 78 88 76 37
2394 1787 3563 3552 2768 3934 2963 3592 3721 1995 3816 2884 3387 2660 3989 3798 3797 3397 3086 2069 1732 2911 3436 3248 2170 2002 3827 2982 3106 2302 2195 3614 2422 3764 2369 1746 2878 3931 2733 3420 3902 2112 3115 1699 3627 3478 1910 1696 2728 2312 1902 3502 2863 3204 3445 3614 2353 3618 1820 1610 1822 3291 3713 2444 1743 1919 2506 2942 2465 2598 3232 2965 2519 1838 3545 15 8 97 98 31 0 15 99 12 83 34 72 14 7 18 90 21 83 30 34 67 48 54 8 34
3181 1830 3066 1917 3217 2536 1938 2080 2350 1972 3929 2516 3969 2240 2329 2178 2737 1947 3523 2790 3391 1580 2740 1601 2904 1904 1766 2336 2411 1669 2100 2095 2096 3921 3797 2213 2791 3444 2770 1684 2517 2436 2303 2899 3055 2000 1512 1545 3811 2823 1831 1741 3339 3769 3767 3455 3087 2292 2507 2456 2603 2483 2610 3150 1818 2073 2718 2174 3050 3651 2055 3726 2387 3579 2256 86 7 5 94 28 15 0 30 53 40 9 38 35 77 53 89 28 42 91 17 36 90 73 15 11
2928 3322 3275 3200 3474 2759 3986 2961 3078 3090 2750 2205 2712 2056 2872 2825 2224 1688 1639 3700 2105 1806 2313 1925 2038 1712 3785 3760 2174 3607 3491 3168 2740 2539 1797 2947 3046 2929 2562 1576 3613 2071 2806 3465 2575 2448 3420 3770 3640 2326 2242 1979 2223 3231 2107 2338 1915 2563 2197 2453 1838 1691 2880 2374 3220 3839 2785 2718 2519 2422 3898 3757 3876 1602 2150 35 56 19 95 64 99 30 0 61 87 52 52 40 64 15 76 61 13 92 82 24 51 94 33 52
2136 3925 3897 2488 2062 2755 3186 3371 1853 1649 3744 2266 2633 2735 2114 2462 2132 2771 3768 2792 3249 2210 2589 1970 3515 1550 2867 3041 2345 2661 3936 1511 2971 1560 3280 1855 2940 2378 3130 3933 3353 1762 3880 3419 3104 2473 3404 2570 2163 3678 3979 1950 2115 2281 3268 2059 3709 3753 1589 1736 3147 1770 1706 1741 3741 2091 3919 1978 2427 1516 3408 1991 2877 3480 2640 84 28 39 86 78 12 53 61 0 30 71 53 52 51 17 90 9 30 4 25 5 55 45 30 35
2304 3818 3092 3733 1731 3383 2068 2535 2390 3472 2715 3358 3271 3391 1515 3304 3536 2448 3014 3924 3509 3104 2910 3673 3620 1928 2796 1562 3264 3904 2675 2116 3497 3428 3507 2412 3528 2515 2892 3010 3541 3069 3655 2516 2350 3820 2787 3899 3193 3019 2932 3684 2051 2938 3847 2615 3305 2185 2152 3472 3142 3851 2947 2712 2651 3436 1520 1766 2565 3216 3458 3040 3219 2611 3312 54 39 89 20 5 83 40 87 30 0 52 71 38 40 26 49 53 14 30 72 12 31 34 76 49
3298 3170 2423 3775 1640 2772 2407 3109 1739 1947 3901 2078 2136 3334 3313 1934 1730 2072 3381 3722 3964 3802 3004 1726 2174 3092 2424 3839 2636 3555 1702 1582 3639 3675 2332 1983 3948 3568 2340 2931 3030 3020 3961 2688 1588 3915 3067 2538 2307 2945 2874 2136 3211 2647 2400 2341 3800 3867 2661 2357 2434 3854 2711 1765 1949 2961 2604 1724 3124 3341 2426 3190 2686 3749 3144 58 18 68 87 29 34 9 52 71 52 0 68 79 64 18 2 53 81 13 62 67 61 44 83 69
2985 3919 1705 2943 2946 3784 3120 1796 2820 3016 1608 1866 2292 1792 2650 3455 1724 2317 2331 3606 3600 1931 3881 2987 3000 2736 2855 3538 3237 3318 3350 2091 2157 3995 2381 1859 2953 1733 2281 2839 2683 1798 1667 3046 3739 2447 2567 3915 2380 2822 1894 2693 1626 2069 2939 2232 3733 2837 2252 1559 2037 2482 1976 2642 3110 3132 3127 3860 2317 1804 1601 1751 3024 3998 2009 99 12 9 65 29 72 38 52 53 71 68 0 21 31 59 73 97 60 83 28 92 87 52 46 8
2761 3678 2881 2903 2160 1979 2324 3314 3967 3076 3009 3126 1915 2978 2689 3405 3030 2075 2739 2416 3157 1778 3625 2333 2074 3172 3014 1653 3971 3295 1854 3975 3722 3307 3823 1537 1530 3647 2121 2339 3079 1901 3006 3726 2831 1545 3869 1713 2806 1721 1747 3598 2699 3674 1966 1583 2204 1690 3124 1966 1764 3535 2613 2506 3910 3758 2432 2894 2022 3902 2830 1638 1790 1909 1500 13 21 61 67 42 14 35 40 52 38 79 21 0 51 66 98 82 46 29 61 46 32 29 49 18
2344 1536 2078 3276 1993 2690 3054 2259 2066 1978 1605 2843 3724 2118 2782 3161 3781 2926 3346 3673 2469 3559 3325 2901 1869 2394 1566 3941 2595 2151 3491 3052 1850 1696 1985 2491 2003 1980 1581 2330 3338 2032 3925 1646 1714 3967 2372 3397 1960 3891 1562 2467 3558 3157 3668 3464 3517 2325 2372 3571 3452 3070 3354 3169 3166 1932 2286 3238 3399 1624 2133 2798 2224 3167 3033 49 9 68 78 25 7 77 64 51 40 64 31 51 0 28 85 94 68 6 54 40 83 42 25 83
3401 1798 2984 2945 3337 2116 3859 1707 2172 2502 2787 2161 2767 2416 1873 3636 2091 2598 3609 3604 2254 2980 2228 3210 1589 2175 1541 2863 3000 3669 2932 2112 2962 3911 2310 3220 3127 2657 3769 3600 3597 2871 3769 2059 1992 3414 3826 1705 3266 3910 3628 2053 2073 2147 3262 3922 2198 1893 2345 3362 2064 2196 2959 3159 1576 3997 2876 2027 3852 1681 2391 2930 3472 2279 1604 43 34 57 2 18 18 53 15 17 26 18 59 66 28 0 67 18 95 24 80 35 70 41 85 51
2479 3659 1564 3364 3520 3659 2413 2238 3443 1794 3708 2258 2164 3515 3317 3996 3436 3132 2998 2582 3535 3202 3014 3492 2414 3579 3590 3881 3586 2730 2389 3391 3922 3268 3284 3115 3924 3958 3089 2415 2722 3786 3021 1761 3922 3138 2737 1556 1613 3519 3591 1918 3930 1763 3163 2466 1838 2270 3835 2667 1686 1938 1982 3200 1618 2595 2836 1667 2822 3108 3663 1877 3958 3024 2062 6 47 28 82 98 90 89 76 90 49 2 73 98 85 67 0 34 49 36 67 1 40 69 23 86
2320 1705 3620 1985 3886 1843 1998 2381 1971 3952 3581 3655 3053 3563 1718 1832 3212 1554 1509 2762 1945 2307 2168 2976 2384 3656 1912 2055 2465 2056 3434 1602 2979 3901 2299 3974 1880 3901 1520 2717 3443 2553 2392 2723 3495 2639 2554 2967 2582 3125 2575 3570 3514 2580 2854 2905 2605 3333 1904 3096 3596 3515 2585 3550 2992 1677 3267 2552 3081 2456 1908 3425 2513 2337 2805 7 17 64 44 88 21 28 61 9 53 53 97 82 94 18 34 0 5 42 6 88 3 82 5 76
3725 3952 3861 3455 2722 3253 2214 3111 1925 2764 2034 1601 1515 2627 1669 3579 1992 1953 2858 3073 2192 3849 2662 3124 3647 2673 3850 1810 2309 3456 1642 2004 3682 3757 3319 1787 2240 3904 1573 3760 1783 1794 1616 1507 1946 2196 2880 2399 2321 3358 3254 2475 1813 3069 2188 2623 3783 1995 2193 3089 1577 2803 3630 2642 2536 2964 2779 2617 1528 2001 2120 1561 2106 2617 3571 64 14 84 77 46 83 42 13 30 14 81 60 46 68 95 49 5 0 81 36 76 79 23 61 85
2159 3568 1863 2815 2806 3779 2780 2799 2039 1870 3130 2176 2414 2120 3342 2792 3248 2415 3164 1713 2182 3056 1623 3155 3290 3680 2849 3255 2639 1524 3632 3065 2529 3347 1574 1729 1948 3145 3953 3589 2246 1575 2186 1924 2563 3350 1777 1510 2221 2023 3087 3358 3162 2946 3300 1703 3632 2568 2676 2762 2870 2702 3002 3634 1980 2657 3108 3402 3722 1888 3569 2916 2432 3483 1997 96 18 91 92 93 30 91 92 4 30 13 83 29 6 24 36 42 81 0 95 15 15 50 79 11
2067 3893 3547 3379 3971 2234 2889 3582 2942 3538 1917 2896 3302 3692 2449 3591 2239 2674 2203 1501 3265 3072 2171 2060 2670 2886 2174 1733 3057 3246 1993 3183 3685 3736 2409 1695 3313 1507 3946 2197 1583 2056 3360 2631 2335 2867 2337 3847 1657 2241 2600 1840 3649 2930 3445 2099 2522 2378 3999 3407 2448 2051 3019 1626 3207 2504 1900 3267 2526 2396 3241 2419 2733 3493 2457 80 27 90 33 35 34 17 82 25 72 62 28 61 54 80 67 6 36 95 0 44 94 26 62 4
3285 2400 2516 2808 2759 2197 1560 2566 2759 3349 2121 3183 3907 3636 3651 2487 2790 3532 3418 2622 3984 3585 2165 2636 2045 3265 3024 3544 2988 3991 3653 2879 3160 2820 3252 1913 3580 2747 1873 1911 2634 2909 3325 2094 3680 3523 2548 3329 1600 2272 1893 3935 3617 2853 1612 2303 3612 3982 1905 1540 2720 3551 3259 2466 1592 2019 1582 3016 1906 3682 3266 3986 2933 2568 2057 16 56 58 10 64 67 36 24 5 12 67 92 46 40 35 1 88 76 15 44 0 65 92 83 5
3057 1871 1604 2266 1957 3419 3107 3716 2839 2042 2567 2934 3191 3004 3565 1666 2988 3980 3438 3005 2863 2062 3117 3855 2342 2468 2362 2242 2850 3568 2633 1590 2692 3681 3793 2664 3219 1694 3856 3938 2370 3771 2076 2572 3504 3500 2403 2307 1939 2257 1521 1619 3301 2388 2443 2527 3786 1914 2461 3483 3667 3137 1784 2358 3757 3732 1956 2657 2062 3805 2915 2213 2649 1663 3630 50 98 52 97 78 48 90 51 55 31 61 87 32 83 70 40 3 79 15 94 65 0 50 86 89
1621 2792 3774 1722 2139 2978 1908 1601 1568 2347 3835 2920 1814 2545 3725 3475 1937 1592 2316 2227 3716 3233 1665 1774 1804 1542 1705 2115 1970 3335 3400 2472 3036 3501 1770 3504 3727 1934 2077 1863 3448 1670 2897 3033 2113 3178 2492 2421 2581 2487 2488 3383 3960 1833 1932 3943 3651 2008 2894 3915 3375 2522 3973 3950 1547 1627 3849 2293 3456 2736 2151 2977 1832 3186 2595 87 74 2 36 88 54 73 94 45 34 44 52 29 42 41 69 82 23 50 26 92 50 0 38 30
1710 3931 3852 2813 3907 2926 3074 2312 3179 1687 3177 3433 3142 3473 1989 1863 2389 1539 2209 3696 2600 2892 2207 1848 2352 3387 3834 3025 1679 2861 2083 3380 1588 2196 2840 3101 3808 3197 3840 2796 3591 3452 3345 3415 1812 2120 2974 1769 3126 2643 2069 2922 3375 2047 2947 3102 1709 2935 1677 2853 1836 2264 3966 1589 3864 2876 3597 1725 2988 1854 3868 1644 2675 3043 2162 8 70 39 90 76 8 15 33 30 76 83 46 49 25 85 23 5 61 79 62 83 86 38 0 89
2442 2418 1607 3954 1608 3710 3708 1985 2283 2891 2599 3071 3288 2484 2775 2662 3259 3576 3641 2819 3695 2755 1603 2240 2577 2717 3090 3649 2727 1882 2369 3333 1886 2956 1621 3090 2981 3800 3329 2088 2324 2775 1561 3004 3870 3838 2750 2157 1919 1527 2744 1787 3094 1603 2299 1650 2191 2013 2642 1533 2857 2711 2894 1848 3543 1999 2646 1732 3395 3259 2819 2551 2916 2966 2885 53 42 4 90 37 34 11 52 35 49 69 8 18 83 51 86 76 85 11 4 5 89 30 89 0
EOF
