NAME: family_B_clustered_n125_s0
TYPE: TSP
COMMENT: family_B_clustered generated explicit tsp
DIMENSION: 125
EDGE_WEIGHT_TYPE: EXPLICIT
EDGE_WEIGHT_FORMAT: FULL_MATRIX
EDGE_WEIGHT_SECTION
0 85 64 51 27 31 5 8 2 18 81 65 91 50 61 97 73 63 54 56 93 28 81 67 1 40 85 55 4 76 73 84 1939 1723 3657 1555 2853 1700 2249 2702 2556 2508 1570 1513 1810 1520 3176 2814 3117 2143 3038 3410 2459 2652 3993 3512 3952 2448 3213 3875 3126 3600 3221 3260 2472 3687 1837 2947 3303 3613 2813 2438 2275 2557 2714 3297 3723 1682 3835 2828 2394 3181 2928 2136 2304 3298 2985 2761 2344 3401 2479 2320 3725 2159 2067 3285 3057 1621 1710 2442 3581 2502 3467 2291 2098 3479 3691 1698 1646 3178 2340 2934 1875 3650 2625 3737 3490 3263 2076 3417 1630 2925 2511 3991 1996
85 0 94 9 62 58 89 30 90 67 89 20 76 94 5 37 64 11 51 63 76 92 41 44 47 95 20 50 5 43 94 62 2374 3987 3009 3872 1540 2650 3587 3394 2518 2743 2550 2823 2075 3464 1694 2536 2204 3336 3373 3277 3811 3830 1961 1787 1830 3322 3925 3818 3170 3919 3678 1536 1798 3659 1705 3952 3568 3893 2400 1871 2792 3931 2418 3724 2459 3555 2073 2699 2317 2080 3731 3504 1849 3808 3927 2165 2566 2847 3142 2606 1871 3827 3230 1601 3535 3330 1958 3035 2754 1570 3818 3298 2275 1539 1728 3394 1873 2781 3746 3822 2169 1665 2737 3603 3061 1666 3125 2360 2065 2575 3683 3915 1852
64 94 0 56 76 26 27 24 21 88 22 23 13 13 78 29 80 59 85 55 76 81 7 56 46 29 45 41 49 81 82 63 3275 3897 3092 2423 1705 2881 2078 2984 1564 3620 3861 1863 3547 2516 1604 3774 3852 1607 2983 3556 3474 2538 3649 3574 1783 1524 1755 2412 1774 1696 2146 3131 2810 2184 3876 3256 3086 3859 3463 1817 1592 3661 2519 1648 2691 2451 2577 2574 2285 2722 2728 3941 3231 3439 1520 2272 3959 2174 2774 3657 3096 3703 1910 2776 3089 2360 2935 3987 3341 2289 1659 1956 2180 3700 2177 3530 2184 3169 2817 3896 2915 3814 3904 3370 3070 3651 3991 2117 2906 1853 1762 3175 1618
51 9 56 0 71 82 17 68 40 89 91 58 56 71 58 74 20 78 53 75 52 31 9 53 98 4 57 45 1 54 77 74 3945 2822 2974 3914 2299 3496 1968 2404 3181 2949 1987 3148 2944 3801 3005 3710 3906 1718 1680 2756 2749 2887 3360 2288 1943 3200 2470 3824 1657 3272 3314 2177 1719 2295 2487 3948 3683 2077 2680 2999 3781 1837 3414 3813 3788 2192 1818 2984 1683 1824 1675 2027 3672 3181 3085 3963 2741 1599 1908 2150 3184 2392 2295 1780 3277 1561 2650 3361 2768 3217 3474 2062 1731 1640 2946 2160 1993 3337 3520 3886 2722 2806 3971 2759 1957 2139 3907 1608 3502 3118 2703 3583 3533
27 62 76 71 0 44 60 76 65 49 91 88 7 55 83 9 38 51 33 69 99 37 78 12 49 1 42 2 87 96 9 81 3271 2251 3472 3905 3497 3231 2305 3016 3491 3286 2063 2530 2405 3236 2543 2548 2853 2948 1781 3812 2517 1938 1500 2587 3360 2240 3629 1999 1847 2477 3259 2248 3552 1552 3954 1617 3609 1508 2560 2273 3949 3137 3934 2536 2759 2755 3383 2772 3784 1979 2690 2116 3659 1843 3253 3779 2234 2197 3419 2978 2926 3710 1734 2182 2478 3793 1684 2631 2690 1536 2571 3121 2559 2264 2965 3952 1806 2215 3834 2241 3210 2378 3559 2963 3742 3093 2958 2721 1600 1801 3278 3098 2922
31 58 26 82 44 0 12 82 79 53 26 81 52 99 28 35 80 17 32 39 72 75 79 44 61 59 77 13 32 72 20 28 3946 1976 3995 3657 1890 2911 2309 2711 3024 3747 3828 1715 1947 3240 2015 2319 2963 1938 3986 3186 2068 2407 3120 2324 3054 3859 2413 1998 2214 2780 2889 1560 3107 1908 3074 3708 1983 3473 1585 2892 3167 2056 3453 2894 2544 1530 1836 3282 2517 3291 3902 3115 3354 3028 2250 1684 3032 2116 1802 2935 3025 2485 3074 3980 3395 3809 1669 1880 2396 2974 3238 3240 3766 1841 1928 2281 1919 3289 2529 3752 2209 2354 2247 2097 3601 3554 2239 2962 3696 2691 3756 2140 2064
5 89 27 17 60 12 0 8 63 2 18 58 44 19 51 97 98 11 75 45 47 40 83 23 58 75 42 64 12 72 31 9 2238 2381 3111 2799 3582 2566 3716 1601 2312 1985 2455 3862 1838 1906 2520 3630 1520 3555 3448 2478 1607 2666 3253 3560 1896 3201 2887 3592 3275 3393 3637 3228 2485 3782 2891 3557 1757 1947 2868 3370 3877 1716 3650 2564 3875 2491 3798 2005 2357 3844 3961 1736 1863 1512 3837 2307 2826 3976 3597 2161 2433 3576 2736 1932 3853 2965 3441 3896 3028 3291 3646 3951 2841 2936 3171 3958 2628 3592 2194 3445 1779 3721 2350 3078 1853 2390 1739 2820 3967 2066 2172 3443 1971
8 30 24 68 76 82 8 0 17 22 58 50 54 3 67 32 76 83 11 30 62 18 41 35 61 74 69 32 58 80 73 79 2800 2953 2657 3031 2216 2649 2072 2760 3238 3463 3239 1935 1988 2434 3929 1569 3177 2235 2828 1717 3602 3681 2716 3449 2689 3317 2145 2295 1890 2635 3279 3453 3610 1977 3194 2175 2422 2426 2939 2970 2908 1662 3841 3630 2469 2929 1911 3086 3692 3820 3736 1637 1620 3342 1995 1972 3090 1649 3472 1947 3016 3076 1978 2502 1794 3952 2764 1870 3538 3349 2042 2347 1687 2891 2877 1632 1979 2636 1668 3354 3433 3274 3553 3502 2495 2623 2235 1925 2192 3308 2402 3991 2942
2 90 21 40 65 79 63 17 0 66 53 79 36 61 64 86 67 60 56 6 39 31 62 32 59 50 34 51 31 22 55 98 3030 3042 3026 3705 2457 2559 2914 2896 3964 1949 2570 2026 3607 2883 1703 1962 3688 2606 3854 1729 2154 2868 1530 2477 2707 2094 1956 3816 3929 2750 3744 2715 3901 1608 3009 1605 2787 3708 3581 2034 3130 1917 2121 2567 3835 3177 2599 2013 3433 2976 2752 3134 1958 3784 2239 2695 2936 1937 1857 2687 1534 3010 2584 2097 3405 2315 3035 2024 2310 3066 3293 3100 2711 2129 3998 3777 3440 2228 3576 2946 2148 3452 1880 2948 1998 1684 2580 2617 2780 1514 1986 1705 3449
18 67 88 89 49 53 2 22 66 0 5 86 22 32 34 51 37 59 38 72 98 15 12 28 21 73 72 57 99 90 98 45 2884 2516 2205 2266 3358 2078 1866 3126 2843 2161 2258 3655 1601 2176 2896 3183 2934 2920 3433 3071 3071 3738 3397 1924 3918 1874 3862 1804 3955 1691 3716 2835 2908 1914 1828 3517 2110 1556 2637 2436 2628 2683 1663 2041 2174 2389 2558 2056 3503 2204 2595 3817 3993 2542 2469 2464 2388 3027 3098 3160 3450 3150 2174 1711 2530 2954 3790 3339 2295 3488 3138 2971 3640 1826 2732 1709 3353 2307 3432 3818 3640 2681 3051 3738 1787 2649 2232 3387 3969 2712 2633 3271 2136
81 89 22 91 91 26 18 58 53 5 0 32 17 89 51 27 62 1 37 72 96 67 13 66 71 69 14 59 39 12 98 67 3600 1516 2542 1957 3766 2552 3157 2445 3834 1797 1824 2567 2959 3059 3669 2443 3873 3271 2933 2077 3354 1859 1643 3372 2108 3171 2904 2573 2636 1841 2262 3159 2450 3374 3867 1909 1977 3223 2136 2389 3780 3787 3810 3378 1620 2184 3079 3845 2143 1563 3250 1962 3705 2104 1816 3330 2012 2815 3929 2660 2240 2056 2735 3391 3334 1792 2978 2118 2416 3515 3563 2627 2120 3692 3636 3004 2545 3473 2484 1968 3876 2290 3223 2441 3931 2735 2923 2681 3708 3556 2847 1932 2347
65 20 23 58 88 81 58 50 79 86 32 0 85 97 89 96 8 42 1 7 29 58 40 41 97 99 8 35 78 36 48 52 1824 2625 2415 2532 2452 1506 2108 3231 2235 3974 2549 2405 3905 1999 2647 3517 3875 3826 1576 2755 1665 2564 1569 2208 3164 3609 2050 2520 2941 3427 3488 3989 2329 2872 2114 1515 3313 2650 2689 2782 1873 3317 1718 1669 3342 2449 3651 3565 3725 1989 2775 3895 1883 3590 2064 2249 2633 2731 3629 3602 3125 2625 2185 2176 3389 2416 2588 2242 3956 2512 2571 3678 3592 1815 1536 3667 3295 3805 2496 2039 2747 1927 1997 3282 3823 2204 1999 3677 2903 3177 2993 3293 3646
91 76 13 56 7 52 44 54 36 22 17 85 0 9 47 82 83 84 52 25 95 93 71 44 91 31 94 73 80 72 13 11 1811 3889 3040 3798 2178 2825 2462 3304 1934 3455 3405 3161 3636 3996 1832 3579 2792 3591 2487 1666 3475 1863 2662 3280 3327 1618 2915 1719 3945 2790 2549 2504 3969 3351 2538 3319 1956 2499 3455 3521 2179 2734 2914 3640 3115 2805 1999 2731 1586 3128 3967 2980 3543 2485 1809 2466 3619 3082 2145 3419 2118 2126 3431 2266 3393 3997 3614 3514 1841 2833 3368 3708 2674 2040 2314 2578 3335 1890 3612 3943 2306 3748 1887 1967 3979 2968 3797 2737 2224 2132 3536 1730 1724
50 94 13 71 55 99 19 3 61 32 89 97 9 0 61 91 24 77 68 20 70 30 52 59 18 36 70 73 20 59 12 21 3825 3025 3815 1535 1815 1779 2331 1903 2618 2384 3196 1529 2599 3824 3631 2098 1995 2176 3743 2439 1836 3851 3478 2379 3074 2577 1540 2246 2574 3940 2785 2412 1856 1708 3001 3144 3064 3291 1867 2430 2792 2028 3185 2523 3659 2597 2165 3988 3965 3646 2772 3052 2003 1984 3523 3219 2745 3397 1947 1688 2771 2448 2072 2317 2075 2926 2598 3132 1554 1953 2415 2674 3532 3980 1592 1539 3576 2427 3770 2335 3524 2513 1668 3672 1920 2595 2105 3707 2399 2938 1617 2561 1924
61 5 78 58 83 28 51 67 64 34 51 89 47 61 0 25 14 82 89 64 50 22 56 13 46 13 15 90 46 40 43 82 2703 3738 2201 2065 2019 1581 1505 1950 2297 3432 2419 1538 2504 2910 1530 1978 3880 3416 3154 2698 2060 2872 3407 2233 2600 2641 3168 1614 3086 3523 1639 3768 3014 3381 2331 2739 3346 3609 2998 1509 2858 3164 2203 3418 3438 2316 2209 3641 3224 1500 2173 3080 3058 2252 3755 3071 2337 2128 2456 2024 2451 3065 3475 2742 2649 1968 2771 3715 3155 3705 2791 2873 1767 3265 3757 2628 2922 3503 2355 3584 2363 3410 3435 2107 3199 1561 3381 3145 1586 2528 3643 3735 2398
97 37 29 74 9 35 97 32 86 51 27 96 82 91 25 0 86 88 53 14 38 66 71 99 71 65 68 75 84 99 58 23 2790 3700 2792 3924 3722 3606 2416 3673 3604 2582 2762 3073 1713 1501 2622 3005 2227 3696 2819 1550 3633 2745 1948 2970 2688 1622 2956 3231 3424 2082 3852 3561 2876 2545 3804 2624 2341 2738 3410 2993 3409 2462 2878 2370 1934 2588 2465 3688 2227 3862 3917 1891 3111 3298 3772 3926 2240 2925 2572 2826 2918 3077 2386 2156 2641 3852 2998 3428 1570 1748 2349 1513 1500 2966 2706 2666 3020 3555 1732 3391 2105 3249 3509 3964 3600 3157 2469 2254 3535 1945 2192 2182 3265
73 64 80 20 38 80 98 76 67 37 62 8 83 24 14 86 0 99 55 88 44 87 65 79 2 88 17 35 30 84 68 17 3265 2192 3201 2853 3419 3749 1698 3132 1764 3803 3638 3865 2392 3029 2920 1673 2758 2805 3066 2147 1692 1560 3424 3277 1808 3766 3203 1992 2505 3905 2730 1518 3179 3909 2427 3612 1615 1674 3910 2329 2806 2145 3355 2447 2828 3817 3549 3935 2911 1580 1806 2210 3104 3802 1931 1778 3559 2980 3202 2307 3849 3056 3072 3585 2062 3233 2892 2755 3429 2188 3279 3512 2355 2098 3138 2121 3838 1712 3212 2623 2418 2890 3776 1864 3569 2544 3637 3393 1767 2051 2227 1714 3475
63 11 59 78 51 17 11 83 60 59 1 42 84 77 82 88 99 0 52 28 74 8 4 68 75 80 59 64 19 35 14 56 3195 1553 1931 2906 2939 3642 3336 1695 1738 2458 1683 1912 2153 2450 3355 1532 2790 3569 3436 2740 2313 2589 2910 3004 3881 3625 3325 2228 3014 2168 2662 1623 2171 2165 3117 1665 2207 1603 1983 2881 2155 1959 3366 1685 1828 3791 3920 1871 3533 1737 2650 3926 2674 3167 3779 3314 1560 2908 1802 1675 3546 3604 3602 2545 2569 2481 3613 1838 3755 1783 2296 2805 1522 2921 1506 2796 1959 3032 2771 3694 2804 2760 2425 2447 3073 2141 2078 2267 2857 2902 2631 3488 1839
54 51 85 53 33 32 75 11 56 38 37 1 52 68 89 53 55 52 0 44 70 5 17 19 87 9 59 34 56 68 79 59 3124 3155 2060 2636 3855 1774 1848 2240 2790 2777 3260 2742 2137 2109 3161 3563 3962 2583 3420 3613 3007 2163 1832 3854 3026 1779 2541 3422 2747 1550 2199 2090 2592 3676 2388 2375 3695 3831 1553 3823 2148 3500 1969 2490 2610 3645 3922 2642 2893 1815 1653 3629 3899 3540 2026 1838 2848 3666 3782 2797 2544 3358 3764 2170 2904 2038 3515 3620 2174 3000 2074 1869 1589 2414 2384 3647 3290 2670 2045 2342 1804 2352 2577 3561 3720 2635 2231 3870 3821 2280 3621 3391 2485
56 63 55 75 69 39 45 30 6 72 72 7 25 20 64 14 88 28 44 0 29 9 77 45 2 15 13 80 26 60 87 42 2306 2095 2708 3520 1767 3519 2916 3703 1739 3968 1854 2361 3502 2925 2109 3741 1653 2824 3004 3919 1866 1903 1632 1770 3576 2827 2492 2078 3663 2705 3360 2697 2002 1904 1712 1550 1928 3092 2736 3172 2394 2175 3579 3656 2673 3680 2886 3265 2468 1542 3387 2717 3222 2386 3214 3913 3428 3562 2496 2853 1797 3803 3544 2793 2363 2894 3229 3936 3971 2298 3254 3896 3766 3062 1533 1610 3009 1767 1743 3998 3681 2317 3900 2892 1585 3138 1833 2374 3581 3966 3217 2252 3954
93 76 76 52 99 72 47 62 39 98 96 29 95 70 50 38 44 74 70 29 0 2 75 69 59 26 54 24 1 73 78 23 2460 3827 1766 3785 2867 2796 2424 2855 3014 1566 1541 3590 1912 3850 2849 2174 3024 2362 1705 3834 3090 3850 3603 2300 2216 3144 2803 1675 3765 2842 3257 3836 2016 3855 3916 2990 2355 3109 3560 1752 2631 1764 3474 2841 3802 2716 3756 3478 3511 3322 2307 2078 3781 3753 1883 1944 2150 1628 3115 3809 3370 1817 1625 3753 2172 3516 2422 3449 3618 3691 1504 2236 3724 2982 2336 3760 3041 1562 3839 3538 1653 3941 2863 3881 2055 1810 3255 1733 3544 2242 2115 3025 3649
28 92 81 31 37 75 40 18 31 15 67 58 93 30 22 66 87 8 5 9 2 0 80 18 77 48 63 13 47 31 25 38 1725 3238 3256 2292 3161 2824 3015 3128 3172 3464 3004 2233 3781 1640 3058 2092 1898 2864 2851 3694 3132 3143 2791 3018 2958 1579 3126 2745 3675 2327 2884 2368 3009 3898 2269 1908 3487 1720 2672 2262 2293 3106 2411 2174 2345 3264 2636 3237 3971 2595 3000 3586 2465 2309 2639 3057 2988 2850 1970 1679 2727 2368 1589 2907 1913 3940 3434 3459 3282 2702 2293 1991 2163 2174 3264 1606 3999 2953 2427 2560 3008 3146 3468 2828 1528 2541 3458 2380 2243 1601 1952 3957 3492
81 41 7 9 78 79 83 41 62 12 13 40 71 52 56 71 65 4 17 77 75 80 0 8 96 3 57 22 60 14 31 79 3904 1879 3788 2349 1622 1533 3158 3828 2373 2302 1669 3607 2661 3904 3555 3318 3295 2151 3669 2730 2056 3456 1524 3246 3991 3568 3335 2861 1882 3143 2340 2407 3937 1978 3883 3243 2904 1507 3596 3459 1636 1518 2138 3042 2340 2986 3131 1763 3743 2980 1821 3394 2649 2839 3833 3181 3176 3271 3422 2014 3947 3816 3291 2318 1576 2959 3547 1757 3383 3991 1896 3135 2771 2654 3850 2915 1700 1567 2195 2100 3491 3936 2675 1702 3350 1854 3491 2932 2389 3434 1642 3632 1993
67 44 56 53 12 44 23 35 32 28 66 41 44 59 13 99 79 68 19 45 69 18 8 0 86 45 76 24 35 99 58 33 3532 2725 1847 3802 1703 2960 2646 2975 2275 2306 1509 3927 2792 3669 2432 3791 3707 2710 2335 1719 3156 2760 2920 2116 2249 2912 2669 3055 2419 3066 2093 2402 1720 3475 1630 1619 2056 3235 1708 3891 1876 3515 1812 2104 2433 3614 2095 3168 1511 2116 1582 2091 3975 3052 2112 3391 1602 2004 3065 3183 2879 1590 2472 3380 3333 1726 3842 3084 2490 3864 2438 2344 2785 1527 2086 2542 1934 3478 2471 2867 3192 1726 1536 3227 1845 3796 3520 1782 2330 3912 2897 2090 1638
1 47 46 98 49 61 58 61 59 21 71 97 91 18 46 71 2 75 87 2 59 77 96 86 0 10 55 83 3 35 21 71 2619 1989 2809 3503 1813 1784 2647 1870 3451 3098 3264 2571 2422 2096 2740 2971 3497 3639 2157 3722 1850 2962 3922 2979 3682 2529 3685 3160 2692 3036 1588 1886 3357 3653 3475 2627 3912 2232 1589 1982 3532 1702 2341 2640 3166 3093 3751 3205 2129 1565 3983 3536 1594 1622 1786 1553 2701 2713 3297 1941 3816 1655 3618 2662 3926 1840 2603 2886 2515 1572 2973 3411 3229 3122 3757 1854 2980 3198 3764 3921 2539 1560 3428 3675 3995 3307 1696 3911 3268 3901 3757 3347 3736
40 95 29 4 1 59 75 74 50 73 69 99 31 36 13 65 88 80 9 15 26 48 3 45 10 0 53 87 80 28 58 41 2197 2770 3649 3924 1997 2163 2124 3151 3341 3399 3399 1866 2336 3675 1605 2763 3547 3890 1821 3724 1788 3868 1918 1957 2210 3586 2787 3657 1588 3868 3302 3123 2393 2421 2571 2967 3406 1894 3605 3990 3192 3305 3552 2348 2369 3797 1797 3280 3507 2332 2381 3823 1985 2310 3284 2299 3319 1574 2409 3252 3793 1770 2840 1621 1983 3140 2766 3920 3553 1660 3617 3399 2068 2071 3638 3653 1506 1530 1559 1985 3986 3937 3601 2938 2564 1829 3150 1511 3887 2522 2798 2586 3850
85 20 45 57 42 77 42 69 34 72 14 8 94 70 15 68 17 59 59 13 54 63 57 76 55 53 0 53 81 68 83 16 2334 2295 1700 1632 2369 3991 3334 2559 3500 3196 1746 2213 2947 1855 2412 1983 1859 1537 2491 3220 3115 3974 1787 1729 1695 1913 2664 3504 3101 3090 2169 3869 3921 2411 2926 2570 2268 2216 3822 3510 3606 1968 2535 2449 3868 3148 3455 3783 1559 3532 2891 1712 3846 3660 3236 3478 2472 2676 3624 2884 3788 2608 2190 1638 3936 2300 1848 3782 2400 2996 3892 1745 3935 2878 2791 3046 2940 3528 3948 2953 1530 2003 3127 3924 1880 2240 1948 3313 3580 3219 3727 3808 2981
55 50 41 45 2 13 64 32 51 57 59 35 73 73 90 75 35 64 34 80 24 13 22 24 83 87 53 0 76 12 39 22 1620 2728 3140 3317 1529 2248 1631 2401 1557 3915 2932 2001 3468 2982 1675 3224 2298 1791 2447 1516 3748 1668 3115 3246 2511 2719 3805 3436 3217 3036 3180 2225 3280 1785 2854 2653 2668 2996 3931 3444 2929 2378 2515 3568 1733 3647 1980 2657 3958 3901 3904 3145 1507 2747 1694 1934 3197 3800 2045 3328 3159 3077 2024 3834 2492 2781 2314 3573 2116 2100 3437 3887 2259 2390 3786 1534 1971 2650 3737 1504 1883 1684 2239 1946 3959 2717 1618 1665 3595 3282 1909 3895 2797
4 5 49 1 87 32 12 58 31 99 39 78 80 20 46 84 30 19 56 26 1 47 60 35 3 80 81 76 0 80 95 47 1797 3821 2442 2733 2770 2562 3130 2892 2340 2281 2121 1581 3769 3089 1520 1573 3953 3946 1873 3856 2077 3840 3329 2121 3382 3761 2782 3230 1553 3908 2056 2567 2019 3880 3730 1857 2647 1599 3418 3683 3765 3053 2482 3959 3809 3889 3201 2817 3012 2343 2626 2482 2605 1608 2309 1522 2197 2725 2712 1963 2519 2426 2155 3420 1684 1576 3933 3010 2931 2839 2339 2330 3600 2415 2717 3760 3589 2197 1911 3938 1863 2796 2088 3461 3650 3185 3411 2778 2320 1531 3833 2850 3650
76 43 81 54 96 72 72 80 22 90 12 36 72 59 40 99 84 35 68 60 73 31 14 99 35 28 68 12 80 0 37 39 2296 2999 2348 3962 2504 3265 2230 1994 2661 2996 3272 3728 3031 2830 2680 2668 1584 3363 3948 2635 2368 3082 2639 1517 3105 3407 2185 3902 2517 3613 3353 3541 3030 2683 3079 3338 3597 2722 3443 1783 2246 1583 2634 2370 3448 3591 2324 2675 3636 1777 3001 1583 1520 2819 3918 2121 3148 3096 3177 2239 2951 2608 2408 1853 2158 2514 1750 2921 2646 2826 2189 1755 1712 3650 1806 3284 3688 1872 3819 1775 1831 1933 1894 2525 1854 2112 2436 2071 1762 3069 3020 1798 1901
73 94 82 77 9 20 31 73 55 98 98 48 13 12 43 58 68 14 79 87 78 25 31 58 21 58 83 39 95 37 0 22 2871 3786 2553 1794 1575 2056 2909 3771 1670 3452 2775 2620 2336 3923 2472 2317 2602 2984 2121 2008 3666 2648 2611 2113 3915 3301 3889 1960 1577 3715 3581 3742 2192 3421 1601 3714 3965 2255 2405 1629 2766 3770 2747 2942 3762 1609 2455 3439 3115 2303 2806 3880 3655 3961 1667 3006 3925 3769 3021 2392 1616 2186 3360 3325 2076 2897 3345 1561 2094 2371 3815 1521 1703 2272 3850 2669 1940 2404 3090 2810 2013 1573 3228 3872 3397 2027 1507 1710 3390 3015 2795 3177 2777
84 62 63 74 81 28 9 79 98 45 67 52 11 21 82 23 17 56 59 42 23 38 79 33 71 41 16 22 47 39 22 0 2302 1649 3788 3014 1886 3180 1930 3825 3609 1790 2622 1699 2899 3465 3419 2516 2688 3046 3726 1646 2059 1761 2723 1507 1924 2631 2094 2572 3033 3415 3004 3482 2453 2975 1522 3771 2620 1785 2174 1578 3988 3128 2946 2579 3714 2534 3228 3264 1728 2056 2726 2870 3874 3814 2828 2299 1853 3002 3406 3057 3445 3751 3336 3485 3151 3514 3627 3055 2575 3104 2350 1588 3739 2831 1714 1992 3922 3495 1946 2563 2335 3680 3504 2113 1812 3870 2432 1652 3122 3694 2326 3178 3612
1939 2374 3275 3945 3271 3946 2238 2800 3030 2884 3600 1824 1811 3825 2703 2790 3265 3195 3124 2306 2460 1725 3904 3532 2619 2197 2334 1620 1797 2296 2871 2302 0 67 30 77 59 17 35 95 11 55 28 18 81 30 32 50 35 2 88 69 91 58 57 98 11 84 26 77 79 20 38 2473 3820 3915 2447 1545 3967 3414 3138 2639 2196 3350 2867 3523 3500 3178 2120 3838 2238 3776 2541 2662 2407 3090 3848 1596 3117 2032 2974 3247 3866 2761 2504 3566 3215 3885 1921 3116 3584 3107 2320 3313 2695 2791 1568 2549 1867 3347 3535 3515 3189 1910 1512 3420 3404 2787 3067 2567 3869 2372 3826 2737 2554
1723 3987 3897 2822 2251 1976 2381 2953 3042 2516 1516 2625 3889 3025 3738 3700 2192 1553 3155 2095 3827 3238 1879 2725 1989 2770 2295 2728 3821 2999 3786 1649 67 0 55 12 34 42 36 40 59 50 87 25 78 33 5 7 68 75 86 28 20 68 39 28 36 84 2 24 78 12 4 3452 3361 2070 2862 1936 3282 2927 3484 1656 2586 2896 1696 1545 3770 2570 3899 2538 3915 1713 3397 1705 1556 2967 2399 1510 3847 3329 2307 2421 1769 2157 2572 3877 3728 1555 2712 3067 2224 1544 3334 2455 1839 2281 2685 1700 2850 3457 2729 2929 3112 1693 1703 3942 2219 1776 2586 2730 2585 1576 2937 2514 3629
3657 3009 3092 2974 3472 3995 3111 2657 3026 2205 2542 2415 3040 3815 2201 2792 3201 1931 2060 2708 1766 3256 3788 1847 2809 3649 1700 3140 2442 2348 2553 3788 30 55 0 49 92 85 27 68 32 35 52 19 70 5 43 33 29 7 4 18 43 65 17 20 93 38 11 1 84 91 80 3602 2780 1736 1740 3211 3533 2729 3193 3554 3661 1946 2001 1950 2391 3885 3345 2020 3873 2587 3442 1918 3295 2312 2823 2326 3678 3019 2945 2822 1721 3891 3910 3519 3125 3358 2023 2241 2272 2257 2487 2643 1527 2233 2625 1964 3838 1991 3892 2447 2623 2340 3740 3852 2561 3012 2098 3674 1977 1746 2105 1597 1844
1555 3872 2423 3914 3905 3657 2799 3031 3705 2266 1957 2532 3798 1535 2065 3924 2853 2906 2636 3520 3785 2292 2349 3802 3503 3924 1632 3317 2733 3962 1794 3014 77 12 49 0 83 37 44 40 55 39 27 4 43 16 14 30 99 57 55 16 10 3 85 83 43 70 63 44 16 1 40 2069 2744 2014 2743 2825 3549 3729 2739 1516 2256 2067 2169 3339 2269 2902 2680 3793 2160 2941 1577 2264 1998 1815 2945 3692 2176 2217 2329 2552 2146 3502 1741 1979 1950 3684 2136 2693 3598 2467 2053 1918 3570 2475 3358 1840 3935 1619 3383 2922 1787 3047 3850 2509 3605 3345 2609 1736 2583 2279 1577 3551 2044
2853 1540 1705 2299 3497 1890 3582 2216 2457 3358 3766 2452 2178 1815 2019 3722 3419 2939 3855 1767 2867 3161 1622 1703 1813 1997 2369 1529 2770 2504 1575 1886 59 34 92 83 0 94 71 78 11 19 99 54 3 10 99 12 30 13 46 58 55 73 29 25 22 68 6 48 82 23 97 3514 1813 3162 3649 3617 3301 3960 3375 3094 2469 2992 1643 2244 3226 2616 3905 2753 3146 2460 2085 3791 2841 1850 1804 2031 3294 2504 3182 2353 2616 1724 1521 2926 1650 2893 3204 3769 3231 2281 2938 2647 2069 3674 3157 2147 1763 2580 3069 2946 2930 2853 2388 1833 2047 1603 3311 3047 1952 2180 1893 2673 3081
1700 2650 2881 3496 3231 2911 2566 2649 2559 2078 2552 1506 2825 1779 1581 3606 3749 3642 1774 3519 2796 2824 1533 2960 1784 2163 3991 2248 2562 3265 2056 3180 17 42 85 37 94 0 3 66 13 11 84 26 91 10 98 91 11 1 82 35 25 16 19 47 78 90 25 71 93 36 58 1966 3668 3262 3163 2854 2188 3300 3445 1612 2443 1932 2947 2299 1770 2666 1855 2923 3273 2905 2682 2857 2975 2915 2027 2543 2262 2197 1941 2795 1978 1804 3967 3373 1503 3882 2566 1635 3614 3455 2338 2059 2615 2341 2232 1583 3464 3922 2466 2905 2623 1703 2099 2303 2527 3943 3102 1650 3469 3794 2360 2198 1501
2249 3587 2078 1968 2305 2309 3716 2072 2914 1866 3157 2108 2462 2331 1505 2416 1698 3336 1848 2916 2424 3015 3158 2646 2647 2124 3334 1631 3130 2230 2909 1930 35 36 27 44 71 3 0 8 57 62 25 89 74 37 62 35 6 26 57 31 48 7 87 51 86 34 63 17 88 72 92 3733 2204 3517 2198 1838 2605 3783 3632 2522 3612 3786 3651 1709 2191 3959 3706 1741 1557 3363 2576 3286 3729 3392 2545 2111 3606 3369 2351 2782 1746 1617 2570 1743 3183 2200 3998 3618 2292 2563 3753 2185 3867 2837 1690 2325 1893 2270 3333 1995 2568 2378 3982 1914 2008 2935 2013 2442 1891 1598 3073 2040 1941
2702 3394 2984 2404 3016 2711 1601 2760 2896 3126 2445 3231 3304 1903 1950 3673 3132 1695 2240 3703 2855 3128 3828 2975 1870 3151 2559 2401 2892 1994 3771 3825 95 40 68 40 78 66 8 0 48 49 28 26 88 89 6 14 65 86 86 94 92 62 48 13 40 28 4 26 46 30 65 2372 2345 3835 1904 2193 2676 3999 1905 2461 2894 1677 2642 2487 3987 2936 1907 2922 3088 3672 1998 1953 2546 1669 3368 3777 2742 3136 2401 3865 3722 2788 3680 1610 2456 2453 1736 3472 2357 1559 1966 3571 3362 2667 3096 3089 2762 3407 1540 3483 3915 2853 1533 3513 2818 1694 2579 1656 2154 2995 3724 3975 2357
2556 2518 1564 3181 3491 3024 2312 3238 3964 2843 3834 2235 1934 2618 2297 3604 1764 1738 2790 1739 3014 3172 2373 2275 3451 3341 3500 1557 2340 2661 1670 3609 11 59 32 55 11 13 57 48 0 35 56 72 13 38 6 69 84 60 13 44 14 66 66 38 22 11 78 23 8 84 4 2870 2448 2720 3667 3375 1836 2857 1513 1795 2705 2483 2622 2763 2594 1909 2074 1852 3275 3541 3629 3115 2634 2201 3814 2285 3291 2483 1691 1770 3851 3854 2482 3535 3070 2196 1938 3515 2803 2702 2051 3551 3137 2522 2264 2711 3992 1822 1772 1548 2910 2935 1958 3030 2238 3764 3650 3059 2753 1945 1722 3558 3321
2508 2743 3620 2949 3286 3747 1985 3463 1949 2161 1797 3974 3455 2384 3432 2582 3803 2458 2777 3968 1566 3464 2302 2306 3098 3399 3196 3915 2281 2996 3452 1790 55 50 35 39 19 11 62 49 35 0 88 44 55 9 58 48 19 45 74 58 20 44 85 60 61 70 12 98 98 56 10 2601 2042 3280 3971 3784 3444 1557 3667 1590 2814 3943 3591 2865 3562 1629 2444 3150 2374 1741 2712 1765 2642 2506 3169 3159 3200 3550 2642 3634 1626 2466 2358 3950 1589 1848 2792 3176 1616 2079 1574 3270 2499 2673 3243 1575 2680 1611 2903 2239 2774 1743 1818 3220 3741 2651 1949 3110 3910 3166 1576 1618 2992
1570 2550 3861 1987 2063 3828 2455 3239 2570 2258 1824 2549 3405 3196 2419 2762 3638 1683 3260 1854 1541 3004 1669 1509 3264 3399 1746 2932 2121 3272 2775 2622 28 87 52 27 99 84 25 28 56 88 0 42 20 68 4 90 2 94 81 38 15 58 83 93 12 5 98 97 34 46 23 3623 2694 1919 2073 3839 2091 3436 2961 3132 3758 1932 3997 2595 1677 2964 2657 2504 2019 3732 1627 2876 1999 1722 2094 3688 3300 2278 3852 1928 2550 3107 1685 3519 2294 2225 2506 2718 2785 3919 1520 2604 3127 2432 2286 2876 2836 3267 2779 3108 1900 1582 1956 3849 3597 2646 3648 3260 2473 2996 1745 1910 1693
1513 2823 1863 3148 2530 1715 3862 1935 2026 3655 2567 2405 3161 1529 1538 3073 3865 1912 2742 2361 3590 2233 3607 3927 2571 1866 2213 2001 1581 3728 2620 1699 18 25 19 4 54 26 89 26 72 44 42 0 99 1 78 84 67 58 27 49 19 11 9 94 56 69 21 7 42 45 76 3267 3016 2657 2293 1725 1732 3886 2270 2439 1993 1561 2863 1872 2556 1668 2397 3981 2465 3050 2519 2427 2565 3124 2317 2022 3399 3852 2822 3081 1528 3722 2526 1906 2062 3456 2988 3395 3598 1683 3358 2015 1807 3586 2751 2972 2663 1524 2598 3651 2422 1516 3216 3341 1804 3902 1624 1681 3108 2456 2001 1888 2396
1810 2075 3547 2944 2405 1947 1838 1988 3607 1601 2959 3905 3636 2599 2504 1713 2392 2153 2137 3502 1912 3781 2661 2792 2422 2336 2947 3468 3769 3031 2336 2899 81 78 70 43 3 91 74 88 13 55 20 99 0 87 92 49 15 70 85 75 41 67 19 96 98 29 61 69 23 95 76 3458 2426 1601 2830 2133 2391 3663 1908 2120 3569 3241 3266 2915 2151 3868 2819 1736 1531 2052 3612 2328 2055 1577 2269 2965 3726 3757 1991 3040 3190 1751 1638 2798 2930 1877 3425 1561 2916 2419 3986 2213 2977 1644 2551 3200 2240 3812 3083 3092 3300 3699 2519 2387 3876 2877 3219 2686 3024 1790 2224 3472 3958
1520 3464 2516 3801 3236 3240 1906 2434 2883 2176 3059 1999 3996 3824 2910 1501 3029 2450 2109 2925 3850 1640 3904 3669 2096 3675 1855 2982 3089 2830 3923 3465 30 33 5 16 10 10 37 89 38 9 68 1 87 0 41 25 37 49 57 46 14 47 57 36 91 71 2 81 81 14 83 1602 3480 2611 3749 3998 1909 3167 2279 3024 2337 2617 3483 3493 2568 1663 3186 3043 2966 3536 3871 2407 3065 2626 3545 2256 2150 2640 3312 3144 2009 1500 3033 1604 2062 2805 3571 1997 2457 2057 3630 2595 2162 2885 1692 3356 3464 2000 1867 3669 2373 3619 2855 2947 3990 1827 2720 2583 1626 1663 3097 3916 3506
3176 1694 1604 3005 2543 2015 2520 3929 1703 2896 3669 2647 1832 3631 1530 2622 2920 3355 3161 2109 2849 3058 3555 2432 2740 1605 2412 1675 1520 2680 2472 3419 32 5 43 14 99 98 62 6 6 58 4 78 92 41 0 16 50 87 8 53 71 32 90 8 7 56 28 39 18 12 21 1702 2346 2674 1904 1839 1941 2167 2912 3951 3349 3267 2547 3308 3764 3941 1620 1961 2472 3747 3216 1704 3016 3194 2914 2190 3094 3602 3797 3761 2962 2813 1529 2477 1596 2392 3957 3851 3888 3647 1995 3681 3119 3189 3449 1546 3560 2586 3424 3803 2328 1727 3939 2407 3758 3769 2282 2203 3111 3449 1613 2227 2211
2814 2536 3774 3710 2548 2319 3630 1569 1962 3183 2443 3517 3579 2098 1978 3005 1673 1532 3563 3741 2174 2092 3318 3791 2971 2763 1983 3224 1573 2668 2317 2516 50 7 33 30 12 91 35 14 69 48 90 84 49 25 16 0 42 25 18 98 88 46 93 35 64 78 88 76 37 15 99 1800 3588 2347 3312 1849 1670 1930 3752 2016 3584 2246 2358 3169 2698 2851 1690 2336 2247 2837 2489 1718 2446 2383 3428 2830 3736 2190 2551 3787 1908 2384 3764 3343 1859 1772 3020 3684 2794 2790 2499 3113 1863 3394 3029 1818 3811 3565 2103 2765 3867 2318 2807 2234 3277 2836 2792 2781 1909 3771 1704 2244 1585
3117 2204 3852 3906 2853 2963 1520 3177 3688 2934 3873 3875 2792 1995 3880 2227 2758 2790 3962 1653 3024 1898 3295 3707 3497 3547 1859 2298 3953 1584 2602 2688 35 68 29 99 30 11 6 65 84 19 2 67 15 37 50 42 0 25 5 55 45 30 35 52 71 38 40 26 49 53 14 2256 3297 1778 2264 2353 3409 2716 3209 3484 3107 1950 1534 2827 3541 1824 3046 3186 3016 2607 3589 3241 2025 2272 2983 3322 3934 3012 3574 2198 3799 3695 2808 2638 1689 2786 3156 3950 3570 2647 2216 3036 2651 2295 2208 2722 1950 2198 3631 3853 3196 1636 2843 2498 3571 2539 2114 3585 3185 1942 3874 2096 3519
2143 3336 1607 1718 2948 1938 3555 2235 2606 2920 3271 3826 3591 2176 3416 3696 2805 3569 2583 2824 2362 2864 2151 2710 3639 3890 1537 1791 3946 3363 2984 3046 2 75 7 57 13 1 26 86 60 45 94 58 70 49 87 25 25 0 35 70 41 85 51 34 49 36 67 1 40 69 23 3655 1617 2550 1643 3710 1558 3562 1610 3417 3543 2408 3409 3469 2059 3034 3624 3882 1864 1858 2744 3489 1767 2597 3851 2133 3062 1578 3136 3822 3592 1605 2752 3657 3734 2453 2239 3738 2639 2284 3629 3161 3189 2412 3703 2337 2903 3116 2734 3438 3288 1853 2923 1711 3727 2093 3318 1865 1789 2107 2137 3808 3960
3038 3373 2983 1680 1781 3986 3448 2828 3854 3433 2933 1576 2487 3743 3154 2819 3066 3436 3420 3004 1705 2851 3669 2335 2157 1821 2491 2447 1873 3948 2121 3726 88 86 4 55 46 82 57 86 13 74 81 27 85 57 8 18 5 35 0 90 14 62 69 90 9 29 87 10 46 37 74 3699 1672 1570 2498 3687 3168 2644 3251 3361 3589 2817 2179 1725 3778 3334 3295 1818 2460 3862 1842 2779 1751 3113 3945 1536 2359 1843 3820 3543 3756 1645 3903 1604 3476 1716 2851 1935 1564 3376 1752 3162 3969 3476 2708 3404 3716 1661 1722 2118 3630 3821 2206 2838 2584 3259 3123 3942 2973 3817 1685 3817 2643
3410 3277 3556 2756 3812 3186 2478 1717 1729 3071 2077 2755 1666 2439 2698 1550 2147 2740 3613 3919 3834 3694 2730 1719 3722 3724 3220 1516 3856 2635 2008 1646 69 28 18 16 58 35 31 94 44 58 38 49 75 46 53 98 55 70 90 0 41 86 54 33 7 23 5 41 53 2 23 2217 2380 2916 2123 3383 2667 3523 3818 3083 2075 1552 1703 1584 3883 2984 3092 1652 2425 3227 2757 2581 1742 2716 2277 3229 1596 2902 1875 2792 2685 3396 1706 2940 2308 2139 2980 3061 3655 3258 2071 1673 2407 2578 2193 3286 2215 3464 3900 3284 2582 3527 3523 2846 1874 1817 2653 1660 2668 1614 3055 2524 3181
2459 3811 3474 2749 2517 2068 1607 3602 2154 3071 3354 1665 3475 1836 2060 3633 1692 2313 3007 1866 3090 3132 2056 3156 1850 1788 3115 3748 2077 2368 3666 2059 91 20 43 10 55 25 48 92 14 20 15 19 41 14 71 88 45 41 14 41 0 52 39 68 20 39 94 57 37 92 13 2094 2854 3489 2017 1779 3501 2492 3226 3208 2999 3170 1538 1931 2556 3189 2880 2063 3409 2774 2352 1799 3839 3366 2616 2771 1715 1634 2589 1534 3602 1686 1970 2250 2306 2847 3943 3143 1683 1961 2347 3953 2598 3700 2703 3491 2871 3130 3212 2203 2477 2153 1586 1932 2346 2238 1553 2957 2752 2882 3672 2936 1710
2652 3830 2538 2887 1938 2407 2666 3681 2868 3738 1859 2564 1863 3851 2872 2745 1560 2589 2163 1903 3850 3143 3456 2760 2962 3868 3974 1668 3840 3082 2648 1761 58 68 65 3 73 16 7 62 66 44 58 11 67 47 32 46 30 85 62 86 52 0 69 41 29 91 57 83 44 74 96 3276 3049 1519 2447 2589 3999 3723 3314 3305 1972 2379 3760 2901 1842 3047 3137 3659 2698 2871 3466 3635 2187 3342 1580 3991 2581 2353 2624 2789 1651 3077 2326 1537 3088 2847 2470 2675 2952 2196 3947 3039 2273 3303 3578 3175 2477 3765 2659 2662 1584 3280 1797 1948 1673 3132 1638 1830 2168 3489 2553 3529 1928
3993 1961 3649 3360 1500 3120 3253 2716 1530 3397 1643 1569 2662 3478 3407 1948 3424 2910 1832 1632 3603 2791 1524 2920 3922 1918 1787 3115 3329 2639 2611 2723 57 39 17 85 29 19 87 48 66 85 83 9 19 57 90 93 35 51 69 54 39 69 0 14 52 92 75 49 37 91 76 3662 2025 2383 2184 3322 2747 3703 1576 3997 2619 2133 3573 3472 3547 2467 3953 1670 2069 2201 1908 1898 3983 3305 3215 2863 2663 1879 2732 3011 3384 1902 1925 2930 2007 2359 2122 3396 2599 2733 1898 3559 3711 2379 2509 2512 1504 2182 3269 3234 3544 3819 1799 1676 2581 2959 2557 2834 1541 3605 3676 2692 2616
3512 1787 3574 2288 2587 2324 3560 3449 2477 1924 3372 2208 3280 2379 2233 2970 3277 3004 3854 1770 2300 3018 3246 2116 2979 1957 1729 3246 2121 1517 2113 1507 98 28 20 83 25 47 51 13 38 60 93 94 96 36 8 35 52 34 90 33 68 41 14 0 63 55 30 63 62 92 82 1536 1796 3200 3179 2767 1793 2974 3451 2709 2804 3375 3019 2044 2496 3885 2703 3490 1943 2044 3549 1902 2116 2276 3006 3485 3213 2967 2239 2207 1801 3246 1897 2905 1856 3409 2693 3312 2358 2007 1869 3282 3732 1751 2142 2839 1500 2902 2287 2916 2144 1817 2490 1569 2091 3149 2345 2049 2890 2038 1668 2491 1670
3952 1830 1783 1943 3360 3054 1896 2689 2707 3918 2108 3164 3327 3074 2600 2688 1808 3881 3026 3576 2216 2958 3991 2249 3682 2210 1695 2511 3382 3105 3915 1924 11 36 93 43 22 78 86 40 22 61 12 56 98 91 7 64 71 49 9 7 20 29 52 63 0 90 26 65 44 53 53 3544 2260 2590 1572 2049 3713 2519 2212 3591 2751 3095 1741 3231 1857 1673 3185 3834 2095 3684 3028 1505 2812 3100 2829 2951 3749 3231 2682 3076 3784 1722 3003 1697 3355 2193 2677 2162 3085 3592 3747 1875 2974 3780 3244 1512 1984 2667 1696 2342 3882 3149 1957 2783 2283 2087 2518 2454 3542 3391 2241 2656 1892
2448 3322 1524 3200 2240 3859 3201 3317 2094 1874 3171 3609 1618 2577 2641 1622 3766 3625 1779 2827 3144 1579 3568 2912 2529 3586 1913 2719 3761 3407 3301 2631 84 84 38 70 68 90 34 28 11 70 5 69 29 71 56 78 38 36 29 23 39 91 92 55 90 0 99 43 3 82 58 1610 3465 2834 3187 3260 1514 2666 3619 3681 3341 2453 1552 3267 2683 1921 2812 1840 2066 3085 2951 2575 3824 2849 1732 3041 3786 2203 3445 2721 3962 3602 3330 1726 3278 2928 1871 3570 2991 1551 3742 3288 3501 2004 2540 2330 3686 1509 2021 2352 1609 3588 2415 1700 2142 3792 2754 2575 3249 2736 2976 2212 3671
3213 3925 1755 2470 3629 2413 2887 2145 1956 3862 2904 2050 2915 1540 3168 2956 3203 3325 2541 2492 2803 3126 3335 2669 3685 2787 2664 3805 2782 2185 3889 2094 26 2 11 63 6 25 63 4 78 12 98 21 61 2 28 88 40 67 87 5 94 57 75 30 26 99 0 93 17 20 63 3447 3633 2815 3059 2288 1721 3195 2423 3482 2172 3696 3940 1655 2123 1546 2299 2178 1626 2322 3608 2170 1540 1972 3186 2202 2209 3327 1659 2397 3928 2967 1503 2878 2331 3539 3337 3166 2638 3554 3210 2882 2517 1623 1740 2407 3891 2189 1947 2020 1953 3124 2662 3571 2584 3436 2321 2265 1994 2634 2992 2236 2486
3875 3818 2412 3824 1999 1998 3592 2295 3816 1804 2573 2520 1719 2246 1614 3231 1992 2228 3422 2078 1675 2745 2861 3055 3160 3657 3504 3436 3230 3902 1960 2572 77 24 1 44 48 71 17 26 23 98 97 7 69 81 39 76 26 1 10 41 57 83 49 63 65 43 93 0 37 94 45 2384 3973 1826 1701 2751 2521 1926 3789 1601 2945 2059 2397 3788 3392 1598 3952 2954 3375 2998 3778 3614 2910 1768 2252 2367 1837 1817 3856 1711 1985 3905 3488 1964 2984 3464 2516 2231 2267 2124 1540 2808 3764 2007 2907 3439 3421 2605 3148 3374 3730 2859 1758 2202 3230 1511 3258 3647 2677 1768 1982 2759 2600
3126 3170 1774 1657 1847 2214 3275 1890 3929 3955 2636 2941 3945 2574 3086 3424 2505 3014 2747 3663 3765 3675 1882 2419 2692 1588 3101 3217 1553 2517 1577 3033 79 78 84 16 82 93 88 46 8 98 34 42 23 81 18 37 49 40 46 53 37 44 37 62 44 3 17 37 0 21 2 3970 3297 2022 3968 2791 3623 2251 2737 1846 3285 3659 2302 2493 2362 2947 2456 2573 3447 3660 2385 3814 3005 3291 3484 1501 3825 3933 3247 2685 2845 2895 3539 1733 2474 2877 2666 2189 3637 3130 1644 2338 3594 1984 3453 1955 3927 1800 2222 1561 2979 2134 3733 2888 1557 3597 3558 3421 3539 1781 3126 3017 2945
3600 3919 1696 3272 2477 2780 3393 2635 2750 1691 1841 3427 2790 3940 3523 2082 3905 2168 1550 2705 2842 2327 3143 3066 3036 3868 3090 3036 3908 3613 3715 3415 20 12 91 1 23 36 72 30 84 56 46 45 95 14 12 15 53 69 37 2 92 74 91 92 53 82 20 94 21 0 6 3892 1663 2488 3240 2477 2471 2409 2352 2759 2009 3261 3780 2598 3852 2582 3937 1970 2172 2873 2576 2033 3058 3055 1983 3949 2201 2613 3227 1880 3868 3981 3767 2475 3297 2749 1654 3683 1583 3271 2867 2663 1909 3657 2948 2121 1977 1954 1839 3129 2940 2455 2693 2837 2000 3378 3669 2680 3365 3849 3398 1867 1735
3221 3678 2146 3314 3259 2889 3637 3279 3744 3716 2262 3488 2549 2785 1639 3852 2730 2662 2199 3360 3257 2884 2340 2093 1588 3302 2169 3180 2056 3353 3581 3004 38 4 80 40 97 58 92 65 4 10 23 76 76 83 21 99 14 23 74 23 13 96 76 82 53 58 63 45 2 6 0 3597 2908 3472 3355 1795 2470 2878 3177 3459 3743 2537 2831 2713 1835 3363 2068 3653 3458 2484 3439 3592 1783 3530 2950 1796 3087 3172 2587 3559 2225 3592 1861 2545 3700 2038 3741 1926 1589 3631 3836 2333 3944 3514 2720 3020 2478 2043 3779 2549 2128 3516 3420 3675 3022 2381 2792 3451 3206 1643 3632 2821 3807
3260 1536 3131 2177 2248 1560 3228 3453 2715 2835 3159 3989 2504 2412 3768 3561 1518 1623 2090 2697 3836 2368 2407 2402 1886 3123 3869 2225 2567 3541 3742 3482 2473 3452 3602 2069 3514 1966 3733 2372 2870 2601 3623 3267 3458 1602 1702 1800 2256 3655 3699 2217 2094 3276 3662 1536 3544 1610 3447 2384 3970 3892 3597 0 14 81 96 76 70 65 36 67 96 66 10 39 45 83 31 35 99 32 9 27 53 96 23 28 69 73 47 21 85 61 3290 3798 3403 2159 2286 1871 1890 2248 2465 3122 1593 2085 2108 2453 3035 2103 2004 2871 1596 3899 2908 3212 3451 1685 1972 1524 3807 1697 2354 1847 2825
2472 1798 2810 1719 3552 3107 2485 3610 3901 2908 2450 2329 3969 1856 3014 2876 3179 2171 2592 2002 2016 3009 3937 1720 3357 2393 3921 3280 2019 3030 2192 2453 3820 3361 2780 2744 1813 3668 2204 2345 2448 2042 2694 3016 2426 3480 2346 3588 3297 1617 1672 2380 2854 3049 2025 1796 2260 3465 3633 3973 3297 1663 2908 14 0 21 63 53 55 72 58 79 11 33 50 59 75 15 15 64 92 14 7 74 78 42 39 96 30 6 85 66 82 2 3017 3799 2453 3134 3474 3420 1876 3713 2499 2766 2553 3407 1897 2411 2508 3967 2419 3276 1858 3120 1870 3933 3913 2714 1671 2143 1809 3649 3916 2127 3875
3687 3659 2184 2295 1552 1908 3782 1977 1608 1914 3374 2872 3351 1708 3381 2545 3909 2165 3676 1904 3855 3898 1978 3475 3653 2421 2411 1785 3880 2683 3421 2975 3915 2070 1736 2014 3162 3262 3517 3835 2720 3280 1919 2657 1601 2611 2674 2347 1778 2550 1570 2916 3489 1519 2383 3200 2590 2834 2815 1826 2022 2488 3472 81 21 0 71 34 63 11 98 61 80 44 74 95 77 13 24 78 25 3 6 21 24 30 88 17 54 79 96 18 82 46 1613 1823 1515 3440 2599 3178 1734 1622 3856 1949 1595 3061 2122 2556 1626 2255 2975 3074 1587 3710 3436 2673 1971 2058 2358 2834 1684 2990 2629 2023 3984
1837 1705 3876 2487 3954 3074 2891 3194 3009 1828 3867 2114 2538 3001 2331 3804 2427 3117 2388 1712 3916 2269 3883 1630 3475 2571 2926 2854 3730 3079 1601 1522 2447 2862 1740 2743 3649 3163 2198 1904 3667 3971 2073 2293 2830 3749 1904 3312 2264 1643 2498 2123 2017 2447 2184 3179 1572 3187 3059 1701 3968 3240 3355 96 63 71 0 73 59 54 79 66 4 45 65 44 75 21 31 89 33 20 30 25 61 36 28 97 14 55 97 15 69 84 3126 2225 3435 1552 2891 3330 2664 3904 2459 3737 1997 1594 2244 2654 2931 1977 1856 2258 2894 1968 3172 3460 2372 2200 2595 3914 2570 2812 1793 2930 1973
2947 3952 3256 3948 1617 3708 3557 2175 1605 3517 1909 1515 3319 3144 2739 2624 3612 1665 2375 1550 2990 1908 3243 1619 2627 2967 2570 2653 1857 3338 3714 3771 1545 1936 3211 2825 3617 2854 1838 2193 3375 3784 3839 1725 2133 3998 1839 1849 2353 3710 3687 3383 1779 2589 3322 2767 2049 3260 2288 2751 2791 2477 1795 76 53 34 73 0 78 32 68 45 86 76 13 26 50 71 55 66 11 65 73 48 45 50 62 79 86 16 71 76 77 37 2232 1742 2618 2001 3808 3310 2472 2292 2677 2580 1825 2644 3172 2397 2065 2676 1911 2063 3673 3516 1942 2033 2973 3426 2165 3752 2709 1663 3793 3979 3435
3303 3568 3086 3683 3609 1983 1757 2422 2787 2110 1977 3313 1956 3064 3346 2341 1615 2207 3695 1928 2355 3487 2904 2056 3912 3406 2268 2668 2647 3597 3965 2620 3967 3282 3533 3549 3301 2188 2605 2676 1836 3444 2091 1732 2391 1909 1941 1670 3409 1558 3168 2667 3501 3999 2747 1793 3713 1514 1721 2521 3623 2471 2470 70 55 63 59 78 0 82 77 31 10 69 11 59 77 32 48 47 84 34 38 59 63 35 27 45 40 12 50 50 18 42 2466 1554 2389 1540 2101 2134 3398 2273 3016 3166 2583 3536 2935 2509 2618 1727 2330 2240 2053 1863 3248 3978 1533 1564 1753 3554 2918 1659 2223 1510 2218
3613 3893 3859 2077 1508 3473 1947 2426 3708 1556 3223 2650 2499 3291 3609 2738 1674 1603 3831 3092 3109 1720 1507 3235 2232 1894 2216 2996 1599 2722 2255 1785 3414 2927 2729 3729 3960 3300 3783 3999 2857 1557 3436 3886 3663 3167 2167 1930 2716 3562 2644 3523 2492 3723 3703 2974 2519 2666 3195 1926 2251 2409 2878 65 72 11 54 32 82 0 62 77 98 99 82 53 12 1 56 60 46 75 92 18 25 25 83 21 53 78 57 93 84 80 3673 2459 2896 3452 3110 2864 1917 2524 2486 2640 2983 1834 3944 3929 2496 3558 3765 2021 2135 3112 1592 1763 2687 1737 3288 1866 2994 2925 3881 2297 3959
2813 2400 3463 2680 2560 1585 2868 2939 3581 2637 2136 2689 3455 1867 2998 3410 3910 1983 1553 2736 3560 2672 3596 1708 1589 3605 3822 3931 3418 3443 2405 2174 3138 3484 3193 2739 3375 3445 3632 1905 1513 3667 2961 2270 1908 2279 2912 3752 3209 1610 3251 3818 3226 3314 1576 3451 2212 3619 2423 3789 2737 2352 3177 36 58 98 79 68 77 62 0 83 92 61 29 85 10 96 23 12 19 33 28 40 84 37 72 24 47 71 18 18 35 70 3515 2472 3928 2824 2971 3141 3409 3120 2300 2101 3630 2665 2337 2342 3069 3947 3261 3072 3559 2327 3437 2124 2652 1532 3378 1699 1990 3530 2137 2099 1809
2438 1871 1817 2999 2273 2892 3370 2970 2034 2436 2389 2782 3521 2430 1509 2993 2329 2881 3823 3172 1752 2262 3459 3891 1982 3990 3510 3444 3683 1783 1629 1578 2639 1656 3554 1516 3094 1612 2522 2461 1795 1590 3132 2439 2120 3024 3951 2016 3484 3417 3361 3083 3208 3305 3997 2709 3591 3681 3482 1601 1846 2759 3459 67 79 61 66 45 31 77 83 0 64 62 95 43 12 47 93 33 19 76 88 12 73 91 82 76 36 51 29 98 59 50 3045 3775 3649 1914 1804 3219 2512 2375 2062 3539 2392 2998 2158 3054 1799 2894 2263 2558 3987 3519 3230 3024 2975 2258 3500 2354 3109 3177 2660 2543 2790
2275 2792 1592 3781 3949 3167 3877 2908 3130 2628 3780 1873 2179 2792 2858 3409 2806 2155 2148 2394 2631 2293 1636 1876 3532 3192 3606 2929 3765 2246 2766 3988 2196 2586 3661 2256 2469 2443 3612 2894 2705 2814 3758 1993 3569 2337 3349 3584 3107 3543 3589 2075 2999 1972 2619 2804 2751 3341 2172 2945 3285 2009 3743 96 11 80 4 86 10 98 92 64 0 2 5 16 74 57 36 8 83 13 41 79 68 56 44 33 16 4 52 50 96 43 2114 2621 1978 1930 3607 3049 2450 1660 2776 2376 2904 3021 2953 1736 3517 1611 2519 1876 2765 2943 1707 3984 3691 2079 3182 1667 2334 2071 1943 3971 2822
2557 3931 3661 1837 3137 2056 1716 1662 1917 2683 3787 3317 2734 2028 3164 2462 2145 1959 3500 2175 1764 3106 1518 3515 1702 3305 1968 2378 3053 1583 3770 3128 3350 2896 1946 2067 2992 1932 3786 1677 2483 3943 1932 1561 3241 2617 3267 2246 1950 2408 2817 1552 3170 2379 2133 3375 3095 2453 3696 2059 3659 3261 2537 66 33 44 45 76 69 99 61 62 2 0 47 18 58 37 26 55 4 49 28 55 17 99 15 22 77 45 71 6 10 81 2989 2963 3721 3814 3792 3144 3231 2690 2280 2824 2826 2628 2906 2334 2555 3011 3644 2542 2146 3551 1631 3670 2681 2344 1539 3229 3659 2576 2741 2108 2040
2714 2418 2519 3414 3934 3453 3650 3841 2121 1663 3810 1718 2914 3185 2203 2878 3355 3366 1969 3579 3474 2411 2138 1812 2341 3552 2535 2515 2482 2634 2747 2946 2867 1696 2001 2169 1643 2947 3651 2642 2622 3591 3997 2863 3266 3483 2547 2358 1534 3409 2179 1703 1538 3760 3573 3019 1741 1552 3940 2397 2302 3780 2831 10 50 74 65 13 11 82 29 95 5 47 0 98 97 24 83 66 86 76 6 69 94 9 34 29 72 68 25 26 46 96 3512 2605 2623 2880 2192 2759 2324 2578 3927 2663 2071 3792 3277 1558 1839 3924 2163 1786 3891 2576 3005 3231 2980 3500 2223 3144 2219 2725 1936 3725 3101
3297 3724 1648 3813 2536 2894 2564 3630 2567 2041 3378 1669 3640 2523 3418 2370 2447 1685 2490 3656 2841 2174 3042 2104 2640 2348 2449 3568 3959 2370 2942 2579 3523 1545 1950 3339 2244 2299 1709 2487 2763 2865 2595 1872 2915 3493 3308 3169 2827 3469 1725 1584 1931 2901 3472 2044 3231 3267 1655 3788 2493 2598 2713 39 59 95 44 26 59 53 85 43 16 18 98 0 44 14 25 45 78 49 56 29 14 30 33 11 9 3 54 42 15 75 3289 3770 2888 3740 3927 2574 1529 2529 3290 2340 2009 2064 1586 3173 3070 3252 2864 2198 2255 3639 2768 3032 1637 1679 2567 3924 2942 3954 3686 3470 3617
3723 2459 2691 3788 2759 2544 3875 2469 3835 2174 1620 3342 3115 3659 3438 1934 2828 1828 2610 2673 3802 2345 2340 2433 3166 2369 3868 1733 3809 3448 3762 3714 3500 3770 2391 2269 3226 1770 2191 3987 2594 3562 1677 2556 2151 2568 3764 2698 3541 2059 3778 3883 2556 1842 3547 2496 1857 2683 2123 3392 2362 3852 1835 45 75 77 75 50 77 12 10 12 74 58 97 44 0 99 79 36 92 13 42 89 45 11 1 3 46 16 51 56 55 99 3884 1575 1705 2835 2276 1556 2564 2546 3567 1580 3132 3580 3511 1862 1755 1986 2327 1735 1544 3061 3808 3346 3297 2036 2400 3207 2762 2875 1524 1857 3458
1682 3555 2451 2192 2755 1530 2491 2929 3177 2389 2184 2449 2805 2597 2316 2588 3817 3791 3645 3680 2716 3264 2986 3614 3093 3797 3148 3647 3889 3591 1609 2534 3178 2570 3885 2902 2616 2666 3959 2936 1909 1629 2964 1668 3868 1663 3941 2851 1824 3034 3334 2984 3189 3047 2467 3885 1673 1921 1546 1598 2947 2582 3363 83 15 13 21 71 32 1 96 47 57 37 24 14 99 0 73 91 42 26 28 70 63 51 46 67 6 57 59 52 2 59 1500 1767 3407 1720 2390 2283 1588 1722 3202 2446 2997 1703 3201 1915 2548 3263 2336 1560 3008 2972 1902 2373 2112 3379 2792 3502 1981 1789 2435 2499 2298
3835 2073 2577 1818 3383 1836 3798 1911 2599 2558 3079 3651 1999 2165 2209 2465 3549 3920 3922 2886 3756 2636 3131 2095 3751 1797 3455 1980 3201 2324 2455 3228 2120 3899 3345 2680 3905 1855 3706 1907 2074 2444 2657 2397 2819 3186 1620 1690 3046 3624 3295 3092 2880 3137 3953 2703 3185 2812 2299 3952 2456 3937 2068 31 15 24 31 55 48 56 23 93 36 26 83 25 79 73 0 36 22 64 70 33 1 65 52 83 36 34 51 59 53 81 1624 3958 3106 3670 2289 3936 3818 3970 2044 1661 2543 2993 2224 1528 2436 1734 1841 1873 3013 3955 1808 3168 2847 3100 3721 1624 3145 2587 3826 3491 2801
2828 2699 2574 2984 2772 3282 2005 3086 2013 2056 3845 3565 2731 3988 3641 3688 3935 1871 2642 3265 3478 3237 1763 3168 3205 3280 3783 2657 2817 2675 3439 3264 3838 2538 2020 3793 2753 2923 1741 2922 1852 3150 2504 3981 1736 3043 1961 2336 3186 3882 1818 1652 2063 3659 1670 3490 3834 1840 2178 2954 2573 1970 3653 35 64 78 89 66 47 60 12 33 8 55 66 45 36 91 36 0 45 91 4 72 37 44 3 67 27 53 86 1 70 56 2165 3203 2875 2992 2503 3794 3255 3743 2609 3608 3681 1525 3818 2121 3641 3833 1821 2709 2205 2378 3761 1509 3846 2622 3878 2558 1529 1901 2360 1806 2596
2394 2317 2285 1683 3784 2517 2357 3692 3433 3503 2143 3725 1586 3965 3224 2227 2911 3533 2893 2468 3511 3971 3743 1511 2129 3507 1559 3958 3012 3636 3115 1728 2238 3915 3873 2160 3146 3273 1557 3088 3275 2374 2019 2465 1531 2966 2472 2247 3016 1864 2460 2425 3409 2698 2069 1943 2095 2066 1626 3375 3447 2172 3458 99 92 25 33 11 84 46 19 19 83 4 86 78 92 42 22 45 0 70 40 57 3 90 25 83 94 16 90 21 13 98 1624 3909 3279 3928 1940 3253 2244 2269 3997 1796 3707 3742 1887 3648 2429 2634 2518 3415 1647 2989 2723 2579 1978 3444 3542 2873 3718 3576 3051 1931 2056
3181 2080 2722 1824 1979 3291 3844 3820 2976 2204 1563 1989 3128 3646 1500 3862 1580 1737 1815 1542 3322 2595 2980 2116 1565 2332 3532 3901 2343 1777 2303 2056 3776 1713 2587 2941 2460 2905 3363 3672 3541 1741 3732 3050 2052 3536 3747 2837 2607 1858 3862 3227 2774 2871 2201 2044 3684 3085 2322 2998 3660 2873 2484 32 14 3 20 65 34 75 33 76 13 49 76 49 13 26 64 91 70 0 66 52 40 42 5 92 7 93 19 54 15 26 1578 2121 1726 1987 1849 2614 2571 3307 2176 1585 1643 3283 2026 2290 3395 2403 2278 3998 2923 1964 2655 3380 2961 2477 3126 3670 2114 3503 2854 1997 2455
2928 3731 2728 1675 2690 3902 3961 3736 2752 2595 3250 2775 3967 2772 2173 3917 1806 2650 1653 3387 2307 3000 1821 1582 3983 2381 2891 3904 2626 3001 2806 2726 2541 3397 3442 1577 2085 2682 2576 1998 3629 2712 1627 2519 3612 3871 3216 2489 3589 2744 1842 2757 2352 3466 1908 3549 3028 2951 3608 3778 2385 2576 3439 9 7 6 30 73 38 92 28 88 41 28 6 56 42 28 70 4 40 66 0 2 70 98 18 99 59 25 67 25 51 77 1649 3510 1649 2597 2078 3332 2565 3887 3188 3511 3022 2618 2025 3663 3611 2307 3985 1654 3057 1517 2312 3487 3823 2129 1566 2515 3440 3243 1535 1557 1972
2136 3504 3941 2027 2116 3115 1736 1637 3134 3817 1962 3895 2980 3052 3080 1891 2210 3926 3629 2717 2078 3586 3394 2091 3536 3823 1712 3145 2482 1583 3880 2870 2662 1705 1918 2264 3791 2857 3286 1953 3115 1765 2876 2427 2328 2407 1704 1718 3241 3489 2779 2581 1799 3635 1898 1902 1505 2575 2170 3614 3814 2033 3592 27 74 21 25 48 59 18 40 12 79 55 69 29 89 70 33 72 57 52 2 0 51 71 13 48 13 8 57 83 73 12 2403 1821 2035 2014 2670 2465 2524 3784 2735 3528 3834 3207 3093 3956 1739 2658 1807 3585 1578 2457 3014 3716 3431 1573 2724 3934 2523 1594 3725 2642 1573
2304 1849 3231 3672 3659 3354 1863 1620 1958 3993 3705 1883 3543 2003 3058 3111 3104 2674 3899 3222 3781 2465 2649 3975 1594 1985 3846 1507 2605 1520 3655 3874 2407 1556 3295 1998 2841 2975 3729 2546 2634 2642 1999 2565 2055 3065 3016 2446 2025 1767 1751 1742 3839 2187 3983 2116 2812 3824 1540 2910 3005 3058 1783 53 78 24 61 45 63 25 84 73 68 17 94 14 45 63 1 37 3 40 70 51 0 58 96 7 64 63 82 54 77 89 3712 2130 1760 2845 2300 3888 2994 2786 2232 1859 2980 3974 3752 2145 3182 2473 1654 3619 1807 2709 3933 2399 1676 3876 3606 3237 3966 1887 1905 2386 3260
3298 3808 3439 3181 1843 3028 1512 3342 3784 2542 2104 3590 2485 1984 2252 3298 3802 3167 3540 2386 3753 2309 2839 3052 1622 2310 3660 2747 1608 2819 3961 3814 3090 2967 2312 1815 1850 2915 3392 1669 2201 2506 1722 3124 1577 2626 3194 2383 2272 2597 3113 2716 3366 3342 3305 2276 3100 2849 1972 1768 3291 3055 3530 96 42 30 36 50 35 25 37 91 56 99 9 30 11 51 65 44 90 42 98 71 58 0 87 80 28 95 58 84 43 75 2410 3425 2860 3445 3354 1727 1704 2344 2562 3637 3870 3344 2018 3878 3663 3603 1522 3130 2536 2833 3566 1769 1796 2584 3838 3904 3453 1616 3859 3910 1699
2985 3927 1520 3085 3253 2250 3837 1995 2239 2469 1816 2064 1809 3523 3755 3772 1931 3779 2026 3214 1883 2639 3833 2112 1786 3284 3236 1694 2309 3918 1667 2828 3848 2399 2823 2945 1804 2027 2545 3368 3814 3169 2094 2317 2269 3545 2914 3428 2983 3851 3945 2277 2616 1580 3215 3006 2829 1732 3186 2252 3484 1983 2950 23 39 88 28 62 27 83 72 82 44 15 34 33 1 46 52 3 25 5 18 13 96 87 0 10 3 76 30 13 7 32 3534 2265 3025 2387 1825 3646 2013 1952 3511 3678 2579 2437 2462 1678 3161 3695 2742 3417 2786 2617 3716 3134 1913 3193 2128 2499 3571 2870 2115 2509 2153
2761 2165 2272 3963 3779 1684 2307 1972 2695 2464 3330 2249 2466 3219 3071 3926 1778 3314 1838 3913 1944 3057 3181 3391 1553 2299 3478 1934 1522 2121 3006 2299 1596 1510 2326 3692 2031 2543 2111 3777 2285 3159 3688 2022 2965 2256 2190 2830 3322 2133 1536 3229 2771 3991 2863 3485 2951 3041 2202 2367 1501 3949 1796 28 96 17 97 79 45 21 24 76 33 22 29 11 3 67 83 67 83 92 99 48 7 80 10 0 48 84 70 63 42 2 2510 3214 3429 1711 2230 1858 2364 2640 2569 2064 2069 1673 3677 1919 2500 2835 2320 1927 1655 2973 2059 3751 3009 1503 1620 2611 3928 3642 3989 2447 1853
2344 2566 3959 2741 2234 3032 2826 3090 2936 2388 2012 2633 3619 2745 2337 2240 3559 1560 2848 3428 2150 2988 3176 1602 2701 3319 2472 3197 2197 3148 3925 1853 3117 3847 3678 2176 3294 2262 3606 2742 3291 3200 3300 3399 3726 2150 3094 3736 3934 3062 2359 1596 1715 2581 2663 3213 3749 3786 2209 1837 3825 2201 3087 69 30 54 14 86 40 53 47 36 16 77 72 9 46 6 36 27 94 7 59 13 64 28 3 48 0 77 5 85 42 3 2164 2278 1913 2878 1757 3218 2719 2230 3692 3206 3964 2134 2347 3910 2491 1767 3132 3126 2460 3487 3763 2009 3482 3171 2977 3935 3147 1617 3282 3011 3152
3401 2847 2174 1599 2197 2116 3976 1649 1937 3027 2815 2731 3082 3397 2128 2925 2980 2908 3666 3562 1628 2850 3271 2004 2713 1574 2676 3800 2725 3096 3769 3002 2032 3329 3019 2217 2504 2197 3369 3136 2483 3550 2278 3852 3757 2640 3602 2190 3012 1578 1843 2902 1634 2353 1879 2967 3231 2203 3327 1817 3933 2613 3172 73 6 79 55 16 12 78 71 51 4 45 68 3 16 57 34 53 16 93 25 8 63 95 76 84 77 0 66 35 24 54 2812 2238 3140 2209 2685 3185 3420 2568 2422 3601 2870 2050 3223 2152 1713 3662 3836 2395 2602 3930 1652 1830 3253 3642 2560 2881 3804 2841 1940 2833 2406
2479 3142 2774 1908 3419 1802 3597 3472 1857 3098 3929 3629 2145 1947 2456 2572 3202 1802 3782 2496 3115 1970 3422 3065 3297 2409 3624 2045 2712 3177 3021 3406 2974 2307 2945 2329 3182 1941 2351 2401 1691 2642 3852 2822 1991 3312 3797 2551 3574 3136 3820 1875 2589 2624 2732 2239 2682 3445 1659 3856 3247 3227 2587 47 85 96 97 71 50 57 18 29 52 71 25 54 51 59 51 86 90 19 67 57 82 58 30 70 5 66 0 19 84 77 1618 2508 2656 3065 2607 3104 2823 3669 1521 3816 2045 2843 3172 2015 3341 2813 3183 3997 3839 2230 2869 2091 2635 3350 3176 3726 2936 1988 3861 3282 3589
2320 2606 3657 2150 2978 2935 2161 1947 2687 3160 2660 3602 3419 1688 2024 2826 2307 1675 2797 2853 3809 1679 2014 3183 1941 3252 2884 3328 1963 2239 2392 3057 3247 2421 2822 2552 2353 2795 2782 3865 1770 3634 1928 3081 3040 3144 3761 3787 2198 3822 3543 2792 1534 2789 3011 2207 3076 2721 2397 1711 2685 1880 3559 21 66 18 15 76 50 93 18 98 50 6 26 42 56 52 59 1 21 54 25 83 54 84 13 63 85 35 19 0 95 69 2908 2389 3712 2556 3210 3887 3169 3194 1838 3844 2065 1511 2099 2509 2429 3458 1819 3097 1987 1544 3544 3884 2157 3810 1646 3385 1924 2407 2117 1501 1885
3725 1871 3096 3184 2926 3025 2433 3016 1534 3450 2240 3125 2118 2771 2451 2918 3849 3546 2544 1797 3370 2727 3947 2879 3816 3793 3788 3159 2519 2951 1616 3445 3866 1769 1721 2146 2616 1978 1746 3722 3851 1626 2550 1528 3190 2009 2962 1908 3799 3592 3756 2685 3602 1651 3384 1801 3784 3962 3928 1985 2845 3868 2225 85 82 82 69 77 18 84 35 59 96 10 46 15 55 2 53 70 13 15 51 73 77 43 7 42 42 24 84 95 0 14 2328 1541 2240 1696 3456 3781 2529 2671 3394 2724 3288 3657 2341 2595 2123 2334 3913 3699 3145 2759 1758 3996 3420 2953 1574 3493 3043 3071 3676 1659 1629
2159 3827 3703 2392 3710 2485 3576 3076 3010 3150 2056 2625 2126 2448 3065 3077 3056 3604 3358 3803 1817 2368 3816 1590 1655 1770 2608 3077 2426 2608 2186 3751 2761 2157 3891 3502 1724 1804 1617 2788 3854 2466 3107 3722 1751 1500 2813 2384 3695 1605 1645 3396 1686 3077 1902 3246 1722 3602 2967 3905 2895 3981 3592 61 2 46 84 37 42 80 70 50 43 81 96 75 99 59 81 56 98 26 77 12 89 75 32 2 3 54 77 69 14 0 3334 2897 3529 1654 3329 3559 2942 3434 2362 1873 3923 2320 3841 2181 2620 2730 3356 2828 3661 2191 3762 3275 2324 1985 2293 1625 3844 3519 1963 1901 3493
2067 3230 1910 2295 1734 3074 2736 1978 2584 2174 2735 2185 3431 2072 3475 2386 3072 3602 3764 3544 1625 1589 3291 2472 3618 2840 2190 2024 2155 2408 3360 3336 2504 2572 3910 1741 1521 3967 2570 3680 2482 2358 1685 2526 1638 3033 1529 3764 2808 2752 3903 1706 1970 2326 1925 1897 3003 3330 1503 3488 3539 3767 1861 3290 3017 1613 3126 2232 2466 3673 3515 3045 2114 2989 3512 3289 3884 1500 1624 2165 1624 1578 1649 2403 3712 2410 3534 2510 2164 2812 1618 2908 2328 3334 0 95 74 68 47 35 31 25 91 43 85 19 28 32 6 19 82 2 8 48 4 74 79 81 23 29 23 83 98 72 15
3285 1601 2776 1780 2182 3980 1932 2502 2097 1711 3391 2176 2266 2317 2742 2156 3585 2545 2170 2793 3753 2907 2318 3380 2662 1621 1638 3834 3420 1853 3325 3485 3566 3877 3519 1979 2926 3373 1743 1610 3535 3950 3519 1906 2798 1604 2477 3343 2638 3657 1604 2940 2250 1537 2930 2905 1697 1726 2878 1964 1733 2475 2545 3798 3799 1823 2225 1742 1554 2459 2472 3775 2621 2963 2605 3770 1575 1767 3958 3203 3909 2121 3510 1821 2130 3425 2265 3214 2278 2238 2508 2389 1541 2897 95 0 70 45 47 74 53 34 13 74 85 10 65 36 37 28 40 83 43 60 42 43 17 77 23 81 17 74 72 61 5
3057 3535 3089 3277 2478 3395 3853 1794 3405 2530 3334 3389 3393 2075 2649 2641 2062 2569 2904 2363 2172 1913 1576 3333 3926 1983 3936 2492 1684 2158 2076 3151 3215 3728 3125 1950 1650 1503 3183 2456 3070 1589 2294 2062 2930 2062 1596 1859 1689 3734 3476 2308 2306 3088 2007 1856 3355 3278 2331 2984 2474 3297 3700 3403 2453 1515 3435 2618 2389 2896 3928 3649 1978 3721 2623 2888 1705 3407 3106 2875 3279 1726 1649 2035 1760 2860 3025 3429 1913 3140 2656 3712 2240 3529 74 70 0 56 43 88 5 73 15 61 40 72 24 96 19 69 45 37 36 76 20 99 28 60 15 7 60 48 44 26 54
1621 3330 2360 1561 3793 3809 2965 3952 2315 2954 1792 2416 3997 2926 1968 3852 3233 2481 2038 2894 3516 3940 2959 1726 1840 3140 2300 2781 1576 2514 2897 3514 3885 1555 3358 3684 2893 3882 2200 2453 2196 1848 2225 3456 1877 2805 2392 1772 2786 2453 1716 2139 2847 2847 2359 3409 2193 2928 3539 3464 2877 2749 2038 2159 3134 3440 1552 2001 1540 3452 2824 1914 1930 3814 2880 3740 2835 1720 3670 2992 3928 1987 2597 2014 2845 3445 2387 1711 2878 2209 3065 2556 1696 1654 68 45 56 0 74 57 67 86 9 35 83 56 71 30 69 30 11 40 94 35 13 69 42 42 79 5 88 1 75 42 57
1710 1958 2935 2650 1684 1669 3441 2764 3035 3790 2978 2588 3614 2598 2771 2998 2892 3613 3515 3229 2422 3434 3547 3842 2603 2766 1848 2314 3933 1750 3345 3627 1921 2712 2023 2136 3204 2566 3998 1736 1938 2792 2506 2988 3425 3571 3957 3020 3156 2239 2851 2980 3943 2470 2122 2693 2677 1871 3337 2516 2666 1654 3741 2286 3474 2599 2891 3808 2101 3110 2971 1804 3607 3792 2192 3927 2276 2390 2289 2503 1940 1849 2078 2670 2300 3354 1825 2230 1757 2685 2607 3210 3456 3329 47 47 43 74 0 41 62 60 7 34 79 87 96 61 88 73 95 15 58 24 79 41 42 61 27 18 1 78 71 33 34
2442 3035 3987 3361 2631 1880 3896 1870 2024 3339 2118 2242 3514 3132 3715 3428 2755 1838 3620 3936 3449 3459 1757 3084 2886 3920 3782 3573 3010 2921 1561 3055 3116 3067 2241 2693 3769 1635 3618 3472 3515 3176 2718 3395 1561 1997 3851 3684 3950 3738 1935 3061 3143 2675 3396 3312 2162 3570 3166 2231 2189 3683 1926 1871 3420 3178 3330 3310 2134 2864 3141 3219 3049 3144 2759 2574 1556 2283 3936 3794 3253 2614 3332 2465 3888 1727 3646 1858 3218 3185 3104 3887 3781 3559 35 74 88 57 41 0 75 78 66 87 9 9 67 21 80 1 99 26 34 38 4 57 36 80 58 68 54 32 4 98 4
3581 2754 3341 2768 2690 2396 3028 3538 2310 2295 2416 3956 1841 1554 3155 1570 3429 3755 2174 3971 3618 3282 3383 2490 2515 3553 2400 2116 2931 2646 2094 2575 3584 2224 2272 3598 3231 3614 2292 2357 2803 1616 2785 3598 2916 2457 3888 2794 3570 2639 1564 3655 1683 2952 2599 2358 3085 2991 2638 2267 3637 1583 1589 1890 1876 1734 2664 2472 3398 1917 3409 2512 2450 3231 2324 1529 2564 1588 3818 3255 2244 2571 2565 2524 2994 1704 2013 2364 2719 3420 2823 3169 2529 2942 31 53 5 67 62 75 0 3 44 13 87 4 8 73 83 42 54 44 88 81 36 67 81 59 56 58 16 32 20 71 97
2502 1570 2289 3217 1536 2974 3291 3349 3066 3488 3515 2512 2833 1953 3705 1748 2188 1783 3000 2298 3691 2702 3991 3864 1572 1660 2996 2100 2839 2826 2371 3104 3107 1544 2257 2467 2281 3455 2563 1559 2702 2079 3919 1683 2419 2057 3647 2790 2647 2284 3376 3258 1961 2196 2733 2007 3592 1551 3554 2124 3130 3271 3631 2248 3713 1622 3904 2292 2273 2524 3120 2375 1660 2690 2578 2529 2546 1722 3970 3743 2269 3307 3887 3784 2786 2344 1952 2640 2230 2568 3669 3194 2671 3434 25 34 73 86 60 78 3 0 34 31 33 5 2 44 49 58 88 69 74 1 89 19 95 1 63 21 68 64 75 31 72
3467 3818 1659 3474 2571 3238 3646 2042 3293 3138 3563 2571 3368 2415 2791 2349 3279 2296 2074 3254 1504 2293 1896 2438 2973 3617 3892 3437 2339 2189 3815 2350 2320 3334 2487 2053 2938 2338 3753 1966 2051 1574 1520 3358 3986 3630 1995 2499 2216 3629 1752 2071 2347 3947 1898 1869 3747 3742 3210 1540 1644 2867 3836 2465 2499 3856 2459 2677 3016 2486 2300 2062 2776 2280 3927 3290 3567 3202 2044 2609 3997 2176 3188 2735 2232 2562 3511 2569 3692 2422 1521 1838 3394 2362 91 13 15 9 7 66 44 34 0 20 43 76 45 53 61 64 2 80 86 24 74 6 35 66 51 79 35 52 69 81 77
2291 3298 1956 2062 3121 3240 3951 2347 3100 2971 2627 3678 3708 2674 2873 1513 3512 2805 1869 3896 2236 1991 3135 2344 3411 3399 1745 3887 2330 1755 1521 1588 3313 2455 2643 1918 2647 2059 2185 3571 3551 3270 2604 2015 2213 2595 3681 3113 3036 3161 3162 1673 3953 3039 3559 3282 1875 3288 2882 2808 2338 2663 2333 3122 2766 1949 3737 2580 3166 2640 2101 3539 2376 2824 2663 2340 1580 2446 1661 3608 1796 1585 3511 3528 1859 3637 3678 2064 3206 3601 3816 3844 2724 1873 43 74 61 35 34 87 13 31 20 0 36 23 71 9 53 39 33 22 67 42 13 60 50 17 69 25 71 18 12 6 74
2098 2275 2180 1731 2559 3766 2841 1687 2711 3640 2120 3592 2674 3532 1767 1500 2355 1522 1589 3766 3724 2163 2771 2785 3229 2068 3935 2259 3600 1712 1703 3739 2695 1839 1527 3570 2069 2615 3867 3362 3137 2499 3127 1807 2977 2162 3119 1863 2651 3189 3969 2407 2598 2273 3711 3732 2974 3501 2517 3764 3594 1909 3944 1593 2553 1595 1997 1825 2583 2983 3630 2392 2904 2826 2071 2009 3132 2997 2543 3681 3707 1643 3022 3834 2980 3870 2579 2069 3964 2870 2045 2065 3288 3923 85 85 40 83 79 9 87 33 43 36 0 14 11 59 79 49 66 50 24 89 57 5 92 27 5 31 71 41 68 12 62
3479 1539 3700 1640 2264 1841 2936 2891 2129 1826 3692 1815 2040 3980 3265 2966 2098 2921 2414 3062 2982 2174 2654 1527 3122 2071 2878 2390 2415 3650 2272 2831 2791 2281 2233 2475 3674 2341 2837 2667 2522 2673 2432 3586 1644 2885 3189 3394 2295 2412 3476 2578 3700 3303 2379 1751 3780 2004 1623 2007 1984 3657 3514 2085 3407 3061 1594 2644 3536 1834 2665 2998 3021 2628 3792 2064 3580 1703 2993 1525 3742 3283 2618 3207 3974 3344 2437 1673 2134 2050 2843 1511 3657 2320 19 10 72 56 87 9 4 5 76 23 14 0 90 63 17 32 83 3 29 39 2 86 31 52 17 28 58 23 94 52 53
3691 1728 2177 2946 2965 1928 3171 2877 3998 2732 3636 1536 2314 1592 3757 2706 3138 1506 2384 1533 2336 3264 3850 2086 3757 3638 2791 3786 2717 1806 3850 1714 1568 2685 2625 3358 3157 2232 1690 3096 2264 3243 2286 2751 2551 1692 3449 3029 2208 3703 2708 2193 2703 3578 2509 2142 3244 2540 1740 2907 3453 2948 2720 2108 1897 2122 2244 3172 2935 3944 2337 2158 2953 2906 3277 1586 3511 3201 2224 3818 1887 2026 2025 3093 3752 2018 2462 3677 2347 3223 3172 2099 2341 3841 28 65 24 71 96 67 8 2 45 71 11 90 0 81 46 5 69 9 24 48 18 77 58 67 43 64 1 80 24 21 35
1698 3394 3530 2160 3952 2281 3958 1632 3777 1709 3004 3667 2578 1539 2628 2666 2121 2796 3647 1610 3760 1606 2915 2542 1854 3653 3046 1534 3760 3284 2669 1992 2549 1700 1964 1840 2147 1583 2325 3089 2711 1575 2876 2972 3200 3356 1546 1818 2722 2337 3404 3286 3491 3175 2512 2839 1512 2330 2407 3439 1955 2121 3020 2453 2411 2556 2654 2397 2509 3929 2342 3054 1736 2334 1558 3173 1862 1915 1528 2121 3648 2290 3663 3956 2145 3878 1678 1919 3910 2152 2015 2509 2595 2181 32 36 96 30 61 21 73 44 53 9 59 63 81 0 55 99 42 26 81 90 96 19 82 77 56 47 91 35 11 23 58
1646 1873 2184 1993 1806 1919 2628 1979 3440 3353 2545 3295 3335 3576 2922 3020 3838 1959 3290 3009 3041 3999 1700 1934 2980 1506 2940 1971 3589 3688 1940 3922 1867 2850 3838 3935 1763 3464 1893 2762 3992 2680 2836 2663 2240 3464 3560 3811 1950 2903 3716 2215 2871 2477 1504 1500 1984 3686 3891 3421 3927 1977 2478 3035 2508 1626 2931 2065 2618 2496 3069 1799 3517 2555 1839 3070 1755 2548 2436 3641 2429 3395 3611 1739 3182 3663 3161 2500 2491 1713 3341 2429 2123 2620 6 37 19 69 88 80 83 49 61 53 79 17 46 55 0 1 89 91 65 22 60 18 51 16 9 89 13 41 75 31 24
3178 2781 3169 3337 2215 3289 3592 2636 2228 2307 3473 3805 1890 2427 3503 3555 1712 3032 2670 1767 1562 2953 1567 3478 3198 1530 3528 2650 2197 1872 2404 3495 3347 3457 1991 1619 2580 3922 2270 3407 1822 1611 3267 1524 3812 2000 2586 3565 2198 3116 1661 3464 3130 3765 2182 2902 2667 1509 2189 2605 1800 1954 2043 2103 3967 2255 1977 2676 1727 3558 3947 2894 1611 3011 3924 3252 1986 3263 1734 3833 2634 2403 2307 2658 2473 3603 3695 2835 1767 3662 2813 3458 2334 2730 19 28 69 30 73 1 42 58 64 39 49 32 5 99 1 0 80 80 1 10 62 77 65 44 41 80 11 2 80 75 37
2340 3746 2817 3520 3834 2529 2194 1668 3576 3432 2484 2496 3612 3770 2355 1732 3212 2771 2045 1743 3839 2427 2195 2471 3764 1559 3948 3737 1911 3819 3090 1946 3535 2729 3892 3383 3069 2466 3333 1540 1772 2903 2779 2598 3083 1867 3424 2103 3631 2734 1722 3900 3212 2659 3269 2287 1696 2021 1947 3148 2222 1839 3779 2004 2419 2975 1856 1911 2330 3765 3261 2263 2519 3644 2163 2864 2327 2336 1841 1821 2518 2278 3985 1807 1654 1522 2742 2320 3132 3836 3183 1819 3913 3356 82 40 45 11 95 99 54 88 2 33 66 83 69 42 89 80 0 41 98 96 55 25 63 41 94 66 31 70 81 69 30
2934 3822 3896 3886 2241 3752 3445 3354 2946 3818 1968 2039 3943 2335 3584 3391 2623 3694 2342 3998 3538 2560 2100 2867 3921 1985 2953 1504 3938 1775 2810 2563 3515 2929 2447 2922 2946 2905 1995 3483 1548 2239 3108 3651 3092 3669 3803 2765 3853 3438 2118 3284 2203 2662 3234 2916 2342 2352 2020 3374 1561 3129 2549 2871 3276 3074 2258 2063 2240 2021 3072 2558 1876 2542 1786 2198 1735 1560 1873 2709 3415 3998 1654 3585 3619 3130 3417 1927 3126 2395 3997 3097 3699 2828 2 83 37 40 15 26 44 69 80 22 50 3 9 26 91 80 41 0 83 17 93 58 72 45 51 91 74 56 98 71 1
1875 2169 2915 2722 3210 2209 1779 3433 2148 3640 3876 2747 2306 3524 2363 2105 2418 2804 1804 3681 1653 3008 3491 3192 2539 3986 1530 1883 1863 1831 2013 2335 3189 3112 2623 1787 2930 2623 2568 3915 2910 2774 1900 2422 3300 2373 2328 3867 3196 3288 3630 2582 2477 1584 3544 2144 3882 1609 1953 3730 2979 2940 2128 1596 1858 1587 2894 3673 2053 2135 3559 3987 2765 2146 3891 2255 1544 3008 3013 2205 1647 2923 3057 1578 1807 2536 2786 1655 2460 2602 3839 1987 3145 3661 8 43 36 94 58 34 88 74 86 67 24 29 24 81 65 1 98 83 0 3 76 21 43 7 68 46 22 25 23 60 77
3650 1665 3814 2806 2378 2354 3721 3274 3452 2681 2290 1927 3748 2513 3410 3249 2890 2760 2352 2317 3941 3146 3936 1726 1560 3937 2003 1684 2796 1933 1573 3680 1910 1693 2340 3047 2853 1703 2378 2853 2935 1743 1582 1516 3699 3619 1727 2318 1636 1853 3821 3527 2153 3280 3819 1817 3149 3588 3124 2859 2134 2455 3516 3899 3120 3710 1968 3516 1863 3112 2327 3519 2943 3551 2576 3639 3061 2972 3955 2378 2989 1964 1517 2457 2709 2833 2617 2973 3487 3930 2230 1544 2759 2191 48 60 76 35 24 38 81 1 24 42 89 39 48 90 22 10 96 17 3 0 7 76 55 66 7 5 42 44 5 26 85
2625 2737 3904 3971 3559 2247 2350 3553 1880 3051 3223 1997 1887 1668 3435 3509 3776 2425 2577 3900 2863 3468 2675 1536 3428 3601 3127 2239 2088 1894 3228 3504 1512 1703 3740 3850 2388 2099 3982 1533 1958 1818 1956 3216 2519 2855 3939 2807 2843 2923 2206 3523 1586 1797 1799 2490 1957 2415 2662 1758 3733 2693 3420 2908 1870 3436 3172 1942 3248 1592 3437 3230 1707 1631 3005 2768 3808 1902 1808 3761 2723 2655 2312 3014 3933 3566 3716 2059 3763 1652 2869 3544 1758 3762 4 42 20 13 79 4 36 89 74 13 57 2 18 96 60 62 55 93 76 7 0 7 70 20 63 63 65 32 64 85 30
3737 3603 3370 2759 2963 2097 3078 3502 2948 3738 2441 3282 1967 3672 2107 3964 1864 2447 3561 2892 3881 2828 1702 3227 3675 2938 3924 1946 3461 2525 3872 2113 3420 3942 3852 2509 1833 2303 1914 3513 3030 3220 3849 3341 2387 2947 2407 2234 2498 1711 2838 2846 1932 1948 1676 1569 2783 1700 3571 2202 2888 2837 3675 3212 3933 2673 3460 2033 3978 1763 2124 3024 3984 3670 3231 3032 3346 2373 3168 1509 2579 3380 3487 3716 2399 1769 3134 3751 2009 1830 2091 3884 3996 3275 74 43 99 69 41 57 67 19 6 60 5 86 77 19 18 77 25 58 21 76 7 0 71 65 23 22 87 73 6 32 37
3490 3061 3070 1957 3742 3601 1853 2495 1998 1787 3931 3823 3979 1920 3199 3600 3569 3073 3720 1585 2055 1528 3350 1845 3995 2564 1880 3959 3650 1854 3397 1812 3404 2219 2561 3605 2047 2527 2008 2818 2238 3741 3597 1804 3876 3990 3758 3277 3571 3727 2584 1874 2346 1673 2581 2091 2283 2142 2584 3230 1557 2000 3022 3451 3913 1971 2372 2973 1533 2687 2652 2975 3691 2681 2980 1637 3297 2112 2847 3846 1978 2961 3823 3431 1676 1796 1913 3009 3482 3253 2635 2157 3420 2324 79 17 28 42 42 36 81 95 35 50 92 31 58 82 51 65 63 72 43 55 70 71 0 55 56 3 57 69 9 41 72
3263 1666 3651 2139 3093 3554 2390 2623 1684 2649 2735 2204 2968 2595 1561 3157 2544 2141 2635 3138 1810 2541 1854 3796 3307 1829 2240 2717 3185 2112 2027 3870 2787 1776 3012 3345 1603 3943 2935 1694 3764 2651 2646 3902 2877 1827 3769 2836 2539 2093 3259 1817 2238 3132 2959 3149 2087 3792 3436 1511 3597 3378 2381 1685 2714 2058 2200 3426 1564 1737 1532 2258 2079 2344 3500 1679 2036 3379 3100 2622 3444 2477 2129 1573 3876 2584 3193 1503 3171 3642 3350 3810 2953 1985 81 77 60 42 61 80 59 1 66 17 27 52 67 77 16 44 41 45 7 66 20 65 55 0 65 94 56 72 71 60 77
2076 3125 3991 3907 2958 2239 1739 2235 2580 2232 2923 1999 3797 2105 3381 2469 3637 2078 2231 1833 3255 3458 3491 3520 1696 3150 1948 1618 3411 2436 1507 2432 3067 2586 2098 2609 3311 3102 2013 2579 3650 1949 3648 1624 3219 2720 2282 2792 2114 3318 3123 2653 1553 1638 2557 2345 2518 2754 2321 3258 3558 3669 2792 1972 1671 2358 2595 2165 1753 3288 3378 3500 3182 1539 2223 2567 2400 2792 3721 3878 3542 3126 1566 2724 3606 3838 2128 1620 2977 2560 3176 1646 1574 2293 23 23 15 79 27 58 56 63 51 69 5 17 43 56 9 41 94 51 68 7 63 23 56 65 0 28 67 35 16 3 45
3417 2360 2117 1608 2721 2962 2820 1925 2617 3387 2681 3677 2737 3707 3145 2254 3393 2267 3870 2374 1733 2380 2932 1782 3911 1511 3313 1665 2778 2071 1710 1652 2567 2730 3674 1736 3047 1650 2442 1656 3059 3110 3260 1681 2686 2583 2203 2781 3585 1865 3942 1660 2957 1830 2834 2049 2454 2575 2265 3647 3421 2680 3451 1524 2143 2834 3914 3752 3554 1866 1699 2354 1667 3229 3144 3924 3207 3502 1624 2558 2873 3670 2515 3934 3237 3904 2499 2611 3935 2881 3726 3385 3493 1625 29 81 7 5 18 68 58 21 79 25 31 28 64 47 89 80 66 91 46 5 63 22 3 94 28 0 27 62 59 41 52
1630 2065 2906 3502 1600 3696 3967 2192 2780 3969 3708 2903 2224 2399 1586 3535 1767 2857 3821 3581 3544 2243 2389 2330 3268 3887 3580 3595 2320 1762 3390 3122 3869 2585 1977 2583 1952 3469 1891 2154 2753 3910 2473 3108 3024 1626 3111 1909 3185 1789 2973 2668 2752 2168 1541 2890 3542 3249 1994 2677 3539 3365 3206 3807 1809 1684 2570 2709 2918 2994 1990 3109 2334 3659 2219 2942 2762 1981 3145 1529 3718 2114 3440 2523 3966 3453 3571 3928 3147 3804 2936 1924 3043 3844 23 17 60 88 1 54 16 68 35 71 71 58 1 91 13 11 31 74 22 42 65 87 57 56 67 27 0 30 13 19 35
2925 2575 1853 3118 1801 2691 2066 3308 1514 2712 3556 3177 2132 2938 2528 1945 2051 2902 2280 3966 2242 1601 3434 3912 3901 2522 3219 3282 1531 3069 3015 3694 2372 1576 1746 2279 2180 3794 1598 2995 1945 3166 2996 2456 1790 1663 3449 3771 1942 2107 3817 1614 2882 3489 3605 2038 3391 2736 2634 1768 1781 3849 1643 1697 3649 2990 2812 1663 1659 2925 3530 3177 2071 2576 2725 3954 2875 1789 2587 1901 3576 3503 3243 1594 1887 1616 2870 3642 1617 2841 1988 2407 3071 3519 83 74 48 1 78 32 32 64 52 18 41 23 80 35 41 2 70 56 25 44 32 73 69 72 35 62 30 0 71 55 61
2511 3683 1762 2703 3278 3756 2172 2402 1986 2633 2847 2993 3536 1617 3643 2192 2227 2631 3621 3217 2115 1952 1642 2897 3757 2798 3727 1909 3833 3020 2795 2326 3826 2937 2105 1577 1893 2360 3073 3724 1722 1576 1745 2001 2224 3097 1613 1704 3874 2137 1685 3055 3672 2553 3676 1668 2241 2976 2992 1982 3126 3398 3632 2354 3916 2629 1793 3793 2223 3881 2137 2660 1943 2741 1936 3686 1524 2435 3826 2360 3051 2854 1535 3725 1905 3859 2115 3989 3282 1940 3861 2117 3676 1963 98 72 44 75 71 4 20 75 69 12 68 94 24 11 75 80 81 98 23 5 64 6 9 71 16 59 13 71 0 53 34
3991 3915 3175 3583 3098 2140 3443 3991 1705 3271 1932 3293 1730 2561 3735 2182 1714 3488 3391 2252 3025 3957 3632 2090 3347 2586 3808 3895 2850 1798 3177 3178 2737 2514 1597 3551 2673 2198 2040 3975 3558 1618 1910 1888 3472 3916 2227 2244 2096 3808 3817 2524 2936 3529 2692 2491 2656 2212 2236 2759 3017 1867 2821 1847 2127 2023 2930 3979 1510 2297 2099 2543 3971 2108 3725 3470 1857 2499 3491 1806 1931 1997 1557 2642 2386 3910 2509 2447 3011 2833 3282 1501 1659 1901 72 61 26 42 33 98 71 31 81 6 12 52 21 23 31 75 69 71 60 26 85 32 41 60 3 41 19 55 53 0 14
1996 1852 1618 3533 2922 2064 1971 2942 3449 2136 2347 3646 1724 1924 2398 3265 3475 1839 2485 3954 3649 3492 1993 1638 3736 3850 2981 2797 3650 1901 2777 3612 2554 3629 1844 2044 3081 1501 1941 2357 3321 2992 1693 2396 3958 3506 2211 1585 3519 3960 2643 3181 1710 1928 2616 1670 1892 3671 2486 2600 2945 1735 3807 2825 3875 3984 1973 3435 2218 3959 1809 2790 2822 2040 3101 3617 3458 2298 2801 2596 2056 2455 1972 1573 3260 1699 2153 1853 3152 2406 3589 1885 1629 3493 15 5 54 57 34 4 97 72 77 74 62 53 35 58 24 37 30 1 77 85 30 37 72 77 45 52 35 61 34 14 0
EOF
